<?xml version="1.0"?>
<VTKFile type="UnstructuredGrid" version="0.1">
<UnstructuredGrid>
<Piece NumberOfPoints="      1156" NumberOfCells="      1024">
<Points>
<DataArray type="Float64"                                    Name="coordinates"                                                      NumberOfComponents=" 3" format="ascii">
              0.133000000               0.000000000               0.000000000               0.155937500               0.000000000               0.000000000               0.178875000               0.000000000               0.000000000               0.201812500               0.000000000               0.000000000               0.224750000               0.000000000               0.000000000               0.247687500               0.000000000               0.000000000               0.270625000               0.000000000               0.000000000               0.293562500               0.000000000               0.000000000               0.316500000               0.000000000               0.000000000               0.339437500               0.000000000               0.000000000               0.362375000               0.000000000               0.000000000               0.385312500               0.000000000               0.000000000               0.408250000               0.000000000               0.000000000               0.431187500               0.000000000               0.000000000               0.454125000               0.000000000               0.000000000               0.477062500               0.000000000               0.000000000               0.500000000               0.000000000               0.000000000               0.132359569               0.013036280               0.000000000               0.155337096               0.016127762               0.000000000               0.178314623               0.019219245               0.000000000               0.201292150               0.022310727               0.000000000               0.224269676               0.025402210               0.000000000               0.247247203               0.028493692               0.000000000               0.270224730               0.031585175               0.000000000               0.293202257               0.034676657               0.000000000               0.316179784               0.037768140               0.000000000               0.339157311               0.040859622               0.000000000               0.362134838               0.043951105               0.000000000               0.385112365               0.047042587               0.000000000               0.408089892               0.050134070               0.000000000               0.431067419               0.053225552               0.000000000               0.454044946               0.056317035               0.000000000               0.477022473               0.059408517               0.000000000               0.500000000               0.062500000               0.000000000               0.130444442               0.025947013               0.000000000               0.153541665               0.032137825               0.000000000               0.176638887               0.038328636               0.000000000               0.199736109               0.044519448               0.000000000               0.222833332               0.050710260               0.000000000               0.245930554               0.056901071               0.000000000               0.269027776               0.063091883               0.000000000               0.292124999               0.069282695               0.000000000               0.315222221               0.075473506               0.000000000               0.338319444               0.081664318               0.000000000               0.361416666               0.087855130               0.000000000               0.384513888               0.094045942               0.000000000               0.407611111               0.100236753               0.000000000               0.430708333               0.106427565               0.000000000               0.453805555               0.112618377               0.000000000               0.476902778               0.118809188               0.000000000               0.500000000               0.125000000               0.000000000               0.127273065               0.038607862               0.000000000               0.150568498               0.047913621               0.000000000               0.173863932               0.057219379               0.000000000               0.197159365               0.066525138               0.000000000               0.220454798               0.075830897               0.000000000               0.243750232               0.085136655               0.000000000               0.267045665               0.094442414               0.000000000               0.290341099               0.103748172               0.000000000               0.313636532               0.113053931               0.000000000               0.336931966               0.122359690               0.000000000               0.360227399               0.131665448               0.000000000               0.383522833               0.140971207               0.000000000               0.406818266               0.150276966               0.000000000               0.430113700               0.159582724               0.000000000               0.453409133               0.168888483               0.000000000               0.476704567               0.178194241               0.000000000               0.500000000               0.187500000               0.000000000               0.122875978               0.050896897               0.000000000               0.146446229               0.063340840               0.000000000               0.170016481               0.075784784               0.000000000               0.193586732               0.088228728               0.000000000               0.217156983               0.100672672               0.000000000               0.240727235               0.113116616               0.000000000               0.264297486               0.125560560               0.000000000               0.287867738               0.138004504               0.000000000               0.311437989               0.150448448               0.000000000               0.335008240               0.162892392               0.000000000               0.358578492               0.175336336               0.000000000               0.382148743               0.187780280               0.000000000               0.405718994               0.200224224               0.000000000               0.429289246               0.212668168               0.000000000               0.452859497               0.225112112               0.000000000               0.476429749               0.237556056               0.000000000               0.500000000               0.250000000               0.000000000               0.117295528               0.062695766               0.000000000               0.141214558               0.078308531               0.000000000               0.165133587               0.093921295               0.000000000               0.189052617               0.109534060               0.000000000               0.212971646               0.125146824               0.000000000               0.236890676               0.140759589               0.000000000               0.260809705               0.156372354               0.000000000               0.284728735               0.171985118               0.000000000               0.308647764               0.187597883               0.000000000               0.332566794               0.203210648               0.000000000               0.356485823               0.218823412               0.000000000               0.380404853               0.234436177               0.000000000               0.404323882               0.250048941               0.000000000               0.428242912               0.265661706               0.000000000               0.452161941               0.281274471               0.000000000               0.476080971               0.296887235               0.000000000               0.500000000               0.312500000               0.000000000               0.110585458               0.073890841               0.000000000               0.134923867               0.092710163               0.000000000               0.159262276               0.111529486               0.000000000               0.183600685               0.130348808               0.000000000               0.207939094               0.149168131               0.000000000               0.232277503               0.167987453               0.000000000               0.256615912               0.186806776               0.000000000               0.280954320               0.205626098               0.000000000               0.305292729               0.224445420               0.000000000               0.329631138               0.243264743               0.000000000               0.353969547               0.262084065               0.000000000               0.378307956               0.280903388               0.000000000               0.402646365               0.299722710               0.000000000               0.426984773               0.318542033               0.000000000               0.451323182               0.337361355               0.000000000               0.475661591               0.356180678               0.000000000               0.500000000               0.375000000               0.000000000               0.102810390               0.084374307               0.000000000               0.127634741               0.106444663               0.000000000               0.152459092               0.128515018               0.000000000               0.177283442               0.150585374               0.000000000               0.202107793               0.172655730               0.000000000               0.226932143               0.194726086               0.000000000               0.251756494               0.216796442               0.000000000               0.276580845               0.238866798               0.000000000               0.301405195               0.260937153               0.000000000               0.326229546               0.283007509               0.000000000               0.351053896               0.305077865               0.000000000               0.375878247               0.327148221               0.000000000               0.400702598               0.349218577               0.000000000               0.425526948               0.371288933               0.000000000               0.450351299               0.393359288               0.000000000               0.475175649               0.415429644               0.000000000               0.500000000               0.437500000               0.000000000               0.094045202               0.094045202               0.000000000               0.119417377               0.119417377               0.000000000               0.144789552               0.144789552               0.000000000               0.170161727               0.170161727               0.000000000               0.195533901               0.195533901               0.000000000               0.220906076               0.220906076               0.000000000               0.246278251               0.246278251               0.000000000               0.271650426               0.271650426               0.000000000               0.297022601               0.297022601               0.000000000               0.322394776               0.322394776               0.000000000               0.347766951               0.347766951               0.000000000               0.373139126               0.373139126               0.000000000               0.398511300               0.398511300               0.000000000               0.423883475               0.423883475               0.000000000               0.449255650               0.449255650               0.000000000               0.474627825               0.474627825               0.000000000               0.500000000               0.500000000               0.000000000               0.084374307               0.102810390               0.000000000               0.106444663               0.127634741               0.000000000               0.128515018               0.152459092               0.000000000               0.150585374               0.177283442               0.000000000               0.172655730               0.202107793               0.000000000               0.194726086               0.226932143               0.000000000               0.216796442               0.251756494               0.000000000               0.238866798               0.276580845               0.000000000               0.260937153               0.301405195               0.000000000               0.283007509               0.326229546               0.000000000               0.305077865               0.351053896               0.000000000               0.327148221               0.375878247               0.000000000               0.349218577               0.400702598               0.000000000               0.371288933               0.425526948               0.000000000               0.393359288               0.450351299               0.000000000               0.415429644               0.475175649               0.000000000               0.437500000               0.500000000               0.000000000               0.073890841               0.110585458               0.000000000               0.092710163               0.134923867               0.000000000               0.111529486               0.159262276               0.000000000               0.130348808               0.183600685               0.000000000               0.149168131               0.207939094               0.000000000               0.167987453               0.232277503               0.000000000               0.186806776               0.256615912               0.000000000               0.205626098               0.280954320               0.000000000               0.224445420               0.305292729               0.000000000               0.243264743               0.329631138               0.000000000               0.262084065               0.353969547               0.000000000               0.280903388               0.378307956               0.000000000               0.299722710               0.402646365               0.000000000               0.318542033               0.426984773               0.000000000               0.337361355               0.451323182               0.000000000               0.356180678               0.475661591               0.000000000               0.375000000               0.500000000               0.000000000               0.062695766               0.117295528               0.000000000               0.078308531               0.141214558               0.000000000               0.093921295               0.165133587               0.000000000               0.109534060               0.189052617               0.000000000               0.125146824               0.212971646               0.000000000               0.140759589               0.236890676               0.000000000               0.156372354               0.260809705               0.000000000               0.171985118               0.284728735               0.000000000               0.187597883               0.308647764               0.000000000               0.203210648               0.332566794               0.000000000               0.218823412               0.356485823               0.000000000               0.234436177               0.380404853               0.000000000               0.250048941               0.404323882               0.000000000               0.265661706               0.428242912               0.000000000               0.281274471               0.452161941               0.000000000               0.296887235               0.476080971               0.000000000               0.312500000               0.500000000               0.000000000               0.050896897               0.122875978               0.000000000               0.063340840               0.146446229               0.000000000               0.075784784               0.170016481               0.000000000               0.088228728               0.193586732               0.000000000               0.100672672               0.217156983               0.000000000               0.113116616               0.240727235               0.000000000               0.125560560               0.264297486               0.000000000               0.138004504               0.287867738               0.000000000               0.150448448               0.311437989               0.000000000               0.162892392               0.335008240               0.000000000               0.175336336               0.358578492               0.000000000               0.187780280               0.382148743               0.000000000               0.200224224               0.405718994               0.000000000               0.212668168               0.429289246               0.000000000               0.225112112               0.452859497               0.000000000               0.237556056               0.476429749               0.000000000               0.250000000               0.500000000               0.000000000               0.038607862               0.127273065               0.000000000               0.047913621               0.150568498               0.000000000               0.057219379               0.173863932               0.000000000               0.066525138               0.197159365               0.000000000               0.075830897               0.220454798               0.000000000               0.085136655               0.243750232               0.000000000               0.094442414               0.267045665               0.000000000               0.103748172               0.290341099               0.000000000               0.113053931               0.313636532               0.000000000               0.122359690               0.336931966               0.000000000               0.131665448               0.360227399               0.000000000               0.140971207               0.383522833               0.000000000               0.150276966               0.406818266               0.000000000               0.159582724               0.430113700               0.000000000               0.168888483               0.453409133               0.000000000               0.178194241               0.476704567               0.000000000               0.187500000               0.500000000               0.000000000               0.025947013               0.130444442               0.000000000               0.032137825               0.153541665               0.000000000               0.038328636               0.176638887               0.000000000               0.044519448               0.199736109               0.000000000               0.050710260               0.222833332               0.000000000               0.056901071               0.245930554               0.000000000               0.063091883               0.269027776               0.000000000               0.069282695               0.292124999               0.000000000               0.075473506               0.315222221               0.000000000               0.081664318               0.338319444               0.000000000               0.087855130               0.361416666               0.000000000               0.094045942               0.384513888               0.000000000               0.100236753               0.407611111               0.000000000               0.106427565               0.430708333               0.000000000               0.112618377               0.453805555               0.000000000               0.118809188               0.476902778               0.000000000               0.125000000               0.500000000               0.000000000               0.013036280               0.132359569               0.000000000               0.016127762               0.155337096               0.000000000               0.019219245               0.178314623               0.000000000               0.022310727               0.201292150               0.000000000               0.025402210               0.224269676               0.000000000               0.028493692               0.247247203               0.000000000               0.031585175               0.270224730               0.000000000               0.034676657               0.293202257               0.000000000               0.037768140               0.316179784               0.000000000               0.040859622               0.339157311               0.000000000               0.043951105               0.362134838               0.000000000               0.047042587               0.385112365               0.000000000               0.050134070               0.408089892               0.000000000               0.053225552               0.431067419               0.000000000               0.056317035               0.454044946               0.000000000               0.059408517               0.477022473               0.000000000               0.062500000               0.500000000               0.000000000               0.000000000               0.133000000               0.000000000               0.000000000               0.155937500               0.000000000               0.000000000               0.178875000               0.000000000               0.000000000               0.201812500               0.000000000               0.000000000               0.224750000               0.000000000               0.000000000               0.247687500               0.000000000               0.000000000               0.270625000               0.000000000               0.000000000               0.293562500               0.000000000               0.000000000               0.316500000               0.000000000               0.000000000               0.339437500               0.000000000               0.000000000               0.362375000               0.000000000               0.000000000               0.385312500               0.000000000               0.000000000               0.408250000               0.000000000               0.000000000               0.431187500               0.000000000               0.000000000               0.454125000               0.000000000               0.000000000               0.477062500               0.000000000               0.000000000               0.500000000               0.000000000               0.133000000               0.000000000               0.000000000               0.155937500               0.000000000               0.000000000               0.178875000               0.000000000               0.000000000               0.201812500               0.000000000               0.000000000               0.224750000               0.000000000               0.000000000               0.247687500               0.000000000               0.000000000               0.270625000               0.000000000               0.000000000               0.293562500               0.000000000               0.000000000               0.316500000               0.000000000               0.000000000               0.339437500               0.000000000               0.000000000               0.362375000               0.000000000               0.000000000               0.385312500               0.000000000               0.000000000               0.408250000               0.000000000               0.000000000               0.431187500               0.000000000               0.000000000               0.454125000               0.000000000               0.000000000               0.477062500               0.000000000               0.000000000               0.500000000               0.000000000               0.000000000               0.132359569              -0.013036280               0.000000000               0.155337096              -0.016127762               0.000000000               0.178314623              -0.019219245               0.000000000               0.201292150              -0.022310727               0.000000000               0.224269676              -0.025402210               0.000000000               0.247247203              -0.028493692               0.000000000               0.270224730              -0.031585175               0.000000000               0.293202257              -0.034676657               0.000000000               0.316179784              -0.037768140               0.000000000               0.339157311              -0.040859622               0.000000000               0.362134838              -0.043951105               0.000000000               0.385112365              -0.047042587               0.000000000               0.408089892              -0.050134070               0.000000000               0.431067419              -0.053225552               0.000000000               0.454044946              -0.056317035               0.000000000               0.477022473              -0.059408517               0.000000000               0.500000000              -0.062500000               0.000000000               0.130444442              -0.025947013               0.000000000               0.153541665              -0.032137825               0.000000000               0.176638887              -0.038328636               0.000000000               0.199736109              -0.044519448               0.000000000               0.222833332              -0.050710260               0.000000000               0.245930554              -0.056901071               0.000000000               0.269027776              -0.063091883               0.000000000               0.292124999              -0.069282695               0.000000000               0.315222221              -0.075473506               0.000000000               0.338319444              -0.081664318               0.000000000               0.361416666              -0.087855130               0.000000000               0.384513888              -0.094045942               0.000000000               0.407611111              -0.100236753               0.000000000               0.430708333              -0.106427565               0.000000000               0.453805555              -0.112618377               0.000000000               0.476902778              -0.118809188               0.000000000               0.500000000              -0.125000000               0.000000000               0.127273065              -0.038607862               0.000000000               0.150568498              -0.047913621               0.000000000               0.173863932              -0.057219379               0.000000000               0.197159365              -0.066525138               0.000000000               0.220454798              -0.075830897               0.000000000               0.243750232              -0.085136655               0.000000000               0.267045665              -0.094442414               0.000000000               0.290341099              -0.103748172               0.000000000               0.313636532              -0.113053931               0.000000000               0.336931966              -0.122359690               0.000000000               0.360227399              -0.131665448               0.000000000               0.383522833              -0.140971207               0.000000000               0.406818266              -0.150276966               0.000000000               0.430113700              -0.159582724               0.000000000               0.453409133              -0.168888483               0.000000000               0.476704567              -0.178194241               0.000000000               0.500000000              -0.187500000               0.000000000               0.122875978              -0.050896897               0.000000000               0.146446229              -0.063340840               0.000000000               0.170016481              -0.075784784               0.000000000               0.193586732              -0.088228728               0.000000000               0.217156983              -0.100672672               0.000000000               0.240727235              -0.113116616               0.000000000               0.264297486              -0.125560560               0.000000000               0.287867738              -0.138004504               0.000000000               0.311437989              -0.150448448               0.000000000               0.335008240              -0.162892392               0.000000000               0.358578492              -0.175336336               0.000000000               0.382148743              -0.187780280               0.000000000               0.405718994              -0.200224224               0.000000000               0.429289246              -0.212668168               0.000000000               0.452859497              -0.225112112               0.000000000               0.476429749              -0.237556056               0.000000000               0.500000000              -0.250000000               0.000000000               0.117295528              -0.062695766               0.000000000               0.141214558              -0.078308531               0.000000000               0.165133587              -0.093921295               0.000000000               0.189052617              -0.109534060               0.000000000               0.212971646              -0.125146824               0.000000000               0.236890676              -0.140759589               0.000000000               0.260809705              -0.156372354               0.000000000               0.284728735              -0.171985118               0.000000000               0.308647764              -0.187597883               0.000000000               0.332566794              -0.203210648               0.000000000               0.356485823              -0.218823412               0.000000000               0.380404853              -0.234436177               0.000000000               0.404323882              -0.250048941               0.000000000               0.428242912              -0.265661706               0.000000000               0.452161941              -0.281274471               0.000000000               0.476080971              -0.296887235               0.000000000               0.500000000              -0.312500000               0.000000000               0.110585458              -0.073890841               0.000000000               0.134923867              -0.092710163               0.000000000               0.159262276              -0.111529486               0.000000000               0.183600685              -0.130348808               0.000000000               0.207939094              -0.149168131               0.000000000               0.232277503              -0.167987453               0.000000000               0.256615912              -0.186806776               0.000000000               0.280954320              -0.205626098               0.000000000               0.305292729              -0.224445420               0.000000000               0.329631138              -0.243264743               0.000000000               0.353969547              -0.262084065               0.000000000               0.378307956              -0.280903388               0.000000000               0.402646365              -0.299722710               0.000000000               0.426984773              -0.318542033               0.000000000               0.451323182              -0.337361355               0.000000000               0.475661591              -0.356180678               0.000000000               0.500000000              -0.375000000               0.000000000               0.102810390              -0.084374307               0.000000000               0.127634741              -0.106444663               0.000000000               0.152459092              -0.128515018               0.000000000               0.177283442              -0.150585374               0.000000000               0.202107793              -0.172655730               0.000000000               0.226932143              -0.194726086               0.000000000               0.251756494              -0.216796442               0.000000000               0.276580845              -0.238866798               0.000000000               0.301405195              -0.260937153               0.000000000               0.326229546              -0.283007509               0.000000000               0.351053896              -0.305077865               0.000000000               0.375878247              -0.327148221               0.000000000               0.400702598              -0.349218577               0.000000000               0.425526948              -0.371288933               0.000000000               0.450351299              -0.393359288               0.000000000               0.475175649              -0.415429644               0.000000000               0.500000000              -0.437500000               0.000000000               0.094045202              -0.094045202               0.000000000               0.119417377              -0.119417377               0.000000000               0.144789552              -0.144789552               0.000000000               0.170161727              -0.170161727               0.000000000               0.195533901              -0.195533901               0.000000000               0.220906076              -0.220906076               0.000000000               0.246278251              -0.246278251               0.000000000               0.271650426              -0.271650426               0.000000000               0.297022601              -0.297022601               0.000000000               0.322394776              -0.322394776               0.000000000               0.347766951              -0.347766951               0.000000000               0.373139126              -0.373139126               0.000000000               0.398511300              -0.398511300               0.000000000               0.423883475              -0.423883475               0.000000000               0.449255650              -0.449255650               0.000000000               0.474627825              -0.474627825               0.000000000               0.500000000              -0.500000000               0.000000000               0.084374307              -0.102810390               0.000000000               0.106444663              -0.127634741               0.000000000               0.128515018              -0.152459092               0.000000000               0.150585374              -0.177283442               0.000000000               0.172655730              -0.202107793               0.000000000               0.194726086              -0.226932143               0.000000000               0.216796442              -0.251756494               0.000000000               0.238866798              -0.276580845               0.000000000               0.260937153              -0.301405195               0.000000000               0.283007509              -0.326229546               0.000000000               0.305077865              -0.351053896               0.000000000               0.327148221              -0.375878247               0.000000000               0.349218577              -0.400702598               0.000000000               0.371288933              -0.425526948               0.000000000               0.393359288              -0.450351299               0.000000000               0.415429644              -0.475175649               0.000000000               0.437500000              -0.500000000               0.000000000               0.073890841              -0.110585458               0.000000000               0.092710163              -0.134923867               0.000000000               0.111529486              -0.159262276               0.000000000               0.130348808              -0.183600685               0.000000000               0.149168131              -0.207939094               0.000000000               0.167987453              -0.232277503               0.000000000               0.186806776              -0.256615912               0.000000000               0.205626098              -0.280954320               0.000000000               0.224445420              -0.305292729               0.000000000               0.243264743              -0.329631138               0.000000000               0.262084065              -0.353969547               0.000000000               0.280903388              -0.378307956               0.000000000               0.299722710              -0.402646365               0.000000000               0.318542033              -0.426984773               0.000000000               0.337361355              -0.451323182               0.000000000               0.356180678              -0.475661591               0.000000000               0.375000000              -0.500000000               0.000000000               0.062695766              -0.117295528               0.000000000               0.078308531              -0.141214558               0.000000000               0.093921295              -0.165133587               0.000000000               0.109534060              -0.189052617               0.000000000               0.125146824              -0.212971646               0.000000000               0.140759589              -0.236890676               0.000000000               0.156372354              -0.260809705               0.000000000               0.171985118              -0.284728735               0.000000000               0.187597883              -0.308647764               0.000000000               0.203210648              -0.332566794               0.000000000               0.218823412              -0.356485823               0.000000000               0.234436177              -0.380404853               0.000000000               0.250048941              -0.404323882               0.000000000               0.265661706              -0.428242912               0.000000000               0.281274471              -0.452161941               0.000000000               0.296887235              -0.476080971               0.000000000               0.312500000              -0.500000000               0.000000000               0.050896897              -0.122875978               0.000000000               0.063340840              -0.146446229               0.000000000               0.075784784              -0.170016481               0.000000000               0.088228728              -0.193586732               0.000000000               0.100672672              -0.217156983               0.000000000               0.113116616              -0.240727235               0.000000000               0.125560560              -0.264297486               0.000000000               0.138004504              -0.287867738               0.000000000               0.150448448              -0.311437989               0.000000000               0.162892392              -0.335008240               0.000000000               0.175336336              -0.358578492               0.000000000               0.187780280              -0.382148743               0.000000000               0.200224224              -0.405718994               0.000000000               0.212668168              -0.429289246               0.000000000               0.225112112              -0.452859497               0.000000000               0.237556056              -0.476429749               0.000000000               0.250000000              -0.500000000               0.000000000               0.038607862              -0.127273065               0.000000000               0.047913621              -0.150568498               0.000000000               0.057219379              -0.173863932               0.000000000               0.066525138              -0.197159365               0.000000000               0.075830897              -0.220454798               0.000000000               0.085136655              -0.243750232               0.000000000               0.094442414              -0.267045665               0.000000000               0.103748172              -0.290341099               0.000000000               0.113053931              -0.313636532               0.000000000               0.122359690              -0.336931966               0.000000000               0.131665448              -0.360227399               0.000000000               0.140971207              -0.383522833               0.000000000               0.150276966              -0.406818266               0.000000000               0.159582724              -0.430113700               0.000000000               0.168888483              -0.453409133               0.000000000               0.178194241              -0.476704567               0.000000000               0.187500000              -0.500000000               0.000000000               0.025947013              -0.130444442               0.000000000               0.032137825              -0.153541665               0.000000000               0.038328636              -0.176638887               0.000000000               0.044519448              -0.199736109               0.000000000               0.050710260              -0.222833332               0.000000000               0.056901071              -0.245930554               0.000000000               0.063091883              -0.269027776               0.000000000               0.069282695              -0.292124999               0.000000000               0.075473506              -0.315222221               0.000000000               0.081664318              -0.338319444               0.000000000               0.087855130              -0.361416666               0.000000000               0.094045942              -0.384513888               0.000000000               0.100236753              -0.407611111               0.000000000               0.106427565              -0.430708333               0.000000000               0.112618377              -0.453805555               0.000000000               0.118809188              -0.476902778               0.000000000               0.125000000              -0.500000000               0.000000000               0.013036280              -0.132359569               0.000000000               0.016127762              -0.155337096               0.000000000               0.019219245              -0.178314623               0.000000000               0.022310727              -0.201292150               0.000000000               0.025402210              -0.224269676               0.000000000               0.028493692              -0.247247203               0.000000000               0.031585175              -0.270224730               0.000000000               0.034676657              -0.293202257               0.000000000               0.037768140              -0.316179784               0.000000000               0.040859622              -0.339157311               0.000000000               0.043951105              -0.362134838               0.000000000               0.047042587              -0.385112365               0.000000000               0.050134070              -0.408089892               0.000000000               0.053225552              -0.431067419               0.000000000               0.056317035              -0.454044946               0.000000000               0.059408517              -0.477022473               0.000000000               0.062500000              -0.500000000               0.000000000               0.000000000              -0.133000000               0.000000000               0.000000000              -0.155937500               0.000000000               0.000000000              -0.178875000               0.000000000               0.000000000              -0.201812500               0.000000000               0.000000000              -0.224750000               0.000000000               0.000000000              -0.247687500               0.000000000               0.000000000              -0.270625000               0.000000000               0.000000000              -0.293562500               0.000000000               0.000000000              -0.316500000               0.000000000               0.000000000              -0.339437500               0.000000000               0.000000000              -0.362375000               0.000000000               0.000000000              -0.385312500               0.000000000               0.000000000              -0.408250000               0.000000000               0.000000000              -0.431187500               0.000000000               0.000000000              -0.454125000               0.000000000               0.000000000              -0.477062500               0.000000000               0.000000000              -0.500000000               0.000000000              -0.133000000               0.000000000               0.000000000              -0.155937500               0.000000000               0.000000000              -0.178875000               0.000000000               0.000000000              -0.201812500               0.000000000               0.000000000              -0.224750000               0.000000000               0.000000000              -0.247687500               0.000000000               0.000000000              -0.270625000               0.000000000               0.000000000              -0.293562500               0.000000000               0.000000000              -0.316500000               0.000000000               0.000000000              -0.339437500               0.000000000               0.000000000              -0.362375000               0.000000000               0.000000000              -0.385312500               0.000000000               0.000000000              -0.408250000               0.000000000               0.000000000              -0.431187500               0.000000000               0.000000000              -0.454125000               0.000000000               0.000000000              -0.477062500               0.000000000               0.000000000              -0.500000000               0.000000000               0.000000000              -0.132359569              -0.013036280               0.000000000              -0.155337096              -0.016127762               0.000000000              -0.178314623              -0.019219245               0.000000000              -0.201292150              -0.022310727               0.000000000              -0.224269676              -0.025402210               0.000000000              -0.247247203              -0.028493692               0.000000000              -0.270224730              -0.031585175               0.000000000              -0.293202257              -0.034676657               0.000000000              -0.316179784              -0.037768140               0.000000000              -0.339157311              -0.040859622               0.000000000              -0.362134838              -0.043951105               0.000000000              -0.385112365              -0.047042587               0.000000000              -0.408089892              -0.050134070               0.000000000              -0.431067419              -0.053225552               0.000000000              -0.454044946              -0.056317035               0.000000000              -0.477022473              -0.059408517               0.000000000              -0.500000000              -0.062500000               0.000000000              -0.130444442              -0.025947013               0.000000000              -0.153541665              -0.032137825               0.000000000              -0.176638887              -0.038328636               0.000000000              -0.199736109              -0.044519448               0.000000000              -0.222833332              -0.050710260               0.000000000              -0.245930554              -0.056901071               0.000000000              -0.269027776              -0.063091883               0.000000000              -0.292124999              -0.069282695               0.000000000              -0.315222221              -0.075473506               0.000000000              -0.338319444              -0.081664318               0.000000000              -0.361416666              -0.087855130               0.000000000              -0.384513888              -0.094045942               0.000000000              -0.407611111              -0.100236753               0.000000000              -0.430708333              -0.106427565               0.000000000              -0.453805555              -0.112618377               0.000000000              -0.476902778              -0.118809188               0.000000000              -0.500000000              -0.125000000               0.000000000              -0.127273065              -0.038607862               0.000000000              -0.150568498              -0.047913621               0.000000000              -0.173863932              -0.057219379               0.000000000              -0.197159365              -0.066525138               0.000000000              -0.220454798              -0.075830897               0.000000000              -0.243750232              -0.085136655               0.000000000              -0.267045665              -0.094442414               0.000000000              -0.290341099              -0.103748172               0.000000000              -0.313636532              -0.113053931               0.000000000              -0.336931966              -0.122359690               0.000000000              -0.360227399              -0.131665448               0.000000000              -0.383522833              -0.140971207               0.000000000              -0.406818266              -0.150276966               0.000000000              -0.430113700              -0.159582724               0.000000000              -0.453409133              -0.168888483               0.000000000              -0.476704567              -0.178194241               0.000000000              -0.500000000              -0.187500000               0.000000000              -0.122875978              -0.050896897               0.000000000              -0.146446229              -0.063340840               0.000000000              -0.170016481              -0.075784784               0.000000000              -0.193586732              -0.088228728               0.000000000              -0.217156983              -0.100672672               0.000000000              -0.240727235              -0.113116616               0.000000000              -0.264297486              -0.125560560               0.000000000              -0.287867738              -0.138004504               0.000000000              -0.311437989              -0.150448448               0.000000000              -0.335008240              -0.162892392               0.000000000              -0.358578492              -0.175336336               0.000000000              -0.382148743              -0.187780280               0.000000000              -0.405718994              -0.200224224               0.000000000              -0.429289246              -0.212668168               0.000000000              -0.452859497              -0.225112112               0.000000000              -0.476429749              -0.237556056               0.000000000              -0.500000000              -0.250000000               0.000000000              -0.117295528              -0.062695766               0.000000000              -0.141214558              -0.078308531               0.000000000              -0.165133587              -0.093921295               0.000000000              -0.189052617              -0.109534060               0.000000000              -0.212971646              -0.125146824               0.000000000              -0.236890676              -0.140759589               0.000000000              -0.260809705              -0.156372354               0.000000000              -0.284728735              -0.171985118               0.000000000              -0.308647764              -0.187597883               0.000000000              -0.332566794              -0.203210648               0.000000000              -0.356485823              -0.218823412               0.000000000              -0.380404853              -0.234436177               0.000000000              -0.404323882              -0.250048941               0.000000000              -0.428242912              -0.265661706               0.000000000              -0.452161941              -0.281274471               0.000000000              -0.476080971              -0.296887235               0.000000000              -0.500000000              -0.312500000               0.000000000              -0.110585458              -0.073890841               0.000000000              -0.134923867              -0.092710163               0.000000000              -0.159262276              -0.111529486               0.000000000              -0.183600685              -0.130348808               0.000000000              -0.207939094              -0.149168131               0.000000000              -0.232277503              -0.167987453               0.000000000              -0.256615912              -0.186806776               0.000000000              -0.280954320              -0.205626098               0.000000000              -0.305292729              -0.224445420               0.000000000              -0.329631138              -0.243264743               0.000000000              -0.353969547              -0.262084065               0.000000000              -0.378307956              -0.280903388               0.000000000              -0.402646365              -0.299722710               0.000000000              -0.426984773              -0.318542033               0.000000000              -0.451323182              -0.337361355               0.000000000              -0.475661591              -0.356180678               0.000000000              -0.500000000              -0.375000000               0.000000000              -0.102810390              -0.084374307               0.000000000              -0.127634741              -0.106444663               0.000000000              -0.152459092              -0.128515018               0.000000000              -0.177283442              -0.150585374               0.000000000              -0.202107793              -0.172655730               0.000000000              -0.226932143              -0.194726086               0.000000000              -0.251756494              -0.216796442               0.000000000              -0.276580845              -0.238866798               0.000000000              -0.301405195              -0.260937153               0.000000000              -0.326229546              -0.283007509               0.000000000              -0.351053896              -0.305077865               0.000000000              -0.375878247              -0.327148221               0.000000000              -0.400702598              -0.349218577               0.000000000              -0.425526948              -0.371288933               0.000000000              -0.450351299              -0.393359288               0.000000000              -0.475175649              -0.415429644               0.000000000              -0.500000000              -0.437500000               0.000000000              -0.094045202              -0.094045202               0.000000000              -0.119417377              -0.119417377               0.000000000              -0.144789552              -0.144789552               0.000000000              -0.170161727              -0.170161727               0.000000000              -0.195533901              -0.195533901               0.000000000              -0.220906076              -0.220906076               0.000000000              -0.246278251              -0.246278251               0.000000000              -0.271650426              -0.271650426               0.000000000              -0.297022601              -0.297022601               0.000000000              -0.322394776              -0.322394776               0.000000000              -0.347766951              -0.347766951               0.000000000              -0.373139126              -0.373139126               0.000000000              -0.398511300              -0.398511300               0.000000000              -0.423883475              -0.423883475               0.000000000              -0.449255650              -0.449255650               0.000000000              -0.474627825              -0.474627825               0.000000000              -0.500000000              -0.500000000               0.000000000              -0.084374307              -0.102810390               0.000000000              -0.106444663              -0.127634741               0.000000000              -0.128515018              -0.152459092               0.000000000              -0.150585374              -0.177283442               0.000000000              -0.172655730              -0.202107793               0.000000000              -0.194726086              -0.226932143               0.000000000              -0.216796442              -0.251756494               0.000000000              -0.238866798              -0.276580845               0.000000000              -0.260937153              -0.301405195               0.000000000              -0.283007509              -0.326229546               0.000000000              -0.305077865              -0.351053896               0.000000000              -0.327148221              -0.375878247               0.000000000              -0.349218577              -0.400702598               0.000000000              -0.371288933              -0.425526948               0.000000000              -0.393359288              -0.450351299               0.000000000              -0.415429644              -0.475175649               0.000000000              -0.437500000              -0.500000000               0.000000000              -0.073890841              -0.110585458               0.000000000              -0.092710163              -0.134923867               0.000000000              -0.111529486              -0.159262276               0.000000000              -0.130348808              -0.183600685               0.000000000              -0.149168131              -0.207939094               0.000000000              -0.167987453              -0.232277503               0.000000000              -0.186806776              -0.256615912               0.000000000              -0.205626098              -0.280954320               0.000000000              -0.224445420              -0.305292729               0.000000000              -0.243264743              -0.329631138               0.000000000              -0.262084065              -0.353969547               0.000000000              -0.280903388              -0.378307956               0.000000000              -0.299722710              -0.402646365               0.000000000              -0.318542033              -0.426984773               0.000000000              -0.337361355              -0.451323182               0.000000000              -0.356180678              -0.475661591               0.000000000              -0.375000000              -0.500000000               0.000000000              -0.062695766              -0.117295528               0.000000000              -0.078308531              -0.141214558               0.000000000              -0.093921295              -0.165133587               0.000000000              -0.109534060              -0.189052617               0.000000000              -0.125146824              -0.212971646               0.000000000              -0.140759589              -0.236890676               0.000000000              -0.156372354              -0.260809705               0.000000000              -0.171985118              -0.284728735               0.000000000              -0.187597883              -0.308647764               0.000000000              -0.203210648              -0.332566794               0.000000000              -0.218823412              -0.356485823               0.000000000              -0.234436177              -0.380404853               0.000000000              -0.250048941              -0.404323882               0.000000000              -0.265661706              -0.428242912               0.000000000              -0.281274471              -0.452161941               0.000000000              -0.296887235              -0.476080971               0.000000000              -0.312500000              -0.500000000               0.000000000              -0.050896897              -0.122875978               0.000000000              -0.063340840              -0.146446229               0.000000000              -0.075784784              -0.170016481               0.000000000              -0.088228728              -0.193586732               0.000000000              -0.100672672              -0.217156983               0.000000000              -0.113116616              -0.240727235               0.000000000              -0.125560560              -0.264297486               0.000000000              -0.138004504              -0.287867738               0.000000000              -0.150448448              -0.311437989               0.000000000              -0.162892392              -0.335008240               0.000000000              -0.175336336              -0.358578492               0.000000000              -0.187780280              -0.382148743               0.000000000              -0.200224224              -0.405718994               0.000000000              -0.212668168              -0.429289246               0.000000000              -0.225112112              -0.452859497               0.000000000              -0.237556056              -0.476429749               0.000000000              -0.250000000              -0.500000000               0.000000000              -0.038607862              -0.127273065               0.000000000              -0.047913621              -0.150568498               0.000000000              -0.057219379              -0.173863932               0.000000000              -0.066525138              -0.197159365               0.000000000              -0.075830897              -0.220454798               0.000000000              -0.085136655              -0.243750232               0.000000000              -0.094442414              -0.267045665               0.000000000              -0.103748172              -0.290341099               0.000000000              -0.113053931              -0.313636532               0.000000000              -0.122359690              -0.336931966               0.000000000              -0.131665448              -0.360227399               0.000000000              -0.140971207              -0.383522833               0.000000000              -0.150276966              -0.406818266               0.000000000              -0.159582724              -0.430113700               0.000000000              -0.168888483              -0.453409133               0.000000000              -0.178194241              -0.476704567               0.000000000              -0.187500000              -0.500000000               0.000000000              -0.025947013              -0.130444442               0.000000000              -0.032137825              -0.153541665               0.000000000              -0.038328636              -0.176638887               0.000000000              -0.044519448              -0.199736109               0.000000000              -0.050710260              -0.222833332               0.000000000              -0.056901071              -0.245930554               0.000000000              -0.063091883              -0.269027776               0.000000000              -0.069282695              -0.292124999               0.000000000              -0.075473506              -0.315222221               0.000000000              -0.081664318              -0.338319444               0.000000000              -0.087855130              -0.361416666               0.000000000              -0.094045942              -0.384513888               0.000000000              -0.100236753              -0.407611111               0.000000000              -0.106427565              -0.430708333               0.000000000              -0.112618377              -0.453805555               0.000000000              -0.118809188              -0.476902778               0.000000000              -0.125000000              -0.500000000               0.000000000              -0.013036280              -0.132359569               0.000000000              -0.016127762              -0.155337096               0.000000000              -0.019219245              -0.178314623               0.000000000              -0.022310727              -0.201292150               0.000000000              -0.025402210              -0.224269676               0.000000000              -0.028493692              -0.247247203               0.000000000              -0.031585175              -0.270224730               0.000000000              -0.034676657              -0.293202257               0.000000000              -0.037768140              -0.316179784               0.000000000              -0.040859622              -0.339157311               0.000000000              -0.043951105              -0.362134838               0.000000000              -0.047042587              -0.385112365               0.000000000              -0.050134070              -0.408089892               0.000000000              -0.053225552              -0.431067419               0.000000000              -0.056317035              -0.454044946               0.000000000              -0.059408517              -0.477022473               0.000000000              -0.062500000              -0.500000000               0.000000000               0.000000000              -0.133000000               0.000000000               0.000000000              -0.155937500               0.000000000               0.000000000              -0.178875000               0.000000000               0.000000000              -0.201812500               0.000000000               0.000000000              -0.224750000               0.000000000               0.000000000              -0.247687500               0.000000000               0.000000000              -0.270625000               0.000000000               0.000000000              -0.293562500               0.000000000               0.000000000              -0.316500000               0.000000000               0.000000000              -0.339437500               0.000000000               0.000000000              -0.362375000               0.000000000               0.000000000              -0.385312500               0.000000000               0.000000000              -0.408250000               0.000000000               0.000000000              -0.431187500               0.000000000               0.000000000              -0.454125000               0.000000000               0.000000000              -0.477062500               0.000000000               0.000000000              -0.500000000               0.000000000              -0.133000000               0.000000000               0.000000000              -0.155937500               0.000000000               0.000000000              -0.178875000               0.000000000               0.000000000              -0.201812500               0.000000000               0.000000000              -0.224750000               0.000000000               0.000000000              -0.247687500               0.000000000               0.000000000              -0.270625000               0.000000000               0.000000000              -0.293562500               0.000000000               0.000000000              -0.316500000               0.000000000               0.000000000              -0.339437500               0.000000000               0.000000000              -0.362375000               0.000000000               0.000000000              -0.385312500               0.000000000               0.000000000              -0.408250000               0.000000000               0.000000000              -0.431187500               0.000000000               0.000000000              -0.454125000               0.000000000               0.000000000              -0.477062500               0.000000000               0.000000000              -0.500000000               0.000000000               0.000000000              -0.132359569               0.013036280               0.000000000              -0.155337096               0.016127762               0.000000000              -0.178314623               0.019219245               0.000000000              -0.201292150               0.022310727               0.000000000              -0.224269676               0.025402210               0.000000000              -0.247247203               0.028493692               0.000000000              -0.270224730               0.031585175               0.000000000              -0.293202257               0.034676657               0.000000000              -0.316179784               0.037768140               0.000000000              -0.339157311               0.040859622               0.000000000              -0.362134838               0.043951105               0.000000000              -0.385112365               0.047042587               0.000000000              -0.408089892               0.050134070               0.000000000              -0.431067419               0.053225552               0.000000000              -0.454044946               0.056317035               0.000000000              -0.477022473               0.059408517               0.000000000              -0.500000000               0.062500000               0.000000000              -0.130444442               0.025947013               0.000000000              -0.153541665               0.032137825               0.000000000              -0.176638887               0.038328636               0.000000000              -0.199736109               0.044519448               0.000000000              -0.222833332               0.050710260               0.000000000              -0.245930554               0.056901071               0.000000000              -0.269027776               0.063091883               0.000000000              -0.292124999               0.069282695               0.000000000              -0.315222221               0.075473506               0.000000000              -0.338319444               0.081664318               0.000000000              -0.361416666               0.087855130               0.000000000              -0.384513888               0.094045942               0.000000000              -0.407611111               0.100236753               0.000000000              -0.430708333               0.106427565               0.000000000              -0.453805555               0.112618377               0.000000000              -0.476902778               0.118809188               0.000000000              -0.500000000               0.125000000               0.000000000              -0.127273065               0.038607862               0.000000000              -0.150568498               0.047913621               0.000000000              -0.173863932               0.057219379               0.000000000              -0.197159365               0.066525138               0.000000000              -0.220454798               0.075830897               0.000000000              -0.243750232               0.085136655               0.000000000              -0.267045665               0.094442414               0.000000000              -0.290341099               0.103748172               0.000000000              -0.313636532               0.113053931               0.000000000              -0.336931966               0.122359690               0.000000000              -0.360227399               0.131665448               0.000000000              -0.383522833               0.140971207               0.000000000              -0.406818266               0.150276966               0.000000000              -0.430113700               0.159582724               0.000000000              -0.453409133               0.168888483               0.000000000              -0.476704567               0.178194241               0.000000000              -0.500000000               0.187500000               0.000000000              -0.122875978               0.050896897               0.000000000              -0.146446229               0.063340840               0.000000000              -0.170016481               0.075784784               0.000000000              -0.193586732               0.088228728               0.000000000              -0.217156983               0.100672672               0.000000000              -0.240727235               0.113116616               0.000000000              -0.264297486               0.125560560               0.000000000              -0.287867738               0.138004504               0.000000000              -0.311437989               0.150448448               0.000000000              -0.335008240               0.162892392               0.000000000              -0.358578492               0.175336336               0.000000000              -0.382148743               0.187780280               0.000000000              -0.405718994               0.200224224               0.000000000              -0.429289246               0.212668168               0.000000000              -0.452859497               0.225112112               0.000000000              -0.476429749               0.237556056               0.000000000              -0.500000000               0.250000000               0.000000000              -0.117295528               0.062695766               0.000000000              -0.141214558               0.078308531               0.000000000              -0.165133587               0.093921295               0.000000000              -0.189052617               0.109534060               0.000000000              -0.212971646               0.125146824               0.000000000              -0.236890676               0.140759589               0.000000000              -0.260809705               0.156372354               0.000000000              -0.284728735               0.171985118               0.000000000              -0.308647764               0.187597883               0.000000000              -0.332566794               0.203210648               0.000000000              -0.356485823               0.218823412               0.000000000              -0.380404853               0.234436177               0.000000000              -0.404323882               0.250048941               0.000000000              -0.428242912               0.265661706               0.000000000              -0.452161941               0.281274471               0.000000000              -0.476080971               0.296887235               0.000000000              -0.500000000               0.312500000               0.000000000              -0.110585458               0.073890841               0.000000000              -0.134923867               0.092710163               0.000000000              -0.159262276               0.111529486               0.000000000              -0.183600685               0.130348808               0.000000000              -0.207939094               0.149168131               0.000000000              -0.232277503               0.167987453               0.000000000              -0.256615912               0.186806776               0.000000000              -0.280954320               0.205626098               0.000000000              -0.305292729               0.224445420               0.000000000              -0.329631138               0.243264743               0.000000000              -0.353969547               0.262084065               0.000000000              -0.378307956               0.280903388               0.000000000              -0.402646365               0.299722710               0.000000000              -0.426984773               0.318542033               0.000000000              -0.451323182               0.337361355               0.000000000              -0.475661591               0.356180678               0.000000000              -0.500000000               0.375000000               0.000000000              -0.102810390               0.084374307               0.000000000              -0.127634741               0.106444663               0.000000000              -0.152459092               0.128515018               0.000000000              -0.177283442               0.150585374               0.000000000              -0.202107793               0.172655730               0.000000000              -0.226932143               0.194726086               0.000000000              -0.251756494               0.216796442               0.000000000              -0.276580845               0.238866798               0.000000000              -0.301405195               0.260937153               0.000000000              -0.326229546               0.283007509               0.000000000              -0.351053896               0.305077865               0.000000000              -0.375878247               0.327148221               0.000000000              -0.400702598               0.349218577               0.000000000              -0.425526948               0.371288933               0.000000000              -0.450351299               0.393359288               0.000000000              -0.475175649               0.415429644               0.000000000              -0.500000000               0.437500000               0.000000000              -0.094045202               0.094045202               0.000000000              -0.119417377               0.119417377               0.000000000              -0.144789552               0.144789552               0.000000000              -0.170161727               0.170161727               0.000000000              -0.195533901               0.195533901               0.000000000              -0.220906076               0.220906076               0.000000000              -0.246278251               0.246278251               0.000000000              -0.271650426               0.271650426               0.000000000              -0.297022601               0.297022601               0.000000000              -0.322394776               0.322394776               0.000000000              -0.347766951               0.347766951               0.000000000              -0.373139126               0.373139126               0.000000000              -0.398511300               0.398511300               0.000000000              -0.423883475               0.423883475               0.000000000              -0.449255650               0.449255650               0.000000000              -0.474627825               0.474627825               0.000000000              -0.500000000               0.500000000               0.000000000              -0.084374307               0.102810390               0.000000000              -0.106444663               0.127634741               0.000000000              -0.128515018               0.152459092               0.000000000              -0.150585374               0.177283442               0.000000000              -0.172655730               0.202107793               0.000000000              -0.194726086               0.226932143               0.000000000              -0.216796442               0.251756494               0.000000000              -0.238866798               0.276580845               0.000000000              -0.260937153               0.301405195               0.000000000              -0.283007509               0.326229546               0.000000000              -0.305077865               0.351053896               0.000000000              -0.327148221               0.375878247               0.000000000              -0.349218577               0.400702598               0.000000000              -0.371288933               0.425526948               0.000000000              -0.393359288               0.450351299               0.000000000              -0.415429644               0.475175649               0.000000000              -0.437500000               0.500000000               0.000000000              -0.073890841               0.110585458               0.000000000              -0.092710163               0.134923867               0.000000000              -0.111529486               0.159262276               0.000000000              -0.130348808               0.183600685               0.000000000              -0.149168131               0.207939094               0.000000000              -0.167987453               0.232277503               0.000000000              -0.186806776               0.256615912               0.000000000              -0.205626098               0.280954320               0.000000000              -0.224445420               0.305292729               0.000000000              -0.243264743               0.329631138               0.000000000              -0.262084065               0.353969547               0.000000000              -0.280903388               0.378307956               0.000000000              -0.299722710               0.402646365               0.000000000              -0.318542033               0.426984773               0.000000000              -0.337361355               0.451323182               0.000000000              -0.356180678               0.475661591               0.000000000              -0.375000000               0.500000000               0.000000000              -0.062695766               0.117295528               0.000000000              -0.078308531               0.141214558               0.000000000              -0.093921295               0.165133587               0.000000000              -0.109534060               0.189052617               0.000000000              -0.125146824               0.212971646               0.000000000              -0.140759589               0.236890676               0.000000000              -0.156372354               0.260809705               0.000000000              -0.171985118               0.284728735               0.000000000              -0.187597883               0.308647764               0.000000000              -0.203210648               0.332566794               0.000000000              -0.218823412               0.356485823               0.000000000              -0.234436177               0.380404853               0.000000000              -0.250048941               0.404323882               0.000000000              -0.265661706               0.428242912               0.000000000              -0.281274471               0.452161941               0.000000000              -0.296887235               0.476080971               0.000000000              -0.312500000               0.500000000               0.000000000              -0.050896897               0.122875978               0.000000000              -0.063340840               0.146446229               0.000000000              -0.075784784               0.170016481               0.000000000              -0.088228728               0.193586732               0.000000000              -0.100672672               0.217156983               0.000000000              -0.113116616               0.240727235               0.000000000              -0.125560560               0.264297486               0.000000000              -0.138004504               0.287867738               0.000000000              -0.150448448               0.311437989               0.000000000              -0.162892392               0.335008240               0.000000000              -0.175336336               0.358578492               0.000000000              -0.187780280               0.382148743               0.000000000              -0.200224224               0.405718994               0.000000000              -0.212668168               0.429289246               0.000000000              -0.225112112               0.452859497               0.000000000              -0.237556056               0.476429749               0.000000000              -0.250000000               0.500000000               0.000000000              -0.038607862               0.127273065               0.000000000              -0.047913621               0.150568498               0.000000000              -0.057219379               0.173863932               0.000000000              -0.066525138               0.197159365               0.000000000              -0.075830897               0.220454798               0.000000000              -0.085136655               0.243750232               0.000000000              -0.094442414               0.267045665               0.000000000              -0.103748172               0.290341099               0.000000000              -0.113053931               0.313636532               0.000000000              -0.122359690               0.336931966               0.000000000              -0.131665448               0.360227399               0.000000000              -0.140971207               0.383522833               0.000000000              -0.150276966               0.406818266               0.000000000              -0.159582724               0.430113700               0.000000000              -0.168888483               0.453409133               0.000000000              -0.178194241               0.476704567               0.000000000              -0.187500000               0.500000000               0.000000000              -0.025947013               0.130444442               0.000000000              -0.032137825               0.153541665               0.000000000              -0.038328636               0.176638887               0.000000000              -0.044519448               0.199736109               0.000000000              -0.050710260               0.222833332               0.000000000              -0.056901071               0.245930554               0.000000000              -0.063091883               0.269027776               0.000000000              -0.069282695               0.292124999               0.000000000              -0.075473506               0.315222221               0.000000000              -0.081664318               0.338319444               0.000000000              -0.087855130               0.361416666               0.000000000              -0.094045942               0.384513888               0.000000000              -0.100236753               0.407611111               0.000000000              -0.106427565               0.430708333               0.000000000              -0.112618377               0.453805555               0.000000000              -0.118809188               0.476902778               0.000000000              -0.125000000               0.500000000               0.000000000              -0.013036280               0.132359569               0.000000000              -0.016127762               0.155337096               0.000000000              -0.019219245               0.178314623               0.000000000              -0.022310727               0.201292150               0.000000000              -0.025402210               0.224269676               0.000000000              -0.028493692               0.247247203               0.000000000              -0.031585175               0.270224730               0.000000000              -0.034676657               0.293202257               0.000000000              -0.037768140               0.316179784               0.000000000              -0.040859622               0.339157311               0.000000000              -0.043951105               0.362134838               0.000000000              -0.047042587               0.385112365               0.000000000              -0.050134070               0.408089892               0.000000000              -0.053225552               0.431067419               0.000000000              -0.056317035               0.454044946               0.000000000              -0.059408517               0.477022473               0.000000000              -0.062500000               0.500000000               0.000000000               0.000000000               0.133000000               0.000000000               0.000000000               0.155937500               0.000000000               0.000000000               0.178875000               0.000000000               0.000000000               0.201812500               0.000000000               0.000000000               0.224750000               0.000000000               0.000000000               0.247687500               0.000000000               0.000000000               0.270625000               0.000000000               0.000000000               0.293562500               0.000000000               0.000000000               0.316500000               0.000000000               0.000000000               0.339437500               0.000000000               0.000000000               0.362375000               0.000000000               0.000000000               0.385312500               0.000000000               0.000000000               0.408250000               0.000000000               0.000000000               0.431187500               0.000000000               0.000000000               0.454125000               0.000000000               0.000000000               0.477062500               0.000000000               0.000000000               0.500000000               0.000000000 </DataArray>
</Points>
<Cells>
<DataArray type="Int32"                                    Name="connectivity"                                                      NumberOfComponents=" 1" format="ascii">
         0          1         18         17          1          2         19         18          2          3         20         19          3          4         21         20          4          5         22         21          5          6         23         22          6          7         24         23          7          8         25         24          8          9         26         25          9         10         27         26         10         11         28         27         11         12         29         28         12         13         30         29         13         14         31         30         14         15         32         31         15         16         33         32         17         18         35         34         18         19         36         35         19         20         37         36         20         21         38         37         21         22         39         38         22         23         40         39         23         24         41         40         24         25         42         41         25         26         43         42         26         27         44         43         27         28         45         44         28         29         46         45         29         30         47         46         30         31         48         47         31         32         49         48         32         33         50         49         34         35         52         51         35         36         53         52         36         37         54         53         37         38         55         54         38         39         56         55         39         40         57         56         40         41         58         57         41         42         59         58         42         43         60         59         43         44         61         60         44         45         62         61         45         46         63         62         46         47         64         63         47         48         65         64         48         49         66         65         49         50         67         66         51         52         69         68         52         53         70         69         53         54         71         70         54         55         72         71         55         56         73         72         56         57         74         73         57         58         75         74         58         59         76         75         59         60         77         76         60         61         78         77         61         62         79         78         62         63         80         79         63         64         81         80         64         65         82         81         65         66         83         82         66         67         84         83         68         69         86         85         69         70         87         86         70         71         88         87         71         72         89         88         72         73         90         89         73         74         91         90         74         75         92         91         75         76         93         92         76         77         94         93         77         78         95         94         78         79         96         95         79         80         97         96         80         81         98         97         81         82         99         98         82         83        100         99         83         84        101        100         85         86        103        102         86         87        104        103         87         88        105        104         88         89        106        105         89         90        107        106         90         91        108        107         91         92        109        108         92         93        110        109         93         94        111        110         94         95        112        111         95         96        113        112         96         97        114        113         97         98        115        114         98         99        116        115         99        100        117        116        100        101        118        117        102        103        120        119        103        104        121        120        104        105        122        121        105        106        123        122        106        107        124        123        107        108        125        124        108        109        126        125        109        110        127        126        110        111        128        127        111        112        129        128        112        113        130        129        113        114        131        130        114        115        132        131        115        116        133        132        116        117        134        133        117        118        135        134        119        120        137        136        120        121        138        137        121        122        139        138        122        123        140        139        123        124        141        140        124        125        142        141        125        126        143        142        126        127        144        143        127        128        145        144        128        129        146        145        129        130        147        146        130        131        148        147        131        132        149        148        132        133        150        149        133        134        151        150        134        135        152        151        136        137        154        153        137        138        155        154        138        139        156        155        139        140        157        156        140        141        158        157        141        142        159        158        142        143        160        159        143        144        161        160        144        145        162        161        145        146        163        162        146        147        164        163        147        148        165        164        148        149        166        165        149        150        167        166        150        151        168        167        151        152        169        168        153        154        171        170        154        155        172        171        155        156        173        172        156        157        174        173        157        158        175        174        158        159        176        175        159        160        177        176        160        161        178        177        161        162        179        178        162        163        180        179        163        164        181        180        164        165        182        181        165        166        183        182        166        167        184        183        167        168        185        184        168        169        186        185        170        171        188        187        171        172        189        188        172        173        190        189        173        174        191        190        174        175        192        191        175        176        193        192        176        177        194        193        177        178        195        194        178        179        196        195        179        180        197        196        180        181        198        197        181        182        199        198        182        183        200        199        183        184        201        200        184        185        202        201        185        186        203        202        187        188        205        204        188        189        206        205        189        190        207        206        190        191        208        207        191        192        209        208        192        193        210        209        193        194        211        210        194        195        212        211        195        196        213        212        196        197        214        213        197        198        215        214        198        199        216        215        199        200        217        216        200        201        218        217        201        202        219        218        202        203        220        219        204        205        222        221        205        206        223        222        206        207        224        223        207        208        225        224        208        209        226        225        209        210        227        226        210        211        228        227        211        212        229        228        212        213        230        229        213        214        231        230        214        215        232        231        215        216        233        232        216        217        234        233        217        218        235        234        218        219        236        235        219        220        237        236        221        222        239        238        222        223        240        239        223        224        241        240        224        225        242        241        225        226        243        242        226        227        244        243        227        228        245        244        228        229        246        245        229        230        247        246        230        231        248        247        231        232        249        248        232        233        250        249        233        234        251        250        234        235        252        251        235        236        253        252        236        237        254        253        238        239        256        255        239        240        257        256        240        241        258        257        241        242        259        258        242        243        260        259        243        244        261        260        244        245        262        261        245        246        263        262        246        247        264        263        247        248        265        264        248        249        266        265        249        250        267        266        250        251        268        267        251        252        269        268        252        253        270        269        253        254        271        270        255        256        273        272        256        257        274        273        257        258        275        274        258        259        276        275        259        260        277        276        260        261        278        277        261        262        279        278        262        263        280        279        263        264        281        280        264        265        282        281        265        266        283        282        266        267        284        283        267        268        285        284        268        269        286        285        269        270        287        286        270        271        288        287        306        307          1          0        307        308          2          1        308        309          3          2        309        310          4          3        310        311          5          4        311        312          6          5        312        313          7          6        313        314          8          7        314        315          9          8        315        316         10          9        316        317         11         10        317        318         12         11        318        319         13         12        319        320         14         13        320        321         15         14        321        322         16         15        323        324        307        306        324        325        308        307        325        326        309        308        326        327        310        309        327        328        311        310        328        329        312        311        329        330        313        312        330        331        314        313        331        332        315        314        332        333        316        315        333        334        317        316        334        335        318        317        335        336        319        318        336        337        320        319        337        338        321        320        338        339        322        321        340        341        324        323        341        342        325        324        342        343        326        325        343        344        327        326        344        345        328        327        345        346        329        328        346        347        330        329        347        348        331        330        348        349        332        331        349        350        333        332        350        351        334        333        351        352        335        334        352        353        336        335        353        354        337        336        354        355        338        337        355        356        339        338        357        358        341        340        358        359        342        341        359        360        343        342        360        361        344        343        361        362        345        344        362        363        346        345        363        364        347        346        364        365        348        347        365        366        349        348        366        367        350        349        367        368        351        350        368        369        352        351        369        370        353        352        370        371        354        353        371        372        355        354        372        373        356        355        374        375        358        357        375        376        359        358        376        377        360        359        377        378        361        360        378        379        362        361        379        380        363        362        380        381        364        363        381        382        365        364        382        383        366        365        383        384        367        366        384        385        368        367        385        386        369        368        386        387        370        369        387        388        371        370        388        389        372        371        389        390        373        372        391        392        375        374        392        393        376        375        393        394        377        376        394        395        378        377        395        396        379        378        396        397        380        379        397        398        381        380        398        399        382        381        399        400        383        382        400        401        384        383        401        402        385        384        402        403        386        385        403        404        387        386        404        405        388        387        405        406        389        388        406        407        390        389        408        409        392        391        409        410        393        392        410        411        394        393        411        412        395        394        412        413        396        395        413        414        397        396        414        415        398        397        415        416        399        398        416        417        400        399        417        418        401        400        418        419        402        401        419        420        403        402        420        421        404        403        421        422        405        404        422        423        406        405        423        424        407        406        425        426        409        408        426        427        410        409        427        428        411        410        428        429        412        411        429        430        413        412        430        431        414        413        431        432        415        414        432        433        416        415        433        434        417        416        434        435        418        417        435        436        419        418        436        437        420        419        437        438        421        420        438        439        422        421        439        440        423        422        440        441        424        423        442        443        426        425        443        444        427        426        444        445        428        427        445        446        429        428        446        447        430        429        447        448        431        430        448        449        432        431        449        450        433        432        450        451        434        433        451        452        435        434        452        453        436        435        453        454        437        436        454        455        438        437        455        456        439        438        456        457        440        439        457        458        441        440        459        460        443        442        460        461        444        443        461        462        445        444        462        463        446        445        463        464        447        446        464        465        448        447        465        466        449        448        466        467        450        449        467        468        451        450        468        469        452        451        469        470        453        452        470        471        454        453        471        472        455        454        472        473        456        455        473        474        457        456        474        475        458        457        476        477        460        459        477        478        461        460        478        479        462        461        479        480        463        462        480        481        464        463        481        482        465        464        482        483        466        465        483        484        467        466        484        485        468        467        485        486        469        468        486        487        470        469        487        488        471        470        488        489        472        471        489        490        473        472        490        491        474        473        491        492        475        474        493        494        477        476        494        495        478        477        495        496        479        478        496        497        480        479        497        498        481        480        498        499        482        481        499        500        483        482        500        501        484        483        501        502        485        484        502        503        486        485        503        504        487        486        504        505        488        487        505        506        489        488        506        507        490        489        507        508        491        490        508        509        492        491        510        511        494        493        511        512        495        494        512        513        496        495        513        514        497        496        514        515        498        497        515        516        499        498        516        517        500        499        517        518        501        500        518        519        502        501        519        520        503        502        520        521        504        503        521        522        505        504        522        523        506        505        523        524        507        506        524        525        508        507        525        526        509        508        527        528        511        510        528        529        512        511        529        530        513        512        530        531        514        513        531        532        515        514        532        533        516        515        533        534        517        516        534        535        518        517        535        536        519        518        536        537        520        519        537        538        521        520        538        539        522        521        539        540        523        522        540        541        524        523        541        542        525        524        542        543        526        525        544        545        528        527        545        546        529        528        546        547        530        529        547        548        531        530        548        549        532        531        549        550        533        532        550        551        534        533        551        552        535        534        552        553        536        535        553        554        537        536        554        555        538        537        555        556        539        538        556        557        540        539        557        558        541        540        558        559        542        541        559        560        543        542        561        562        545        544        562        563        546        545        563        564        547        546        564        565        548        547        565        566        549        548        566        567        550        549        567        568        551        550        568        569        552        551        569        570        553        552        570        571        554        553        571        572        555        554        572        573        556        555        573        574        557        556        574        575        558        557        575        576        559        558        576        577        560        559        578        579        596        595        579        580        597        596        580        581        598        597        581        582        599        598        582        583        600        599        583        584        601        600        584        585        602        601        585        586        603        602        586        587        604        603        587        588        605        604        588        589        606        605        589        590        607        606        590        591        608        607        591        592        609        608        592        593        610        609        593        594        611        610        595        596        613        612        596        597        614        613        597        598        615        614        598        599        616        615        599        600        617        616        600        601        618        617        601        602        619        618        602        603        620        619        603        604        621        620        604        605        622        621        605        606        623        622        606        607        624        623        607        608        625        624        608        609        626        625        609        610        627        626        610        611        628        627        612        613        630        629        613        614        631        630        614        615        632        631        615        616        633        632        616        617        634        633        617        618        635        634        618        619        636        635        619        620        637        636        620        621        638        637        621        622        639        638        622        623        640        639        623        624        641        640        624        625        642        641        625        626        643        642        626        627        644        643        627        628        645        644        629        630        647        646        630        631        648        647        631        632        649        648        632        633        650        649        633        634        651        650        634        635        652        651        635        636        653        652        636        637        654        653        637        638        655        654        638        639        656        655        639        640        657        656        640        641        658        657        641        642        659        658        642        643        660        659        643        644        661        660        644        645        662        661        646        647        664        663        647        648        665        664        648        649        666        665        649        650        667        666        650        651        668        667        651        652        669        668        652        653        670        669        653        654        671        670        654        655        672        671        655        656        673        672        656        657        674        673        657        658        675        674        658        659        676        675        659        660        677        676        660        661        678        677        661        662        679        678        663        664        681        680        664        665        682        681        665        666        683        682        666        667        684        683        667        668        685        684        668        669        686        685        669        670        687        686        670        671        688        687        671        672        689        688        672        673        690        689        673        674        691        690        674        675        692        691        675        676        693        692        676        677        694        693        677        678        695        694        678        679        696        695        680        681        698        697        681        682        699        698        682        683        700        699        683        684        701        700        684        685        702        701        685        686        703        702        686        687        704        703        687        688        705        704        688        689        706        705        689        690        707        706        690        691        708        707        691        692        709        708        692        693        710        709        693        694        711        710        694        695        712        711        695        696        713        712        697        698        715        714        698        699        716        715        699        700        717        716        700        701        718        717        701        702        719        718        702        703        720        719        703        704        721        720        704        705        722        721        705        706        723        722        706        707        724        723        707        708        725        724        708        709        726        725        709        710        727        726        710        711        728        727        711        712        729        728        712        713        730        729        714        715        732        731        715        716        733        732        716        717        734        733        717        718        735        734        718        719        736        735        719        720        737        736        720        721        738        737        721        722        739        738        722        723        740        739        723        724        741        740        724        725        742        741        725        726        743        742        726        727        744        743        727        728        745        744        728        729        746        745        729        730        747        746        731        732        749        748        732        733        750        749        733        734        751        750        734        735        752        751        735        736        753        752        736        737        754        753        737        738        755        754        738        739        756        755        739        740        757        756        740        741        758        757        741        742        759        758        742        743        760        759        743        744        761        760        744        745        762        761        745        746        763        762        746        747        764        763        748        749        766        765        749        750        767        766        750        751        768        767        751        752        769        768        752        753        770        769        753        754        771        770        754        755        772        771        755        756        773        772        756        757        774        773        757        758        775        774        758        759        776        775        759        760        777        776        760        761        778        777        761        762        779        778        762        763        780        779        763        764        781        780        765        766        783        782        766        767        784        783        767        768        785        784        768        769        786        785        769        770        787        786        770        771        788        787        771        772        789        788        772        773        790        789        773        774        791        790        774        775        792        791        775        776        793        792        776        777        794        793        777        778        795        794        778        779        796        795        779        780        797        796        780        781        798        797        782        783        800        799        783        784        801        800        784        785        802        801        785        786        803        802        786        787        804        803        787        788        805        804        788        789        806        805        789        790        807        806        790        791        808        807        791        792        809        808        792        793        810        809        793        794        811        810        794        795        812        811        795        796        813        812        796        797        814        813        797        798        815        814        799        800        817        816        800        801        818        817        801        802        819        818        802        803        820        819        803        804        821        820        804        805        822        821        805        806        823        822        806        807        824        823        807        808        825        824        808        809        826        825        809        810        827        826        810        811        828        827        811        812        829        828        812        813        830        829        813        814        831        830        814        815        832        831        816        817        834        833        817        818        835        834        818        819        836        835        819        820        837        836        820        821        838        837        821        822        839        838        822        823        840        839        823        824        841        840        824        825        842        841        825        826        843        842        826        827        844        843        827        828        845        844        828        829        846        845        829        830        847        846        830        831        848        847        831        832        849        848        833        834        562        561        834        835        563        562        835        836        564        563        836        837        565        564        837        838        566        565        838        839        567        566        839        840        568        567        840        841        569        568        841        842        570        569        842        843        571        570        843        844        572        571        844        845        573        572        845        846        574        573        846        847        575        574        847        848        576        575        848        849        577        576        884        885        579        578        885        886        580        579        886        887        581        580        887        888        582        581        888        889        583        582        889        890        584        583        890        891        585        584        891        892        586        585        892        893        587        586        893        894        588        587        894        895        589        588        895        896        590        589        896        897        591        590        897        898        592        591        898        899        593        592        899        900        594        593        901        902        885        884        902        903        886        885        903        904        887        886        904        905        888        887        905        906        889        888        906        907        890        889        907        908        891        890        908        909        892        891        909        910        893        892        910        911        894        893        911        912        895        894        912        913        896        895        913        914        897        896        914        915        898        897        915        916        899        898        916        917        900        899        918        919        902        901        919        920        903        902        920        921        904        903        921        922        905        904        922        923        906        905        923        924        907        906        924        925        908        907        925        926        909        908        926        927        910        909        927        928        911        910        928        929        912        911        929        930        913        912        930        931        914        913        931        932        915        914        932        933        916        915        933        934        917        916        935        936        919        918        936        937        920        919        937        938        921        920        938        939        922        921        939        940        923        922        940        941        924        923        941        942        925        924        942        943        926        925        943        944        927        926        944        945        928        927        945        946        929        928        946        947        930        929        947        948        931        930        948        949        932        931        949        950        933        932        950        951        934        933        952        953        936        935        953        954        937        936        954        955        938        937        955        956        939        938        956        957        940        939        957        958        941        940        958        959        942        941        959        960        943        942        960        961        944        943        961        962        945        944        962        963        946        945        963        964        947        946        964        965        948        947        965        966        949        948        966        967        950        949        967        968        951        950        969        970        953        952        970        971        954        953        971        972        955        954        972        973        956        955        973        974        957        956        974        975        958        957        975        976        959        958        976        977        960        959        977        978        961        960        978        979        962        961        979        980        963        962        980        981        964        963        981        982        965        964        982        983        966        965        983        984        967        966        984        985        968        967        986        987        970        969        987        988        971        970        988        989        972        971        989        990        973        972        990        991        974        973        991        992        975        974        992        993        976        975        993        994        977        976        994        995        978        977        995        996        979        978        996        997        980        979        997        998        981        980        998        999        982        981        999       1000        983        982       1000       1001        984        983       1001       1002        985        984       1003       1004        987        986       1004       1005        988        987       1005       1006        989        988       1006       1007        990        989       1007       1008        991        990       1008       1009        992        991       1009       1010        993        992       1010       1011        994        993       1011       1012        995        994       1012       1013        996        995       1013       1014        997        996       1014       1015        998        997       1015       1016        999        998       1016       1017       1000        999       1017       1018       1001       1000       1018       1019       1002       1001       1020       1021       1004       1003       1021       1022       1005       1004       1022       1023       1006       1005       1023       1024       1007       1006       1024       1025       1008       1007       1025       1026       1009       1008       1026       1027       1010       1009       1027       1028       1011       1010       1028       1029       1012       1011       1029       1030       1013       1012       1030       1031       1014       1013       1031       1032       1015       1014       1032       1033       1016       1015       1033       1034       1017       1016       1034       1035       1018       1017       1035       1036       1019       1018       1037       1038       1021       1020       1038       1039       1022       1021       1039       1040       1023       1022       1040       1041       1024       1023       1041       1042       1025       1024       1042       1043       1026       1025       1043       1044       1027       1026       1044       1045       1028       1027       1045       1046       1029       1028       1046       1047       1030       1029       1047       1048       1031       1030       1048       1049       1032       1031       1049       1050       1033       1032       1050       1051       1034       1033       1051       1052       1035       1034       1052       1053       1036       1035       1054       1055       1038       1037       1055       1056       1039       1038       1056       1057       1040       1039       1057       1058       1041       1040       1058       1059       1042       1041       1059       1060       1043       1042       1060       1061       1044       1043       1061       1062       1045       1044       1062       1063       1046       1045       1063       1064       1047       1046       1064       1065       1048       1047       1065       1066       1049       1048       1066       1067       1050       1049       1067       1068       1051       1050       1068       1069       1052       1051       1069       1070       1053       1052       1071       1072       1055       1054       1072       1073       1056       1055       1073       1074       1057       1056       1074       1075       1058       1057       1075       1076       1059       1058       1076       1077       1060       1059       1077       1078       1061       1060       1078       1079       1062       1061       1079       1080       1063       1062       1080       1081       1064       1063       1081       1082       1065       1064       1082       1083       1066       1065       1083       1084       1067       1066       1084       1085       1068       1067       1085       1086       1069       1068       1086       1087       1070       1069       1088       1089       1072       1071       1089       1090       1073       1072       1090       1091       1074       1073       1091       1092       1075       1074       1092       1093       1076       1075       1093       1094       1077       1076       1094       1095       1078       1077       1095       1096       1079       1078       1096       1097       1080       1079       1097       1098       1081       1080       1098       1099       1082       1081       1099       1100       1083       1082       1100       1101       1084       1083       1101       1102       1085       1084       1102       1103       1086       1085       1103       1104       1087       1086       1105       1106       1089       1088       1106       1107       1090       1089       1107       1108       1091       1090       1108       1109       1092       1091       1109       1110       1093       1092       1110       1111       1094       1093       1111       1112       1095       1094       1112       1113       1096       1095       1113       1114       1097       1096       1114       1115       1098       1097       1115       1116       1099       1098       1116       1117       1100       1099       1117       1118       1101       1100       1118       1119       1102       1101       1119       1120       1103       1102       1120       1121       1104       1103       1122       1123       1106       1105       1123       1124       1107       1106       1124       1125       1108       1107       1125       1126       1109       1108       1126       1127       1110       1109       1127       1128       1111       1110       1128       1129       1112       1111       1129       1130       1113       1112       1130       1131       1114       1113       1131       1132       1115       1114       1132       1133       1116       1115       1133       1134       1117       1116       1134       1135       1118       1117       1135       1136       1119       1118       1136       1137       1120       1119       1137       1138       1121       1120        272        273       1123       1122        273        274       1124       1123        274        275       1125       1124        275        276       1126       1125        276        277       1127       1126        277        278       1128       1127        278        279       1129       1128        279        280       1130       1129        280        281       1131       1130        281        282       1132       1131        282        283       1133       1132        283        284       1134       1133        284        285       1135       1134        285        286       1136       1135        286        287       1137       1136        287        288       1138       1137 </DataArray>
<DataArray type="Int32"                                    Name="offsets"                                                      NumberOfComponents=" 1" format="ascii">
         4          8         12         16         20         24         28         32         36         40         44         48         52         56         60         64         68         72         76         80         84         88         92         96        100        104        108        112        116        120        124        128        132        136        140        144        148        152        156        160        164        168        172        176        180        184        188        192        196        200        204        208        212        216        220        224        228        232        236        240        244        248        252        256        260        264        268        272        276        280        284        288        292        296        300        304        308        312        316        320        324        328        332        336        340        344        348        352        356        360        364        368        372        376        380        384        388        392        396        400        404        408        412        416        420        424        428        432        436        440        444        448        452        456        460        464        468        472        476        480        484        488        492        496        500        504        508        512        516        520        524        528        532        536        540        544        548        552        556        560        564        568        572        576        580        584        588        592        596        600        604        608        612        616        620        624        628        632        636        640        644        648        652        656        660        664        668        672        676        680        684        688        692        696        700        704        708        712        716        720        724        728        732        736        740        744        748        752        756        760        764        768        772        776        780        784        788        792        796        800        804        808        812        816        820        824        828        832        836        840        844        848        852        856        860        864        868        872        876        880        884        888        892        896        900        904        908        912        916        920        924        928        932        936        940        944        948        952        956        960        964        968        972        976        980        984        988        992        996       1000       1004       1008       1012       1016       1020       1024       1028       1032       1036       1040       1044       1048       1052       1056       1060       1064       1068       1072       1076       1080       1084       1088       1092       1096       1100       1104       1108       1112       1116       1120       1124       1128       1132       1136       1140       1144       1148       1152       1156       1160       1164       1168       1172       1176       1180       1184       1188       1192       1196       1200       1204       1208       1212       1216       1220       1224       1228       1232       1236       1240       1244       1248       1252       1256       1260       1264       1268       1272       1276       1280       1284       1288       1292       1296       1300       1304       1308       1312       1316       1320       1324       1328       1332       1336       1340       1344       1348       1352       1356       1360       1364       1368       1372       1376       1380       1384       1388       1392       1396       1400       1404       1408       1412       1416       1420       1424       1428       1432       1436       1440       1444       1448       1452       1456       1460       1464       1468       1472       1476       1480       1484       1488       1492       1496       1500       1504       1508       1512       1516       1520       1524       1528       1532       1536       1540       1544       1548       1552       1556       1560       1564       1568       1572       1576       1580       1584       1588       1592       1596       1600       1604       1608       1612       1616       1620       1624       1628       1632       1636       1640       1644       1648       1652       1656       1660       1664       1668       1672       1676       1680       1684       1688       1692       1696       1700       1704       1708       1712       1716       1720       1724       1728       1732       1736       1740       1744       1748       1752       1756       1760       1764       1768       1772       1776       1780       1784       1788       1792       1796       1800       1804       1808       1812       1816       1820       1824       1828       1832       1836       1840       1844       1848       1852       1856       1860       1864       1868       1872       1876       1880       1884       1888       1892       1896       1900       1904       1908       1912       1916       1920       1924       1928       1932       1936       1940       1944       1948       1952       1956       1960       1964       1968       1972       1976       1980       1984       1988       1992       1996       2000       2004       2008       2012       2016       2020       2024       2028       2032       2036       2040       2044       2048       2052       2056       2060       2064       2068       2072       2076       2080       2084       2088       2092       2096       2100       2104       2108       2112       2116       2120       2124       2128       2132       2136       2140       2144       2148       2152       2156       2160       2164       2168       2172       2176       2180       2184       2188       2192       2196       2200       2204       2208       2212       2216       2220       2224       2228       2232       2236       2240       2244       2248       2252       2256       2260       2264       2268       2272       2276       2280       2284       2288       2292       2296       2300       2304       2308       2312       2316       2320       2324       2328       2332       2336       2340       2344       2348       2352       2356       2360       2364       2368       2372       2376       2380       2384       2388       2392       2396       2400       2404       2408       2412       2416       2420       2424       2428       2432       2436       2440       2444       2448       2452       2456       2460       2464       2468       2472       2476       2480       2484       2488       2492       2496       2500       2504       2508       2512       2516       2520       2524       2528       2532       2536       2540       2544       2548       2552       2556       2560       2564       2568       2572       2576       2580       2584       2588       2592       2596       2600       2604       2608       2612       2616       2620       2624       2628       2632       2636       2640       2644       2648       2652       2656       2660       2664       2668       2672       2676       2680       2684       2688       2692       2696       2700       2704       2708       2712       2716       2720       2724       2728       2732       2736       2740       2744       2748       2752       2756       2760       2764       2768       2772       2776       2780       2784       2788       2792       2796       2800       2804       2808       2812       2816       2820       2824       2828       2832       2836       2840       2844       2848       2852       2856       2860       2864       2868       2872       2876       2880       2884       2888       2892       2896       2900       2904       2908       2912       2916       2920       2924       2928       2932       2936       2940       2944       2948       2952       2956       2960       2964       2968       2972       2976       2980       2984       2988       2992       2996       3000       3004       3008       3012       3016       3020       3024       3028       3032       3036       3040       3044       3048       3052       3056       3060       3064       3068       3072       3076       3080       3084       3088       3092       3096       3100       3104       3108       3112       3116       3120       3124       3128       3132       3136       3140       3144       3148       3152       3156       3160       3164       3168       3172       3176       3180       3184       3188       3192       3196       3200       3204       3208       3212       3216       3220       3224       3228       3232       3236       3240       3244       3248       3252       3256       3260       3264       3268       3272       3276       3280       3284       3288       3292       3296       3300       3304       3308       3312       3316       3320       3324       3328       3332       3336       3340       3344       3348       3352       3356       3360       3364       3368       3372       3376       3380       3384       3388       3392       3396       3400       3404       3408       3412       3416       3420       3424       3428       3432       3436       3440       3444       3448       3452       3456       3460       3464       3468       3472       3476       3480       3484       3488       3492       3496       3500       3504       3508       3512       3516       3520       3524       3528       3532       3536       3540       3544       3548       3552       3556       3560       3564       3568       3572       3576       3580       3584       3588       3592       3596       3600       3604       3608       3612       3616       3620       3624       3628       3632       3636       3640       3644       3648       3652       3656       3660       3664       3668       3672       3676       3680       3684       3688       3692       3696       3700       3704       3708       3712       3716       3720       3724       3728       3732       3736       3740       3744       3748       3752       3756       3760       3764       3768       3772       3776       3780       3784       3788       3792       3796       3800       3804       3808       3812       3816       3820       3824       3828       3832       3836       3840       3844       3848       3852       3856       3860       3864       3868       3872       3876       3880       3884       3888       3892       3896       3900       3904       3908       3912       3916       3920       3924       3928       3932       3936       3940       3944       3948       3952       3956       3960       3964       3968       3972       3976       3980       3984       3988       3992       3996       4000       4004       4008       4012       4016       4020       4024       4028       4032       4036       4040       4044       4048       4052       4056       4060       4064       4068       4072       4076       4080       4084       4088       4092       4096 </DataArray>
<DataArray type="UInt8"                                    Name="types"                                                      NumberOfComponents=" 1" format="ascii">
         9          9          9          9          9          9          9          9          9          9          9          9          9          9          9          9          9          9          9          9          9          9          9          9          9          9          9          9          9          9          9          9          9          9          9          9          9          9          9          9          9          9          9          9          9          9          9          9          9          9          9          9          9          9          9          9          9          9          9          9          9          9          9          9          9          9          9          9          9          9          9          9          9          9          9          9          9          9          9          9          9          9          9          9          9          9          9          9          9          9          9          9          9          9          9          9          9          9          9          9          9          9          9          9          9          9          9          9          9          9          9          9          9          9          9          9          9          9          9          9          9          9          9          9          9          9          9          9          9          9          9          9          9          9          9          9          9          9          9          9          9          9          9          9          9          9          9          9          9          9          9          9          9          9          9          9          9          9          9          9          9          9          9          9          9          9          9          9          9          9          9          9          9          9          9          9          9          9          9          9          9          9          9          9          9          9          9          9          9          9          9          9          9          9          9          9          9          9          9          9          9          9          9          9          9          9          9          9          9          9          9          9          9          9          9          9          9          9          9          9          9          9          9          9          9          9          9          9          9          9          9          9          9          9          9          9          9          9          9          9          9          9          9          9          9          9          9          9          9          9          9          9          9          9          9          9          9          9          9          9          9          9          9          9          9          9          9          9          9          9          9          9          9          9          9          9          9          9          9          9          9          9          9          9          9          9          9          9          9          9          9          9          9          9          9          9          9          9          9          9          9          9          9          9          9          9          9          9          9          9          9          9          9          9          9          9          9          9          9          9          9          9          9          9          9          9          9          9          9          9          9          9          9          9          9          9          9          9          9          9          9          9          9          9          9          9          9          9          9          9          9          9          9          9          9          9          9          9          9          9          9          9          9          9          9          9          9          9          9          9          9          9          9          9          9          9          9          9          9          9          9          9          9          9          9          9          9          9          9          9          9          9          9          9          9          9          9          9          9          9          9          9          9          9          9          9          9          9          9          9          9          9          9          9          9          9          9          9          9          9          9          9          9          9          9          9          9          9          9          9          9          9          9          9          9          9          9          9          9          9          9          9          9          9          9          9          9          9          9          9          9          9          9          9          9          9          9          9          9          9          9          9          9          9          9          9          9          9          9          9          9          9          9          9          9          9          9          9          9          9          9          9          9          9          9          9          9          9          9          9          9          9          9          9          9          9          9          9          9          9          9          9          9          9          9          9          9          9          9          9          9          9          9          9          9          9          9          9          9          9          9          9          9          9          9          9          9          9          9          9          9          9          9          9          9          9          9          9          9          9          9          9          9          9          9          9          9          9          9          9          9          9          9          9          9          9          9          9          9          9          9          9          9          9          9          9          9          9          9          9          9          9          9          9          9          9          9          9          9          9          9          9          9          9          9          9          9          9          9          9          9          9          9          9          9          9          9          9          9          9          9          9          9          9          9          9          9          9          9          9          9          9          9          9          9          9          9          9          9          9          9          9          9          9          9          9          9          9          9          9          9          9          9          9          9          9          9          9          9          9          9          9          9          9          9          9          9          9          9          9          9          9          9          9          9          9          9          9          9          9          9          9          9          9          9          9          9          9          9          9          9          9          9          9          9          9          9          9          9          9          9          9          9          9          9          9          9          9          9          9          9          9          9          9          9          9          9          9          9          9          9          9          9          9          9          9          9          9          9          9          9          9          9          9          9          9          9          9          9          9          9          9          9          9          9          9          9          9          9          9          9          9          9          9          9          9          9          9          9          9          9          9          9          9          9          9          9          9          9          9          9          9          9          9          9          9          9          9          9          9          9          9          9          9          9          9          9          9          9          9          9          9          9          9          9          9          9          9          9          9          9          9          9          9          9          9          9          9          9          9          9          9          9          9          9          9          9          9          9          9          9          9          9          9          9          9          9          9          9          9          9          9          9          9          9          9          9          9          9          9          9          9          9          9          9          9          9          9          9          9          9          9          9          9          9          9          9          9          9          9          9          9          9          9          9          9          9          9          9          9          9          9          9          9          9          9          9          9          9          9          9          9          9          9          9          9          9          9          9          9          9          9          9          9          9          9          9          9          9          9          9          9          9          9          9          9          9          9          9          9          9          9          9          9          9          9          9          9          9          9          9          9          9          9          9          9          9          9          9          9          9          9          9          9          9          9          9          9          9          9          9          9          9          9          9          9          9          9          9          9          9          9          9          9          9          9          9          9          9          9          9          9          9          9          9          9          9          9          9          9          9          9          9          9          9          9          9          9          9          9          9          9          9          9          9          9          9          9          9          9          9          9          9          9          9          9          9          9          9          9          9          9          9          9          9          9          9          9          9          9          9          9          9          9          9          9          9          9          9          9          9          9          9          9          9          9          9          9          9          9          9          9          9          9          9          9          9          9          9          9          9          9          9          9 </DataArray>
</Cells>
<CellData>
<DataArray type="Int32"                                    Name="material"                                                      NumberOfComponents=" 1" format="ascii">
         1          1          1          1          1          1          1          1          1          1          1          1          1          1          1          1          1          1          1          1          1          1          1          1          1          1          1          1          1          1          1          1          1          1          1          1          1          1          1          1          1          1          1          1          1          1          1          1          1          1          1          1          1          1          1          1          1          1          1          1          1          1          1          1          1          1          1          1          1          1          1          1          1          1          1          1          1          1          1          1          1          1          1          1          1          1          1          1          1          1          1          1          1          1          1          1          1          1          1          1          1          1          1          1          1          1          1          1          1          1          1          1          1          1          1          1          1          1          1          1          1          1          1          1          1          1          1          1          1          1          1          1          1          1          1          1          1          1          1          1          1          1          1          1          1          1          1          1          1          1          1          1          1          1          1          1          1          1          1          1          1          1          1          1          1          1          1          1          1          1          1          1          1          1          1          1          1          1          1          1          1          1          1          1          1          1          1          1          1          1          1          1          1          1          1          1          1          1          1          1          1          1          1          1          1          1          1          1          1          1          1          1          1          1          1          1          1          1          1          1          1          1          1          1          1          1          1          1          1          1          1          1          1          1          1          1          1          1          1          1          1          1          1          1          1          1          1          1          1          1          1          1          1          1          1          1          1          1          1          1          1          1          1          1          1          1          1          1          1          1          1          1          1          1          1          1          1          1          1          1          1          1          1          1          1          1          1          1          1          1          1          1          1          1          1          1          1          1          1          1          1          1          1          1          1          1          1          1          1          1          1          1          1          1          1          1          1          1          1          1          1          1          1          1          1          1          1          1          1          1          1          1          1          1          1          1          1          1          1          1          1          1          1          1          1          1          1          1          1          1          1          1          1          1          1          1          1          1          1          1          1          1          1          1          1          1          1          1          1          1          1          1          1          1          1          1          1          1          1          1          1          1          1          1          1          1          1          1          1          1          1          1          1          1          1          1          1          1          1          1          1          1          1          1          1          1          1          1          1          1          1          1          1          1          1          1          1          1          1          1          1          1          1          1          1          1          1          1          1          1          1          1          1          1          1          1          1          1          1          1          1          1          1          1          1          1          1          1          1          1          1          1          1          1          1          1          1          1          1          1          1          1          1          1          1          1          1          1          1          1          1          1          1          1          1          1          1          1          1          1          1          1          1          1          1          1          1          1          1          1          1          1          1          1          1          1          1          1          1          1          1          1          1          1          1          1          1          1          1          1          1          1          1          1          1          1          1          1          1          1          1          1          1          1          1          1          1          1          1          1          1          1          1          1          1          1          1          1          1          1          1          1          1          1          1          1          1          1          1          1          1          1          1          1          1          1          1          1          1          1          1          1          1          1          1          1          1          1          1          1          1          1          1          1          1          1          1          1          1          1          1          1          1          1          1          1          1          1          1          1          1          1          1          1          1          1          1          1          1          1          1          1          1          1          1          1          1          1          1          1          1          1          1          1          1          1          1          1          1          1          1          1          1          1          1          1          1          1          1          1          1          1          1          1          1          1          1          1          1          1          1          1          1          1          1          1          1          1          1          1          1          1          1          1          1          1          1          1          1          1          1          1          1          1          1          1          1          1          1          1          1          1          1          1          1          1          1          1          1          1          1          1          1          1          1          1          1          1          1          1          1          1          1          1          1          1          1          1          1          1          1          1          1          1          1          1          1          1          1          1          1          1          1          1          1          1          1          1          1          1          1          1          1          1          1          1          1          1          1          1          1          1          1          1          1          1          1          1          1          1          1          1          1          1          1          1          1          1          1          1          1          1          1          1          1          1          1          1          1          1          1          1          1          1          1          1          1          1          1          1          1          1          1          1          1          1          1          1          1          1          1          1          1          1          1          1          1          1          1          1          1          1          1          1          1          1          1          1          1          1          1          1          1          1          1          1          1          1          1          1          1          1          1          1          1          1          1          1          1          1          1          1          1          1          1          1          1          1          1          1          1          1          1          1          1          1          1          1          1          1          1          1          1          1          1          1          1          1          1          1          1          1          1          1          1          1          1          1          1          1          1          1          1          1          1          1          1          1          1          1          1          1          1          1          1          1          1          1          1          1          1          1          1          1          1          1          1          1          1          1          1          1          1          1          1          1          1          1          1          1          1          1          1          1          1          1          1          1          1          1          1          1          1          1          1          1          1          1          1          1          1          1          1          1          1          1          1          1          1          1          1          1          1          1          1          1          1          1          1          1          1          1          1          1          1          1          1          1          1          1          1          1          1          1          1          1          1          1          1          1          1          1          1          1          1          1          1          1          1          1          1          1          1          1          1          1          1          1          1          1          1          1          1          1          1          1          1          1          1          1          1          1          1          1          1          1          1          1          1          1          1          1          1          1          1          1          1          1          1          1          1          1          1          1          1          1          1          1          1          1          1          1          1          1 </DataArray>
</CellData>
<PointData>
<DataArray type="Float64"                                    Name="u"                                                      NumberOfComponents=" 3" format="ascii">
             -0.000026814               0.000000000               0.999999996              -0.000043077              -0.000000000               0.999999996              -0.000051181               0.000000000               0.999999996              -0.000056122               0.000000000               0.999999996              -0.000059947               0.000000000               0.999999996              -0.000063595               0.000000000               0.999999996              -0.000067547               0.000000000               0.999999996              -0.000072011               0.000000000               0.999999996              -0.000077045               0.000000000               0.999999996              -0.000082687              -0.000000000               0.999999996              -0.000089035              -0.000000000               0.999999996              -0.000096083               0.000000000               0.999999996              -0.000103789               0.000000000               0.999999996              -0.000112151               0.000000000               0.999999996              -0.000121144               0.000000000               0.999999996              -0.000130699              -0.000000000               0.999999996              -0.000140724               0.000000000               0.999999996              -0.000026662               0.000040091               0.999999996              -0.000042210               0.000035549               0.999999996              -0.000049872               0.000034415               0.999999996              -0.000054602               0.000035138               0.999999996              -0.000058423               0.000037039               0.999999996              -0.000062146               0.000039636               0.999999996              -0.000066179               0.000042736               0.999999996              -0.000070731               0.000046261               0.999999996              -0.000075860               0.000049959               0.999999996              -0.000081629               0.000053887               0.999999996              -0.000088080               0.000058024               0.999999996              -0.000095215               0.000062303               0.999999996              -0.000103021               0.000066696               0.999999996              -0.000111498               0.000071122               0.999999996              -0.000120558               0.000075554               0.999999996              -0.000130144               0.000079841               0.999999996              -0.000140206               0.000083839               0.999999996              -0.000026141               0.000079678               0.999999996              -0.000039622               0.000070629               0.999999996              -0.000046163               0.000068573               0.999999996              -0.000050413               0.000070248               0.999999996              -0.000054133               0.000074171               0.999999996              -0.000057988               0.000079416               0.999999996              -0.000062296               0.000085642               0.999999996              -0.000067193               0.000092610               0.999999996              -0.000072659               0.000100011               0.999999996              -0.000078770               0.000107826               0.999999996              -0.000085550               0.000116064               0.999999996              -0.000093013               0.000124654               0.999999996              -0.000101138               0.000133473               0.999999996              -0.000109871               0.000142370               0.999999996              -0.000119124               0.000151280               0.999999996              -0.000128858               0.000160058               0.999999996              -0.000139080               0.000168515               0.999999996              -0.000025228               0.000118316               0.999999996              -0.000035539               0.000104897               0.999999996              -0.000040568               0.000102264               0.999999996              -0.000044220               0.000105157               0.999999996              -0.000047943               0.000111306               0.999999996              -0.000052087               0.000119356               0.999999996              -0.000056783               0.000128723               0.999999996              -0.000062218               0.000139219               0.999999996              -0.000068369               0.000150329               0.999999996              -0.000075183               0.000162062               0.999999996              -0.000082682               0.000174449               0.999999996              -0.000090821               0.000187358               0.999999996              -0.000099543               0.000200590               0.999999996              -0.000108815               0.000213974               0.999999996              -0.000118562               0.000227471               0.999999996              -0.000128804               0.000241101               0.999999996              -0.000139618               0.000254795               0.999999996              -0.000024029               0.000155588               0.999999996              -0.000030236               0.000138091               0.999999996              -0.000033565               0.000135327               0.999999996              -0.000036834               0.000139743               0.999999996              -0.000040739               0.000148304               0.999999996              -0.000045397               0.000159275               0.999999996              -0.000050935               0.000171944               0.999999996              -0.000057284               0.000185967               0.999999996              -0.000064389               0.000200923               0.999999996              -0.000072224               0.000216580               0.999999996              -0.000080737               0.000233057               0.999999996              -0.000089837               0.000250213               0.999999996              -0.000099451               0.000267907               0.999999996              -0.000109582               0.000285938               0.999999996              -0.000120287               0.000304346               0.999999996              -0.000131631               0.000323280               0.999999996              -0.000143683               0.000342964               0.999999996              -0.000022573               0.000191093               0.999999996              -0.000024047               0.000170012               0.999999996              -0.000025919               0.000167544               0.999999996              -0.000029133               0.000173784               0.999999996              -0.000033591               0.000184871               0.999999996              -0.000039201               0.000198844               0.999999996              -0.000045780               0.000214846               0.999999996              -0.000053236               0.000232434               0.999999996              -0.000061515               0.000251343               0.999999996              -0.000070614               0.000271090               0.999999996              -0.000080441               0.000291704               0.999999996              -0.000090890               0.000313183               0.999999996              -0.000101918               0.000335365               0.999999996              -0.000113606               0.000358213               0.999999996              -0.000125986               0.000381699               0.999999996              -0.000139031               0.000406043               0.999999996              -0.000152660               0.000431469               0.999999996              -0.000020860               0.000224451               0.999999996              -0.000017432               0.000200531               0.999999996              -0.000018332               0.000198751               0.999999996              -0.000021947               0.000206929               0.999999996              -0.000027387               0.000220574               0.999999996              -0.000034132               0.000237648               0.999999996              -0.000041922               0.000256993               0.999999996              -0.000050725               0.000278271               0.999999996              -0.000060543               0.000301180               0.999999996              -0.000071313               0.000325184               0.999999996              -0.000082854               0.000349983               0.999999996              -0.000095076               0.000375760               0.999999996              -0.000107915               0.000402398               0.999999996              -0.000121402               0.000429935               0.999999996              -0.000135439               0.000458315               0.999999996              -0.000149886               0.000487498               0.999999996              -0.000164449               0.000517404               0.999999996              -0.000019028               0.000255320               0.999999996              -0.000010897               0.000229512               0.999999996              -0.000011316               0.000228748               0.999999996              -0.000015787               0.000238891               0.999999996              -0.000022403               0.000255093               0.999999996              -0.000030439               0.000275266               0.999999996              -0.000039680               0.000298168               0.999999996              -0.000050205               0.000323323               0.999999996              -0.000061851               0.000350344               0.999999996              -0.000074393               0.000378532               0.999999996              -0.000087627               0.000407477               0.999999996              -0.000101483               0.000437447               0.999999996              -0.000115901               0.000468493               0.999999996              -0.000130713               0.000500532               0.999999996              -0.000145759               0.000533429               0.999999996              -0.000160872               0.000566939               0.999999996              -0.000175769               0.000600428               0.999999996              -0.000017318               0.000283240               0.999999996              -0.000004624               0.000257014               0.999999996              -0.000005392               0.000257217               0.999999996              -0.000010948               0.000269294               0.999999996              -0.000018809               0.000288103               0.999999996              -0.000028349               0.000311468               0.999999996              -0.000039286               0.000338133               0.999999996              -0.000051627               0.000367323               0.999999996              -0.000064979               0.000398356               0.999999996              -0.000079024               0.000430592               0.999999996              -0.000093590               0.000463719               0.999999996              -0.000108653               0.000497910               0.999999996              -0.000124059               0.000533099               0.999999996              -0.000139728               0.000569305               0.999999996              -0.000155629               0.000606145               0.999999996              -0.000171560               0.000643198               0.999999996              -0.000187338               0.000680010               0.999999996              -0.000016099               0.000309195               0.999999996              -0.000000287               0.000285436               0.999999996               0.000000529               0.000283067               0.999999996              -0.000003961               0.000292124               0.999999996              -0.000010888               0.000307849               0.999999996              -0.000019446               0.000328262               0.999999996              -0.000029271               0.000352206               0.999999996              -0.000040188               0.000378800               0.999999996              -0.000052057               0.000407374               0.999999996              -0.000064520               0.000437280               0.999999996              -0.000077379               0.000468121               0.999999996              -0.000090417               0.000499660               0.999999996              -0.000103598               0.000531965               0.999999996              -0.000116926               0.000565110               0.999999996              -0.000130596               0.000599054               0.999999996              -0.000144656               0.000633622               0.999999996              -0.000159107               0.000668348               0.999999996              -0.000014556               0.000332545               0.999999996               0.000002671               0.000312385               0.999999996               0.000005141               0.000309008               0.999999996               0.000001923               0.000315617               0.999999996              -0.000003875               0.000328714               0.999999996              -0.000011290               0.000346455               0.999999996              -0.000019937               0.000367734               0.999999996              -0.000029459               0.000391778               0.999999996              -0.000039777               0.000417935               0.999999996              -0.000050602               0.000445634               0.999999996              -0.000061731               0.000474302               0.999999996              -0.000072920               0.000503659               0.999999996              -0.000084003               0.000533521               0.999999996              -0.000094936               0.000564008               0.999999996              -0.000105919               0.000595132               0.999999996              -0.000117258               0.000626996               0.999999996              -0.000128916               0.000659443               0.999999996              -0.000012766               0.000352859               0.999999996               0.000004432               0.000337291               0.999999996               0.000008126               0.000333988               0.999999996               0.000006276               0.000339081               0.999999996               0.000001780               0.000350139               0.999999996              -0.000004384               0.000365603               0.999999996              -0.000011761               0.000384514               0.999999996              -0.000019824               0.000406211               0.999999996              -0.000028420               0.000430177               0.999999996              -0.000037501               0.000455731               0.999999996              -0.000047022               0.000482387               0.999999996              -0.000056513               0.000509843               0.999999996              -0.000065612               0.000537849               0.999999996              -0.000074249               0.000566290               0.999999996              -0.000082602               0.000595131               0.999999996              -0.000090715               0.000624588               0.999999996              -0.000098816               0.000654705               0.999999996              -0.000010726               0.000369834               0.999999996               0.000005056               0.000359234               0.999999996               0.000009382               0.000356960               0.999999996               0.000008689               0.000361419               0.999999996               0.000005434               0.000371100               0.999999996               0.000000663               0.000384822               0.999999996              -0.000005228               0.000401937               0.999999996              -0.000011671               0.000421720               0.999999996              -0.000018472               0.000443699               0.999999996              -0.000025799               0.000467407               0.999999996              -0.000033440               0.000492472               0.999999996              -0.000041146               0.000518424               0.999999996              -0.000048497               0.000544967               0.999999996              -0.000055206               0.000571924               0.999999996              -0.000061102               0.000599278               0.999999996              -0.000066168               0.000627014               0.999999996              -0.000070538               0.000655240               0.999999996              -0.000008376               0.000383368               0.999999996               0.000004705               0.000377435               0.999999996               0.000008931               0.000376758               0.999999996               0.000008988               0.000381328               0.999999996               0.000006841               0.000390257               0.999999996               0.000003472               0.000402876               0.999999996              -0.000000702               0.000418661               0.999999996              -0.000005526               0.000437092               0.999999996              -0.000010662               0.000457593               0.999999996              -0.000015961               0.000479894               0.999999996              -0.000021520               0.000503765               0.999999996              -0.000027383               0.000528651               0.999999996              -0.000033064               0.000554254               0.999999996              -0.000037995               0.000580364               0.999999996              -0.000041797               0.000606853               0.999999996              -0.000044409               0.000633651               0.999999996              -0.000045762               0.000660756               0.999999996              -0.000005764               0.000393180               0.999999996               0.000003564               0.000391125               0.999999996               0.000006926               0.000392088               0.999999996               0.000007281               0.000397127               0.999999996               0.000006093               0.000405863               0.999999996               0.000004068               0.000417896               0.999999996               0.000001474               0.000432820               0.999999996              -0.000001774               0.000450272               0.999999996              -0.000005195               0.000469882               0.999999996              -0.000008557               0.000491350               0.999999996              -0.000012199               0.000514261               0.999999996              -0.000016208               0.000538392               0.999999996              -0.000020113               0.000563453               0.999999996              -0.000023283               0.000589132               0.999999996              -0.000025478               0.000615217               0.999999996              -0.000026459               0.000641621               0.999999996              -0.000026076               0.000668241               0.999999996              -0.000002952               0.000399108               0.999999996               0.000001913               0.000399643               0.999999996               0.000003785               0.000401896               0.999999996               0.000004071               0.000407392               0.999999996               0.000003545               0.000416198               0.999999996               0.000002650               0.000427973               0.999999996               0.000001385               0.000442364               0.999999996              -0.000000265               0.000459262               0.999999996              -0.000001927               0.000478341               0.999999996              -0.000003549               0.000499243               0.999999996              -0.000005396               0.000521594               0.999999996              -0.000007421               0.000545253               0.999999996              -0.000009433               0.000569989               0.999999996              -0.000011066               0.000595550               0.999999996              -0.000012022               0.000621649               0.999999996              -0.000012198               0.000648066               0.999999996              -0.000011506               0.000674590               0.999999996              -0.000000000               0.000401144               0.999999996               0.000000000               0.000402547               0.999999996              -0.000000000               0.000405200               0.999999996               0.000000000               0.000410890               0.999999996              -0.000000000               0.000419795               0.999999996              -0.000000000               0.000431491               0.999999996              -0.000000000               0.000445721               0.999999996              -0.000000000               0.000462463               0.999999996              -0.000000000               0.000481333               0.999999996               0.000000000               0.000502062               0.999999996              -0.000000000               0.000524313               0.999999996               0.000000000               0.000547802               0.999999996               0.000000000               0.000572419               0.999999996              -0.000000000               0.000597954               0.999999996              -0.000000000               0.000624156               0.999999996               0.000000000               0.000650715               0.999999996               0.000000000               0.000677266               0.999999996              -0.000026814               0.000000000               0.999999996              -0.000043077              -0.000000000               0.999999996              -0.000051181               0.000000000               0.999999996              -0.000056122               0.000000000               0.999999996              -0.000059947               0.000000000               0.999999996              -0.000063595               0.000000000               0.999999996              -0.000067547               0.000000000               0.999999996              -0.000072011               0.000000000               0.999999996              -0.000077045               0.000000000               0.999999996              -0.000082687              -0.000000000               0.999999996              -0.000089035              -0.000000000               0.999999996              -0.000096083               0.000000000               0.999999996              -0.000103789               0.000000000               0.999999996              -0.000112151               0.000000000               0.999999996              -0.000121144               0.000000000               0.999999996              -0.000130699              -0.000000000               0.999999996              -0.000140724               0.000000000               0.999999996              -0.000026662              -0.000040091               0.999999996              -0.000042210              -0.000035549               0.999999996              -0.000049872              -0.000034415               0.999999996              -0.000054602              -0.000035138               0.999999996              -0.000058423              -0.000037039               0.999999996              -0.000062146              -0.000039636               0.999999996              -0.000066179              -0.000042736               0.999999996              -0.000070731              -0.000046261               0.999999996              -0.000075860              -0.000049959               0.999999996              -0.000081629              -0.000053887               0.999999996              -0.000088080              -0.000058024               0.999999996              -0.000095215              -0.000062303               0.999999996              -0.000103021              -0.000066696               0.999999996              -0.000111498              -0.000071122               0.999999996              -0.000120558              -0.000075554               0.999999996              -0.000130144              -0.000079841               0.999999996              -0.000140206              -0.000083839               0.999999996              -0.000026141              -0.000079678               0.999999996              -0.000039622              -0.000070629               0.999999996              -0.000046163              -0.000068573               0.999999996              -0.000050413              -0.000070248               0.999999996              -0.000054133              -0.000074171               0.999999996              -0.000057988              -0.000079416               0.999999996              -0.000062296              -0.000085642               0.999999996              -0.000067193              -0.000092610               0.999999996              -0.000072659              -0.000100011               0.999999996              -0.000078770              -0.000107826               0.999999996              -0.000085550              -0.000116064               0.999999996              -0.000093013              -0.000124654               0.999999996              -0.000101138              -0.000133473               0.999999996              -0.000109871              -0.000142370               0.999999996              -0.000119124              -0.000151280               0.999999996              -0.000128858              -0.000160058               0.999999996              -0.000139080              -0.000168515               0.999999996              -0.000025228              -0.000118316               0.999999996              -0.000035539              -0.000104897               0.999999996              -0.000040568              -0.000102264               0.999999996              -0.000044220              -0.000105157               0.999999996              -0.000047943              -0.000111306               0.999999996              -0.000052087              -0.000119356               0.999999996              -0.000056783              -0.000128723               0.999999996              -0.000062218              -0.000139219               0.999999996              -0.000068369              -0.000150329               0.999999996              -0.000075183              -0.000162062               0.999999996              -0.000082682              -0.000174449               0.999999996              -0.000090821              -0.000187358               0.999999996              -0.000099543              -0.000200590               0.999999996              -0.000108815              -0.000213974               0.999999996              -0.000118562              -0.000227471               0.999999996              -0.000128804              -0.000241101               0.999999996              -0.000139618              -0.000254795               0.999999996              -0.000024029              -0.000155588               0.999999996              -0.000030236              -0.000138091               0.999999996              -0.000033565              -0.000135327               0.999999996              -0.000036834              -0.000139743               0.999999996              -0.000040739              -0.000148304               0.999999996              -0.000045397              -0.000159275               0.999999996              -0.000050935              -0.000171944               0.999999996              -0.000057284              -0.000185967               0.999999996              -0.000064389              -0.000200923               0.999999996              -0.000072224              -0.000216580               0.999999996              -0.000080737              -0.000233057               0.999999996              -0.000089837              -0.000250213               0.999999996              -0.000099451              -0.000267907               0.999999996              -0.000109582              -0.000285938               0.999999996              -0.000120287              -0.000304346               0.999999996              -0.000131631              -0.000323280               0.999999996              -0.000143683              -0.000342964               0.999999996              -0.000022573              -0.000191093               0.999999996              -0.000024047              -0.000170012               0.999999996              -0.000025919              -0.000167544               0.999999996              -0.000029133              -0.000173784               0.999999996              -0.000033591              -0.000184871               0.999999996              -0.000039201              -0.000198844               0.999999996              -0.000045780              -0.000214846               0.999999996              -0.000053236              -0.000232434               0.999999996              -0.000061515              -0.000251343               0.999999996              -0.000070614              -0.000271090               0.999999996              -0.000080441              -0.000291704               0.999999996              -0.000090890              -0.000313183               0.999999996              -0.000101918              -0.000335365               0.999999996              -0.000113606              -0.000358213               0.999999996              -0.000125986              -0.000381699               0.999999996              -0.000139031              -0.000406043               0.999999996              -0.000152660              -0.000431469               0.999999996              -0.000020860              -0.000224451               0.999999996              -0.000017432              -0.000200531               0.999999996              -0.000018332              -0.000198751               0.999999996              -0.000021947              -0.000206929               0.999999996              -0.000027387              -0.000220574               0.999999996              -0.000034132              -0.000237648               0.999999996              -0.000041922              -0.000256993               0.999999996              -0.000050725              -0.000278271               0.999999996              -0.000060543              -0.000301180               0.999999996              -0.000071313              -0.000325184               0.999999996              -0.000082854              -0.000349983               0.999999996              -0.000095076              -0.000375760               0.999999996              -0.000107915              -0.000402398               0.999999996              -0.000121402              -0.000429935               0.999999996              -0.000135439              -0.000458315               0.999999996              -0.000149886              -0.000487498               0.999999996              -0.000164449              -0.000517404               0.999999996              -0.000019028              -0.000255320               0.999999996              -0.000010897              -0.000229512               0.999999996              -0.000011316              -0.000228748               0.999999996              -0.000015787              -0.000238891               0.999999996              -0.000022403              -0.000255093               0.999999996              -0.000030439              -0.000275266               0.999999996              -0.000039680              -0.000298168               0.999999996              -0.000050205              -0.000323323               0.999999996              -0.000061851              -0.000350344               0.999999996              -0.000074393              -0.000378532               0.999999996              -0.000087627              -0.000407477               0.999999996              -0.000101483              -0.000437447               0.999999996              -0.000115901              -0.000468493               0.999999996              -0.000130713              -0.000500532               0.999999996              -0.000145759              -0.000533429               0.999999996              -0.000160872              -0.000566939               0.999999996              -0.000175769              -0.000600428               0.999999996              -0.000017318              -0.000283240               0.999999996              -0.000004624              -0.000257014               0.999999996              -0.000005392              -0.000257217               0.999999996              -0.000010948              -0.000269294               0.999999996              -0.000018809              -0.000288103               0.999999996              -0.000028349              -0.000311468               0.999999996              -0.000039286              -0.000338133               0.999999996              -0.000051627              -0.000367323               0.999999996              -0.000064979              -0.000398356               0.999999996              -0.000079024              -0.000430592               0.999999996              -0.000093590              -0.000463719               0.999999996              -0.000108653              -0.000497910               0.999999996              -0.000124059              -0.000533099               0.999999996              -0.000139728              -0.000569305               0.999999996              -0.000155629              -0.000606145               0.999999996              -0.000171560              -0.000643198               0.999999996              -0.000187338              -0.000680010               0.999999996              -0.000016099              -0.000309195               0.999999996              -0.000000287              -0.000285436               0.999999996               0.000000529              -0.000283067               0.999999996              -0.000003961              -0.000292124               0.999999996              -0.000010888              -0.000307849               0.999999996              -0.000019446              -0.000328262               0.999999996              -0.000029271              -0.000352206               0.999999996              -0.000040188              -0.000378800               0.999999996              -0.000052057              -0.000407374               0.999999996              -0.000064520              -0.000437280               0.999999996              -0.000077379              -0.000468121               0.999999996              -0.000090417              -0.000499660               0.999999996              -0.000103598              -0.000531965               0.999999996              -0.000116926              -0.000565110               0.999999996              -0.000130596              -0.000599054               0.999999996              -0.000144656              -0.000633622               0.999999996              -0.000159107              -0.000668348               0.999999996              -0.000014556              -0.000332545               0.999999996               0.000002671              -0.000312385               0.999999996               0.000005141              -0.000309008               0.999999996               0.000001923              -0.000315617               0.999999996              -0.000003875              -0.000328714               0.999999996              -0.000011290              -0.000346455               0.999999996              -0.000019937              -0.000367734               0.999999996              -0.000029459              -0.000391778               0.999999996              -0.000039777              -0.000417935               0.999999996              -0.000050602              -0.000445634               0.999999996              -0.000061731              -0.000474302               0.999999996              -0.000072920              -0.000503659               0.999999996              -0.000084003              -0.000533521               0.999999996              -0.000094936              -0.000564008               0.999999996              -0.000105919              -0.000595132               0.999999996              -0.000117258              -0.000626996               0.999999996              -0.000128916              -0.000659443               0.999999996              -0.000012766              -0.000352859               0.999999996               0.000004432              -0.000337291               0.999999996               0.000008126              -0.000333988               0.999999996               0.000006276              -0.000339081               0.999999996               0.000001780              -0.000350139               0.999999996              -0.000004384              -0.000365603               0.999999996              -0.000011761              -0.000384514               0.999999996              -0.000019824              -0.000406211               0.999999996              -0.000028420              -0.000430177               0.999999996              -0.000037501              -0.000455731               0.999999996              -0.000047022              -0.000482387               0.999999996              -0.000056513              -0.000509843               0.999999996              -0.000065612              -0.000537849               0.999999996              -0.000074249              -0.000566290               0.999999996              -0.000082602              -0.000595131               0.999999996              -0.000090715              -0.000624588               0.999999996              -0.000098816              -0.000654705               0.999999996              -0.000010726              -0.000369834               0.999999996               0.000005056              -0.000359234               0.999999996               0.000009382              -0.000356960               0.999999996               0.000008689              -0.000361419               0.999999996               0.000005434              -0.000371100               0.999999996               0.000000663              -0.000384822               0.999999996              -0.000005228              -0.000401937               0.999999996              -0.000011671              -0.000421720               0.999999996              -0.000018472              -0.000443699               0.999999996              -0.000025799              -0.000467407               0.999999996              -0.000033440              -0.000492472               0.999999996              -0.000041146              -0.000518424               0.999999996              -0.000048497              -0.000544967               0.999999996              -0.000055206              -0.000571924               0.999999996              -0.000061102              -0.000599278               0.999999996              -0.000066168              -0.000627014               0.999999996              -0.000070538              -0.000655240               0.999999996              -0.000008376              -0.000383368               0.999999996               0.000004705              -0.000377435               0.999999996               0.000008931              -0.000376758               0.999999996               0.000008988              -0.000381328               0.999999996               0.000006841              -0.000390257               0.999999996               0.000003472              -0.000402876               0.999999996              -0.000000702              -0.000418661               0.999999996              -0.000005526              -0.000437092               0.999999996              -0.000010662              -0.000457593               0.999999996              -0.000015961              -0.000479894               0.999999996              -0.000021520              -0.000503765               0.999999996              -0.000027383              -0.000528651               0.999999996              -0.000033064              -0.000554254               0.999999996              -0.000037995              -0.000580364               0.999999996              -0.000041797              -0.000606853               0.999999996              -0.000044409              -0.000633651               0.999999996              -0.000045762              -0.000660756               0.999999996              -0.000005764              -0.000393180               0.999999996               0.000003564              -0.000391125               0.999999996               0.000006926              -0.000392088               0.999999996               0.000007281              -0.000397127               0.999999996               0.000006093              -0.000405863               0.999999996               0.000004068              -0.000417896               0.999999996               0.000001474              -0.000432820               0.999999996              -0.000001774              -0.000450272               0.999999996              -0.000005195              -0.000469882               0.999999996              -0.000008557              -0.000491350               0.999999996              -0.000012199              -0.000514261               0.999999996              -0.000016208              -0.000538392               0.999999996              -0.000020113              -0.000563453               0.999999996              -0.000023283              -0.000589132               0.999999996              -0.000025478              -0.000615217               0.999999996              -0.000026459              -0.000641621               0.999999996              -0.000026076              -0.000668241               0.999999996              -0.000002952              -0.000399108               0.999999996               0.000001913              -0.000399643               0.999999996               0.000003785              -0.000401896               0.999999996               0.000004071              -0.000407392               0.999999996               0.000003545              -0.000416198               0.999999996               0.000002650              -0.000427973               0.999999996               0.000001385              -0.000442364               0.999999996              -0.000000265              -0.000459262               0.999999996              -0.000001927              -0.000478341               0.999999996              -0.000003549              -0.000499243               0.999999996              -0.000005396              -0.000521594               0.999999996              -0.000007421              -0.000545253               0.999999996              -0.000009433              -0.000569989               0.999999996              -0.000011066              -0.000595550               0.999999996              -0.000012022              -0.000621649               0.999999996              -0.000012198              -0.000648066               0.999999996              -0.000011506              -0.000674590               0.999999996              -0.000000000              -0.000401144               0.999999996               0.000000000              -0.000402547               0.999999996              -0.000000000              -0.000405200               0.999999996              -0.000000000              -0.000410890               0.999999996               0.000000000              -0.000419795               0.999999996              -0.000000000              -0.000431491               0.999999996               0.000000000              -0.000445721               0.999999996               0.000000000              -0.000462463               0.999999996               0.000000000              -0.000481333               0.999999996               0.000000000              -0.000502062               0.999999996               0.000000000              -0.000524313               0.999999996              -0.000000000              -0.000547802               0.999999996               0.000000000              -0.000572419               0.999999996              -0.000000000              -0.000597954               0.999999996              -0.000000000              -0.000624156               0.999999996              -0.000000000              -0.000650715               0.999999996               0.000000000              -0.000677266               0.999999996               0.000026814               0.000000000               0.999999996               0.000043077               0.000000000               0.999999996               0.000051181              -0.000000000               0.999999996               0.000056122              -0.000000000               0.999999996               0.000059947              -0.000000000               0.999999996               0.000063595              -0.000000000               0.999999996               0.000067547              -0.000000000               0.999999996               0.000072011               0.000000000               0.999999996               0.000077045              -0.000000000               0.999999996               0.000082687              -0.000000000               0.999999996               0.000089035               0.000000000               0.999999996               0.000096083               0.000000000               0.999999996               0.000103789               0.000000000               0.999999996               0.000112151               0.000000000               0.999999996               0.000121144               0.000000000               0.999999996               0.000130699               0.000000000               0.999999996               0.000140724               0.000000000               0.999999996               0.000026662              -0.000040091               0.999999996               0.000042210              -0.000035549               0.999999996               0.000049872              -0.000034415               0.999999996               0.000054602              -0.000035138               0.999999996               0.000058423              -0.000037039               0.999999996               0.000062146              -0.000039636               0.999999996               0.000066179              -0.000042736               0.999999996               0.000070731              -0.000046261               0.999999996               0.000075860              -0.000049959               0.999999996               0.000081629              -0.000053887               0.999999996               0.000088080              -0.000058024               0.999999996               0.000095215              -0.000062303               0.999999996               0.000103021              -0.000066696               0.999999996               0.000111498              -0.000071122               0.999999996               0.000120558              -0.000075554               0.999999996               0.000130144              -0.000079841               0.999999996               0.000140206              -0.000083839               0.999999996               0.000026141              -0.000079678               0.999999996               0.000039622              -0.000070629               0.999999996               0.000046163              -0.000068573               0.999999996               0.000050413              -0.000070248               0.999999996               0.000054133              -0.000074171               0.999999996               0.000057988              -0.000079416               0.999999996               0.000062296              -0.000085642               0.999999996               0.000067193              -0.000092610               0.999999996               0.000072659              -0.000100011               0.999999996               0.000078770              -0.000107826               0.999999996               0.000085550              -0.000116064               0.999999996               0.000093013              -0.000124654               0.999999996               0.000101138              -0.000133473               0.999999996               0.000109871              -0.000142370               0.999999996               0.000119124              -0.000151280               0.999999996               0.000128858              -0.000160058               0.999999996               0.000139080              -0.000168515               0.999999996               0.000025228              -0.000118316               0.999999996               0.000035539              -0.000104897               0.999999996               0.000040568              -0.000102264               0.999999996               0.000044220              -0.000105157               0.999999996               0.000047943              -0.000111306               0.999999996               0.000052087              -0.000119356               0.999999996               0.000056783              -0.000128723               0.999999996               0.000062218              -0.000139219               0.999999996               0.000068369              -0.000150329               0.999999996               0.000075183              -0.000162062               0.999999996               0.000082682              -0.000174449               0.999999996               0.000090821              -0.000187358               0.999999996               0.000099543              -0.000200590               0.999999996               0.000108815              -0.000213974               0.999999996               0.000118562              -0.000227471               0.999999996               0.000128804              -0.000241101               0.999999996               0.000139618              -0.000254795               0.999999996               0.000024029              -0.000155588               0.999999996               0.000030236              -0.000138091               0.999999996               0.000033565              -0.000135327               0.999999996               0.000036834              -0.000139743               0.999999996               0.000040739              -0.000148304               0.999999996               0.000045397              -0.000159275               0.999999996               0.000050935              -0.000171944               0.999999996               0.000057284              -0.000185967               0.999999996               0.000064389              -0.000200923               0.999999996               0.000072224              -0.000216580               0.999999996               0.000080737              -0.000233057               0.999999996               0.000089837              -0.000250213               0.999999996               0.000099451              -0.000267907               0.999999996               0.000109582              -0.000285938               0.999999996               0.000120287              -0.000304346               0.999999996               0.000131631              -0.000323280               0.999999996               0.000143683              -0.000342964               0.999999996               0.000022573              -0.000191093               0.999999996               0.000024047              -0.000170012               0.999999996               0.000025919              -0.000167544               0.999999996               0.000029133              -0.000173784               0.999999996               0.000033591              -0.000184871               0.999999996               0.000039201              -0.000198844               0.999999996               0.000045780              -0.000214846               0.999999996               0.000053236              -0.000232434               0.999999996               0.000061515              -0.000251343               0.999999996               0.000070614              -0.000271090               0.999999996               0.000080441              -0.000291704               0.999999996               0.000090890              -0.000313183               0.999999996               0.000101918              -0.000335365               0.999999996               0.000113606              -0.000358213               0.999999996               0.000125986              -0.000381699               0.999999996               0.000139031              -0.000406043               0.999999996               0.000152660              -0.000431469               0.999999996               0.000020860              -0.000224451               0.999999996               0.000017432              -0.000200531               0.999999996               0.000018332              -0.000198751               0.999999996               0.000021947              -0.000206929               0.999999996               0.000027387              -0.000220574               0.999999996               0.000034132              -0.000237648               0.999999996               0.000041922              -0.000256993               0.999999996               0.000050725              -0.000278271               0.999999996               0.000060543              -0.000301180               0.999999996               0.000071313              -0.000325184               0.999999996               0.000082854              -0.000349983               0.999999996               0.000095076              -0.000375760               0.999999996               0.000107915              -0.000402398               0.999999996               0.000121402              -0.000429935               0.999999996               0.000135439              -0.000458315               0.999999996               0.000149886              -0.000487498               0.999999996               0.000164449              -0.000517404               0.999999996               0.000019028              -0.000255320               0.999999996               0.000010897              -0.000229512               0.999999996               0.000011316              -0.000228748               0.999999996               0.000015787              -0.000238891               0.999999996               0.000022403              -0.000255093               0.999999996               0.000030439              -0.000275266               0.999999996               0.000039680              -0.000298168               0.999999996               0.000050205              -0.000323323               0.999999996               0.000061851              -0.000350344               0.999999996               0.000074393              -0.000378532               0.999999996               0.000087627              -0.000407477               0.999999996               0.000101483              -0.000437447               0.999999996               0.000115901              -0.000468493               0.999999996               0.000130713              -0.000500532               0.999999996               0.000145759              -0.000533429               0.999999996               0.000160872              -0.000566939               0.999999996               0.000175769              -0.000600428               0.999999996               0.000017318              -0.000283240               0.999999996               0.000004624              -0.000257014               0.999999996               0.000005392              -0.000257217               0.999999996               0.000010948              -0.000269294               0.999999996               0.000018809              -0.000288103               0.999999996               0.000028349              -0.000311468               0.999999996               0.000039286              -0.000338133               0.999999996               0.000051627              -0.000367323               0.999999996               0.000064979              -0.000398356               0.999999996               0.000079024              -0.000430592               0.999999996               0.000093590              -0.000463719               0.999999996               0.000108653              -0.000497910               0.999999996               0.000124059              -0.000533099               0.999999996               0.000139728              -0.000569305               0.999999996               0.000155629              -0.000606145               0.999999996               0.000171560              -0.000643198               0.999999996               0.000187338              -0.000680010               0.999999996               0.000016099              -0.000309195               0.999999996               0.000000287              -0.000285436               0.999999996              -0.000000529              -0.000283067               0.999999996               0.000003961              -0.000292124               0.999999996               0.000010888              -0.000307849               0.999999996               0.000019446              -0.000328262               0.999999996               0.000029271              -0.000352206               0.999999996               0.000040188              -0.000378800               0.999999996               0.000052057              -0.000407374               0.999999996               0.000064520              -0.000437280               0.999999996               0.000077379              -0.000468121               0.999999996               0.000090417              -0.000499660               0.999999996               0.000103598              -0.000531965               0.999999996               0.000116926              -0.000565110               0.999999996               0.000130596              -0.000599054               0.999999996               0.000144656              -0.000633622               0.999999996               0.000159107              -0.000668348               0.999999996               0.000014556              -0.000332545               0.999999996              -0.000002671              -0.000312385               0.999999996              -0.000005141              -0.000309008               0.999999996              -0.000001923              -0.000315617               0.999999996               0.000003875              -0.000328714               0.999999996               0.000011290              -0.000346455               0.999999996               0.000019937              -0.000367734               0.999999996               0.000029459              -0.000391778               0.999999996               0.000039777              -0.000417935               0.999999996               0.000050602              -0.000445634               0.999999996               0.000061731              -0.000474302               0.999999996               0.000072920              -0.000503659               0.999999996               0.000084003              -0.000533521               0.999999996               0.000094936              -0.000564008               0.999999996               0.000105919              -0.000595132               0.999999996               0.000117258              -0.000626996               0.999999996               0.000128916              -0.000659443               0.999999996               0.000012766              -0.000352859               0.999999996              -0.000004432              -0.000337291               0.999999996              -0.000008126              -0.000333988               0.999999996              -0.000006276              -0.000339081               0.999999996              -0.000001780              -0.000350139               0.999999996               0.000004384              -0.000365603               0.999999996               0.000011761              -0.000384514               0.999999996               0.000019824              -0.000406211               0.999999996               0.000028420              -0.000430177               0.999999996               0.000037501              -0.000455731               0.999999996               0.000047022              -0.000482387               0.999999996               0.000056513              -0.000509843               0.999999996               0.000065612              -0.000537849               0.999999996               0.000074249              -0.000566290               0.999999996               0.000082602              -0.000595131               0.999999996               0.000090715              -0.000624588               0.999999996               0.000098816              -0.000654705               0.999999996               0.000010726              -0.000369834               0.999999996              -0.000005056              -0.000359234               0.999999996              -0.000009382              -0.000356960               0.999999996              -0.000008689              -0.000361419               0.999999996              -0.000005434              -0.000371100               0.999999996              -0.000000663              -0.000384822               0.999999996               0.000005228              -0.000401937               0.999999996               0.000011671              -0.000421720               0.999999996               0.000018472              -0.000443699               0.999999996               0.000025799              -0.000467407               0.999999996               0.000033440              -0.000492472               0.999999996               0.000041146              -0.000518424               0.999999996               0.000048497              -0.000544967               0.999999996               0.000055206              -0.000571924               0.999999996               0.000061102              -0.000599278               0.999999996               0.000066168              -0.000627014               0.999999996               0.000070538              -0.000655240               0.999999996               0.000008376              -0.000383368               0.999999996              -0.000004705              -0.000377435               0.999999996              -0.000008931              -0.000376758               0.999999996              -0.000008988              -0.000381328               0.999999996              -0.000006841              -0.000390257               0.999999996              -0.000003472              -0.000402876               0.999999996               0.000000702              -0.000418661               0.999999996               0.000005526              -0.000437092               0.999999996               0.000010662              -0.000457593               0.999999996               0.000015961              -0.000479894               0.999999996               0.000021520              -0.000503765               0.999999996               0.000027383              -0.000528651               0.999999996               0.000033064              -0.000554254               0.999999996               0.000037995              -0.000580364               0.999999996               0.000041797              -0.000606853               0.999999996               0.000044409              -0.000633651               0.999999996               0.000045762              -0.000660756               0.999999996               0.000005764              -0.000393180               0.999999996              -0.000003564              -0.000391125               0.999999996              -0.000006926              -0.000392088               0.999999996              -0.000007281              -0.000397127               0.999999996              -0.000006093              -0.000405863               0.999999996              -0.000004068              -0.000417896               0.999999996              -0.000001474              -0.000432820               0.999999996               0.000001774              -0.000450272               0.999999996               0.000005195              -0.000469882               0.999999996               0.000008557              -0.000491350               0.999999996               0.000012199              -0.000514261               0.999999996               0.000016208              -0.000538392               0.999999996               0.000020113              -0.000563453               0.999999996               0.000023283              -0.000589132               0.999999996               0.000025478              -0.000615217               0.999999996               0.000026459              -0.000641621               0.999999996               0.000026076              -0.000668241               0.999999996               0.000002952              -0.000399108               0.999999996              -0.000001913              -0.000399643               0.999999996              -0.000003785              -0.000401896               0.999999996              -0.000004071              -0.000407392               0.999999996              -0.000003545              -0.000416198               0.999999996              -0.000002650              -0.000427973               0.999999996              -0.000001385              -0.000442364               0.999999996               0.000000265              -0.000459262               0.999999996               0.000001927              -0.000478341               0.999999996               0.000003549              -0.000499243               0.999999996               0.000005396              -0.000521594               0.999999996               0.000007421              -0.000545253               0.999999996               0.000009433              -0.000569989               0.999999996               0.000011066              -0.000595550               0.999999996               0.000012022              -0.000621649               0.999999996               0.000012198              -0.000648066               0.999999996               0.000011506              -0.000674590               0.999999996              -0.000000000              -0.000401144               0.999999996               0.000000000              -0.000402547               0.999999996              -0.000000000              -0.000405200               0.999999996              -0.000000000              -0.000410890               0.999999996               0.000000000              -0.000419795               0.999999996              -0.000000000              -0.000431491               0.999999996               0.000000000              -0.000445721               0.999999996               0.000000000              -0.000462463               0.999999996               0.000000000              -0.000481333               0.999999996               0.000000000              -0.000502062               0.999999996               0.000000000              -0.000524313               0.999999996              -0.000000000              -0.000547802               0.999999996               0.000000000              -0.000572419               0.999999996              -0.000000000              -0.000597954               0.999999996              -0.000000000              -0.000624156               0.999999996              -0.000000000              -0.000650715               0.999999996               0.000000000              -0.000677266               0.999999996               0.000026814               0.000000000               0.999999996               0.000043077               0.000000000               0.999999996               0.000051181              -0.000000000               0.999999996               0.000056122              -0.000000000               0.999999996               0.000059947              -0.000000000               0.999999996               0.000063595              -0.000000000               0.999999996               0.000067547              -0.000000000               0.999999996               0.000072011               0.000000000               0.999999996               0.000077045              -0.000000000               0.999999996               0.000082687              -0.000000000               0.999999996               0.000089035               0.000000000               0.999999996               0.000096083               0.000000000               0.999999996               0.000103789               0.000000000               0.999999996               0.000112151               0.000000000               0.999999996               0.000121144               0.000000000               0.999999996               0.000130699               0.000000000               0.999999996               0.000140724               0.000000000               0.999999996               0.000026662               0.000040091               0.999999996               0.000042210               0.000035549               0.999999996               0.000049872               0.000034415               0.999999996               0.000054602               0.000035138               0.999999996               0.000058423               0.000037039               0.999999996               0.000062146               0.000039636               0.999999996               0.000066179               0.000042736               0.999999996               0.000070731               0.000046261               0.999999996               0.000075860               0.000049959               0.999999996               0.000081629               0.000053887               0.999999996               0.000088080               0.000058024               0.999999996               0.000095215               0.000062303               0.999999996               0.000103021               0.000066696               0.999999996               0.000111498               0.000071122               0.999999996               0.000120558               0.000075554               0.999999996               0.000130144               0.000079841               0.999999996               0.000140206               0.000083839               0.999999996               0.000026141               0.000079678               0.999999996               0.000039622               0.000070629               0.999999996               0.000046163               0.000068573               0.999999996               0.000050413               0.000070248               0.999999996               0.000054133               0.000074171               0.999999996               0.000057988               0.000079416               0.999999996               0.000062296               0.000085642               0.999999996               0.000067193               0.000092610               0.999999996               0.000072659               0.000100011               0.999999996               0.000078770               0.000107826               0.999999996               0.000085550               0.000116064               0.999999996               0.000093013               0.000124654               0.999999996               0.000101138               0.000133473               0.999999996               0.000109871               0.000142370               0.999999996               0.000119124               0.000151280               0.999999996               0.000128858               0.000160058               0.999999996               0.000139080               0.000168515               0.999999996               0.000025228               0.000118316               0.999999996               0.000035539               0.000104897               0.999999996               0.000040568               0.000102264               0.999999996               0.000044220               0.000105157               0.999999996               0.000047943               0.000111306               0.999999996               0.000052087               0.000119356               0.999999996               0.000056783               0.000128723               0.999999996               0.000062218               0.000139219               0.999999996               0.000068369               0.000150329               0.999999996               0.000075183               0.000162062               0.999999996               0.000082682               0.000174449               0.999999996               0.000090821               0.000187358               0.999999996               0.000099543               0.000200590               0.999999996               0.000108815               0.000213974               0.999999996               0.000118562               0.000227471               0.999999996               0.000128804               0.000241101               0.999999996               0.000139618               0.000254795               0.999999996               0.000024029               0.000155588               0.999999996               0.000030236               0.000138091               0.999999996               0.000033565               0.000135327               0.999999996               0.000036834               0.000139743               0.999999996               0.000040739               0.000148304               0.999999996               0.000045397               0.000159275               0.999999996               0.000050935               0.000171944               0.999999996               0.000057284               0.000185967               0.999999996               0.000064389               0.000200923               0.999999996               0.000072224               0.000216580               0.999999996               0.000080737               0.000233057               0.999999996               0.000089837               0.000250213               0.999999996               0.000099451               0.000267907               0.999999996               0.000109582               0.000285938               0.999999996               0.000120287               0.000304346               0.999999996               0.000131631               0.000323280               0.999999996               0.000143683               0.000342964               0.999999996               0.000022573               0.000191093               0.999999996               0.000024047               0.000170012               0.999999996               0.000025919               0.000167544               0.999999996               0.000029133               0.000173784               0.999999996               0.000033591               0.000184871               0.999999996               0.000039201               0.000198844               0.999999996               0.000045780               0.000214846               0.999999996               0.000053236               0.000232434               0.999999996               0.000061515               0.000251343               0.999999996               0.000070614               0.000271090               0.999999996               0.000080441               0.000291704               0.999999996               0.000090890               0.000313183               0.999999996               0.000101918               0.000335365               0.999999996               0.000113606               0.000358213               0.999999996               0.000125986               0.000381699               0.999999996               0.000139031               0.000406043               0.999999996               0.000152660               0.000431469               0.999999996               0.000020860               0.000224451               0.999999996               0.000017432               0.000200531               0.999999996               0.000018332               0.000198751               0.999999996               0.000021947               0.000206929               0.999999996               0.000027387               0.000220574               0.999999996               0.000034132               0.000237648               0.999999996               0.000041922               0.000256993               0.999999996               0.000050725               0.000278271               0.999999996               0.000060543               0.000301180               0.999999996               0.000071313               0.000325184               0.999999996               0.000082854               0.000349983               0.999999996               0.000095076               0.000375760               0.999999996               0.000107915               0.000402398               0.999999996               0.000121402               0.000429935               0.999999996               0.000135439               0.000458315               0.999999996               0.000149886               0.000487498               0.999999996               0.000164449               0.000517404               0.999999996               0.000019028               0.000255320               0.999999996               0.000010897               0.000229512               0.999999996               0.000011316               0.000228748               0.999999996               0.000015787               0.000238891               0.999999996               0.000022403               0.000255093               0.999999996               0.000030439               0.000275266               0.999999996               0.000039680               0.000298168               0.999999996               0.000050205               0.000323323               0.999999996               0.000061851               0.000350344               0.999999996               0.000074393               0.000378532               0.999999996               0.000087627               0.000407477               0.999999996               0.000101483               0.000437447               0.999999996               0.000115901               0.000468493               0.999999996               0.000130713               0.000500532               0.999999996               0.000145759               0.000533429               0.999999996               0.000160872               0.000566939               0.999999996               0.000175769               0.000600428               0.999999996               0.000017318               0.000283240               0.999999996               0.000004624               0.000257014               0.999999996               0.000005392               0.000257217               0.999999996               0.000010948               0.000269294               0.999999996               0.000018809               0.000288103               0.999999996               0.000028349               0.000311468               0.999999996               0.000039286               0.000338133               0.999999996               0.000051627               0.000367323               0.999999996               0.000064979               0.000398356               0.999999996               0.000079024               0.000430592               0.999999996               0.000093590               0.000463719               0.999999996               0.000108653               0.000497910               0.999999996               0.000124059               0.000533099               0.999999996               0.000139728               0.000569305               0.999999996               0.000155629               0.000606145               0.999999996               0.000171560               0.000643198               0.999999996               0.000187338               0.000680010               0.999999996               0.000016099               0.000309195               0.999999996               0.000000287               0.000285436               0.999999996              -0.000000529               0.000283067               0.999999996               0.000003961               0.000292124               0.999999996               0.000010888               0.000307849               0.999999996               0.000019446               0.000328262               0.999999996               0.000029271               0.000352206               0.999999996               0.000040188               0.000378800               0.999999996               0.000052057               0.000407374               0.999999996               0.000064520               0.000437280               0.999999996               0.000077379               0.000468121               0.999999996               0.000090417               0.000499660               0.999999996               0.000103598               0.000531965               0.999999996               0.000116926               0.000565110               0.999999996               0.000130596               0.000599054               0.999999996               0.000144656               0.000633622               0.999999996               0.000159107               0.000668348               0.999999996               0.000014556               0.000332545               0.999999996              -0.000002671               0.000312385               0.999999996              -0.000005141               0.000309008               0.999999996              -0.000001923               0.000315617               0.999999996               0.000003875               0.000328714               0.999999996               0.000011290               0.000346455               0.999999996               0.000019937               0.000367734               0.999999996               0.000029459               0.000391778               0.999999996               0.000039777               0.000417935               0.999999996               0.000050602               0.000445634               0.999999996               0.000061731               0.000474302               0.999999996               0.000072920               0.000503659               0.999999996               0.000084003               0.000533521               0.999999996               0.000094936               0.000564008               0.999999996               0.000105919               0.000595132               0.999999996               0.000117258               0.000626996               0.999999996               0.000128916               0.000659443               0.999999996               0.000012766               0.000352859               0.999999996              -0.000004432               0.000337291               0.999999996              -0.000008126               0.000333988               0.999999996              -0.000006276               0.000339081               0.999999996              -0.000001780               0.000350139               0.999999996               0.000004384               0.000365603               0.999999996               0.000011761               0.000384514               0.999999996               0.000019824               0.000406211               0.999999996               0.000028420               0.000430177               0.999999996               0.000037501               0.000455731               0.999999996               0.000047022               0.000482387               0.999999996               0.000056513               0.000509843               0.999999996               0.000065612               0.000537849               0.999999996               0.000074249               0.000566290               0.999999996               0.000082602               0.000595131               0.999999996               0.000090715               0.000624588               0.999999996               0.000098816               0.000654705               0.999999996               0.000010726               0.000369834               0.999999996              -0.000005056               0.000359234               0.999999996              -0.000009382               0.000356960               0.999999996              -0.000008689               0.000361419               0.999999996              -0.000005434               0.000371100               0.999999996              -0.000000663               0.000384822               0.999999996               0.000005228               0.000401937               0.999999996               0.000011671               0.000421720               0.999999996               0.000018472               0.000443699               0.999999996               0.000025799               0.000467407               0.999999996               0.000033440               0.000492472               0.999999996               0.000041146               0.000518424               0.999999996               0.000048497               0.000544967               0.999999996               0.000055206               0.000571924               0.999999996               0.000061102               0.000599278               0.999999996               0.000066168               0.000627014               0.999999996               0.000070538               0.000655240               0.999999996               0.000008376               0.000383368               0.999999996              -0.000004705               0.000377435               0.999999996              -0.000008931               0.000376758               0.999999996              -0.000008988               0.000381328               0.999999996              -0.000006841               0.000390257               0.999999996              -0.000003472               0.000402876               0.999999996               0.000000702               0.000418661               0.999999996               0.000005526               0.000437092               0.999999996               0.000010662               0.000457593               0.999999996               0.000015961               0.000479894               0.999999996               0.000021520               0.000503765               0.999999996               0.000027383               0.000528651               0.999999996               0.000033064               0.000554254               0.999999996               0.000037995               0.000580364               0.999999996               0.000041797               0.000606853               0.999999996               0.000044409               0.000633651               0.999999996               0.000045762               0.000660756               0.999999996               0.000005764               0.000393180               0.999999996              -0.000003564               0.000391125               0.999999996              -0.000006926               0.000392088               0.999999996              -0.000007281               0.000397127               0.999999996              -0.000006093               0.000405863               0.999999996              -0.000004068               0.000417896               0.999999996              -0.000001474               0.000432820               0.999999996               0.000001774               0.000450272               0.999999996               0.000005195               0.000469882               0.999999996               0.000008557               0.000491350               0.999999996               0.000012199               0.000514261               0.999999996               0.000016208               0.000538392               0.999999996               0.000020113               0.000563453               0.999999996               0.000023283               0.000589132               0.999999996               0.000025478               0.000615217               0.999999996               0.000026459               0.000641621               0.999999996               0.000026076               0.000668241               0.999999996               0.000002952               0.000399108               0.999999996              -0.000001913               0.000399643               0.999999996              -0.000003785               0.000401896               0.999999996              -0.000004071               0.000407392               0.999999996              -0.000003545               0.000416198               0.999999996              -0.000002650               0.000427973               0.999999996              -0.000001385               0.000442364               0.999999996               0.000000265               0.000459262               0.999999996               0.000001927               0.000478341               0.999999996               0.000003549               0.000499243               0.999999996               0.000005396               0.000521594               0.999999996               0.000007421               0.000545253               0.999999996               0.000009433               0.000569989               0.999999996               0.000011066               0.000595550               0.999999996               0.000012022               0.000621649               0.999999996               0.000012198               0.000648066               0.999999996               0.000011506               0.000674590               0.999999996              -0.000000000               0.000401144               0.999999996               0.000000000               0.000402547               0.999999996              -0.000000000               0.000405200               0.999999996               0.000000000               0.000410890               0.999999996              -0.000000000               0.000419795               0.999999996              -0.000000000               0.000431491               0.999999996              -0.000000000               0.000445721               0.999999996              -0.000000000               0.000462463               0.999999996              -0.000000000               0.000481333               0.999999996               0.000000000               0.000502062               0.999999996              -0.000000000               0.000524313               0.999999996               0.000000000               0.000547802               0.999999996               0.000000000               0.000572419               0.999999996              -0.000000000               0.000597954               0.999999996              -0.000000000               0.000624156               0.999999996               0.000000000               0.000650715               0.999999996               0.000000000               0.000677266               0.999999996 </DataArray>
<DataArray type="Float64"                                    Name="defo"                                                      NumberOfComponents=" 3" format="ascii">
             -0.000026814               0.000000000               0.999999996              -0.000043077              -0.000000000               0.999999996              -0.000051181               0.000000000               0.999999996              -0.000056122               0.000000000               0.999999996              -0.000059947               0.000000000               0.999999996              -0.000063595               0.000000000               0.999999996              -0.000067547               0.000000000               0.999999996              -0.000072011               0.000000000               0.999999996              -0.000077045               0.000000000               0.999999996              -0.000082687              -0.000000000               0.999999996              -0.000089035              -0.000000000               0.999999996              -0.000096083               0.000000000               0.999999996              -0.000103789               0.000000000               0.999999996              -0.000112151               0.000000000               0.999999996              -0.000121144               0.000000000               0.999999996              -0.000130699              -0.000000000               0.999999996              -0.000140724               0.000000000               0.999999996              -0.000026662               0.000040091               0.999999996              -0.000042210               0.000035549               0.999999996              -0.000049872               0.000034415               0.999999996              -0.000054602               0.000035138               0.999999996              -0.000058423               0.000037039               0.999999996              -0.000062146               0.000039636               0.999999996              -0.000066179               0.000042736               0.999999996              -0.000070731               0.000046261               0.999999996              -0.000075860               0.000049959               0.999999996              -0.000081629               0.000053887               0.999999996              -0.000088080               0.000058024               0.999999996              -0.000095215               0.000062303               0.999999996              -0.000103021               0.000066696               0.999999996              -0.000111498               0.000071122               0.999999996              -0.000120558               0.000075554               0.999999996              -0.000130144               0.000079841               0.999999996              -0.000140206               0.000083839               0.999999996              -0.000026141               0.000079678               0.999999996              -0.000039622               0.000070629               0.999999996              -0.000046163               0.000068573               0.999999996              -0.000050413               0.000070248               0.999999996              -0.000054133               0.000074171               0.999999996              -0.000057988               0.000079416               0.999999996              -0.000062296               0.000085642               0.999999996              -0.000067193               0.000092610               0.999999996              -0.000072659               0.000100011               0.999999996              -0.000078770               0.000107826               0.999999996              -0.000085550               0.000116064               0.999999996              -0.000093013               0.000124654               0.999999996              -0.000101138               0.000133473               0.999999996              -0.000109871               0.000142370               0.999999996              -0.000119124               0.000151280               0.999999996              -0.000128858               0.000160058               0.999999996              -0.000139080               0.000168515               0.999999996              -0.000025228               0.000118316               0.999999996              -0.000035539               0.000104897               0.999999996              -0.000040568               0.000102264               0.999999996              -0.000044220               0.000105157               0.999999996              -0.000047943               0.000111306               0.999999996              -0.000052087               0.000119356               0.999999996              -0.000056783               0.000128723               0.999999996              -0.000062218               0.000139219               0.999999996              -0.000068369               0.000150329               0.999999996              -0.000075183               0.000162062               0.999999996              -0.000082682               0.000174449               0.999999996              -0.000090821               0.000187358               0.999999996              -0.000099543               0.000200590               0.999999996              -0.000108815               0.000213974               0.999999996              -0.000118562               0.000227471               0.999999996              -0.000128804               0.000241101               0.999999996              -0.000139618               0.000254795               0.999999996              -0.000024029               0.000155588               0.999999996              -0.000030236               0.000138091               0.999999996              -0.000033565               0.000135327               0.999999996              -0.000036834               0.000139743               0.999999996              -0.000040739               0.000148304               0.999999996              -0.000045397               0.000159275               0.999999996              -0.000050935               0.000171944               0.999999996              -0.000057284               0.000185967               0.999999996              -0.000064389               0.000200923               0.999999996              -0.000072224               0.000216580               0.999999996              -0.000080737               0.000233057               0.999999996              -0.000089837               0.000250213               0.999999996              -0.000099451               0.000267907               0.999999996              -0.000109582               0.000285938               0.999999996              -0.000120287               0.000304346               0.999999996              -0.000131631               0.000323280               0.999999996              -0.000143683               0.000342964               0.999999996              -0.000022573               0.000191093               0.999999996              -0.000024047               0.000170012               0.999999996              -0.000025919               0.000167544               0.999999996              -0.000029133               0.000173784               0.999999996              -0.000033591               0.000184871               0.999999996              -0.000039201               0.000198844               0.999999996              -0.000045780               0.000214846               0.999999996              -0.000053236               0.000232434               0.999999996              -0.000061515               0.000251343               0.999999996              -0.000070614               0.000271090               0.999999996              -0.000080441               0.000291704               0.999999996              -0.000090890               0.000313183               0.999999996              -0.000101918               0.000335365               0.999999996              -0.000113606               0.000358213               0.999999996              -0.000125986               0.000381699               0.999999996              -0.000139031               0.000406043               0.999999996              -0.000152660               0.000431469               0.999999996              -0.000020860               0.000224451               0.999999996              -0.000017432               0.000200531               0.999999996              -0.000018332               0.000198751               0.999999996              -0.000021947               0.000206929               0.999999996              -0.000027387               0.000220574               0.999999996              -0.000034132               0.000237648               0.999999996              -0.000041922               0.000256993               0.999999996              -0.000050725               0.000278271               0.999999996              -0.000060543               0.000301180               0.999999996              -0.000071313               0.000325184               0.999999996              -0.000082854               0.000349983               0.999999996              -0.000095076               0.000375760               0.999999996              -0.000107915               0.000402398               0.999999996              -0.000121402               0.000429935               0.999999996              -0.000135439               0.000458315               0.999999996              -0.000149886               0.000487498               0.999999996              -0.000164449               0.000517404               0.999999996              -0.000019028               0.000255320               0.999999996              -0.000010897               0.000229512               0.999999996              -0.000011316               0.000228748               0.999999996              -0.000015787               0.000238891               0.999999996              -0.000022403               0.000255093               0.999999996              -0.000030439               0.000275266               0.999999996              -0.000039680               0.000298168               0.999999996              -0.000050205               0.000323323               0.999999996              -0.000061851               0.000350344               0.999999996              -0.000074393               0.000378532               0.999999996              -0.000087627               0.000407477               0.999999996              -0.000101483               0.000437447               0.999999996              -0.000115901               0.000468493               0.999999996              -0.000130713               0.000500532               0.999999996              -0.000145759               0.000533429               0.999999996              -0.000160872               0.000566939               0.999999996              -0.000175769               0.000600428               0.999999996              -0.000017318               0.000283240               0.999999996              -0.000004624               0.000257014               0.999999996              -0.000005392               0.000257217               0.999999996              -0.000010948               0.000269294               0.999999996              -0.000018809               0.000288103               0.999999996              -0.000028349               0.000311468               0.999999996              -0.000039286               0.000338133               0.999999996              -0.000051627               0.000367323               0.999999996              -0.000064979               0.000398356               0.999999996              -0.000079024               0.000430592               0.999999996              -0.000093590               0.000463719               0.999999996              -0.000108653               0.000497910               0.999999996              -0.000124059               0.000533099               0.999999996              -0.000139728               0.000569305               0.999999996              -0.000155629               0.000606145               0.999999996              -0.000171560               0.000643198               0.999999996              -0.000187338               0.000680010               0.999999996              -0.000016099               0.000309195               0.999999996              -0.000000287               0.000285436               0.999999996               0.000000529               0.000283067               0.999999996              -0.000003961               0.000292124               0.999999996              -0.000010888               0.000307849               0.999999996              -0.000019446               0.000328262               0.999999996              -0.000029271               0.000352206               0.999999996              -0.000040188               0.000378800               0.999999996              -0.000052057               0.000407374               0.999999996              -0.000064520               0.000437280               0.999999996              -0.000077379               0.000468121               0.999999996              -0.000090417               0.000499660               0.999999996              -0.000103598               0.000531965               0.999999996              -0.000116926               0.000565110               0.999999996              -0.000130596               0.000599054               0.999999996              -0.000144656               0.000633622               0.999999996              -0.000159107               0.000668348               0.999999996              -0.000014556               0.000332545               0.999999996               0.000002671               0.000312385               0.999999996               0.000005141               0.000309008               0.999999996               0.000001923               0.000315617               0.999999996              -0.000003875               0.000328714               0.999999996              -0.000011290               0.000346455               0.999999996              -0.000019937               0.000367734               0.999999996              -0.000029459               0.000391778               0.999999996              -0.000039777               0.000417935               0.999999996              -0.000050602               0.000445634               0.999999996              -0.000061731               0.000474302               0.999999996              -0.000072920               0.000503659               0.999999996              -0.000084003               0.000533521               0.999999996              -0.000094936               0.000564008               0.999999996              -0.000105919               0.000595132               0.999999996              -0.000117258               0.000626996               0.999999996              -0.000128916               0.000659443               0.999999996              -0.000012766               0.000352859               0.999999996               0.000004432               0.000337291               0.999999996               0.000008126               0.000333988               0.999999996               0.000006276               0.000339081               0.999999996               0.000001780               0.000350139               0.999999996              -0.000004384               0.000365603               0.999999996              -0.000011761               0.000384514               0.999999996              -0.000019824               0.000406211               0.999999996              -0.000028420               0.000430177               0.999999996              -0.000037501               0.000455731               0.999999996              -0.000047022               0.000482387               0.999999996              -0.000056513               0.000509843               0.999999996              -0.000065612               0.000537849               0.999999996              -0.000074249               0.000566290               0.999999996              -0.000082602               0.000595131               0.999999996              -0.000090715               0.000624588               0.999999996              -0.000098816               0.000654705               0.999999996              -0.000010726               0.000369834               0.999999996               0.000005056               0.000359234               0.999999996               0.000009382               0.000356960               0.999999996               0.000008689               0.000361419               0.999999996               0.000005434               0.000371100               0.999999996               0.000000663               0.000384822               0.999999996              -0.000005228               0.000401937               0.999999996              -0.000011671               0.000421720               0.999999996              -0.000018472               0.000443699               0.999999996              -0.000025799               0.000467407               0.999999996              -0.000033440               0.000492472               0.999999996              -0.000041146               0.000518424               0.999999996              -0.000048497               0.000544967               0.999999996              -0.000055206               0.000571924               0.999999996              -0.000061102               0.000599278               0.999999996              -0.000066168               0.000627014               0.999999996              -0.000070538               0.000655240               0.999999996              -0.000008376               0.000383368               0.999999996               0.000004705               0.000377435               0.999999996               0.000008931               0.000376758               0.999999996               0.000008988               0.000381328               0.999999996               0.000006841               0.000390257               0.999999996               0.000003472               0.000402876               0.999999996              -0.000000702               0.000418661               0.999999996              -0.000005526               0.000437092               0.999999996              -0.000010662               0.000457593               0.999999996              -0.000015961               0.000479894               0.999999996              -0.000021520               0.000503765               0.999999996              -0.000027383               0.000528651               0.999999996              -0.000033064               0.000554254               0.999999996              -0.000037995               0.000580364               0.999999996              -0.000041797               0.000606853               0.999999996              -0.000044409               0.000633651               0.999999996              -0.000045762               0.000660756               0.999999996              -0.000005764               0.000393180               0.999999996               0.000003564               0.000391125               0.999999996               0.000006926               0.000392088               0.999999996               0.000007281               0.000397127               0.999999996               0.000006093               0.000405863               0.999999996               0.000004068               0.000417896               0.999999996               0.000001474               0.000432820               0.999999996              -0.000001774               0.000450272               0.999999996              -0.000005195               0.000469882               0.999999996              -0.000008557               0.000491350               0.999999996              -0.000012199               0.000514261               0.999999996              -0.000016208               0.000538392               0.999999996              -0.000020113               0.000563453               0.999999996              -0.000023283               0.000589132               0.999999996              -0.000025478               0.000615217               0.999999996              -0.000026459               0.000641621               0.999999996              -0.000026076               0.000668241               0.999999996              -0.000002952               0.000399108               0.999999996               0.000001913               0.000399643               0.999999996               0.000003785               0.000401896               0.999999996               0.000004071               0.000407392               0.999999996               0.000003545               0.000416198               0.999999996               0.000002650               0.000427973               0.999999996               0.000001385               0.000442364               0.999999996              -0.000000265               0.000459262               0.999999996              -0.000001927               0.000478341               0.999999996              -0.000003549               0.000499243               0.999999996              -0.000005396               0.000521594               0.999999996              -0.000007421               0.000545253               0.999999996              -0.000009433               0.000569989               0.999999996              -0.000011066               0.000595550               0.999999996              -0.000012022               0.000621649               0.999999996              -0.000012198               0.000648066               0.999999996              -0.000011506               0.000674590               0.999999996              -0.000000000               0.000401144               0.999999996               0.000000000               0.000402547               0.999999996              -0.000000000               0.000405200               0.999999996               0.000000000               0.000410890               0.999999996              -0.000000000               0.000419795               0.999999996              -0.000000000               0.000431491               0.999999996              -0.000000000               0.000445721               0.999999996              -0.000000000               0.000462463               0.999999996              -0.000000000               0.000481333               0.999999996               0.000000000               0.000502062               0.999999996              -0.000000000               0.000524313               0.999999996               0.000000000               0.000547802               0.999999996               0.000000000               0.000572419               0.999999996              -0.000000000               0.000597954               0.999999996              -0.000000000               0.000624156               0.999999996               0.000000000               0.000650715               0.999999996               0.000000000               0.000677266               0.999999996              -0.000026814               0.000000000               0.999999996              -0.000043077              -0.000000000               0.999999996              -0.000051181               0.000000000               0.999999996              -0.000056122               0.000000000               0.999999996              -0.000059947               0.000000000               0.999999996              -0.000063595               0.000000000               0.999999996              -0.000067547               0.000000000               0.999999996              -0.000072011               0.000000000               0.999999996              -0.000077045               0.000000000               0.999999996              -0.000082687              -0.000000000               0.999999996              -0.000089035              -0.000000000               0.999999996              -0.000096083               0.000000000               0.999999996              -0.000103789               0.000000000               0.999999996              -0.000112151               0.000000000               0.999999996              -0.000121144               0.000000000               0.999999996              -0.000130699              -0.000000000               0.999999996              -0.000140724               0.000000000               0.999999996              -0.000026662              -0.000040091               0.999999996              -0.000042210              -0.000035549               0.999999996              -0.000049872              -0.000034415               0.999999996              -0.000054602              -0.000035138               0.999999996              -0.000058423              -0.000037039               0.999999996              -0.000062146              -0.000039636               0.999999996              -0.000066179              -0.000042736               0.999999996              -0.000070731              -0.000046261               0.999999996              -0.000075860              -0.000049959               0.999999996              -0.000081629              -0.000053887               0.999999996              -0.000088080              -0.000058024               0.999999996              -0.000095215              -0.000062303               0.999999996              -0.000103021              -0.000066696               0.999999996              -0.000111498              -0.000071122               0.999999996              -0.000120558              -0.000075554               0.999999996              -0.000130144              -0.000079841               0.999999996              -0.000140206              -0.000083839               0.999999996              -0.000026141              -0.000079678               0.999999996              -0.000039622              -0.000070629               0.999999996              -0.000046163              -0.000068573               0.999999996              -0.000050413              -0.000070248               0.999999996              -0.000054133              -0.000074171               0.999999996              -0.000057988              -0.000079416               0.999999996              -0.000062296              -0.000085642               0.999999996              -0.000067193              -0.000092610               0.999999996              -0.000072659              -0.000100011               0.999999996              -0.000078770              -0.000107826               0.999999996              -0.000085550              -0.000116064               0.999999996              -0.000093013              -0.000124654               0.999999996              -0.000101138              -0.000133473               0.999999996              -0.000109871              -0.000142370               0.999999996              -0.000119124              -0.000151280               0.999999996              -0.000128858              -0.000160058               0.999999996              -0.000139080              -0.000168515               0.999999996              -0.000025228              -0.000118316               0.999999996              -0.000035539              -0.000104897               0.999999996              -0.000040568              -0.000102264               0.999999996              -0.000044220              -0.000105157               0.999999996              -0.000047943              -0.000111306               0.999999996              -0.000052087              -0.000119356               0.999999996              -0.000056783              -0.000128723               0.999999996              -0.000062218              -0.000139219               0.999999996              -0.000068369              -0.000150329               0.999999996              -0.000075183              -0.000162062               0.999999996              -0.000082682              -0.000174449               0.999999996              -0.000090821              -0.000187358               0.999999996              -0.000099543              -0.000200590               0.999999996              -0.000108815              -0.000213974               0.999999996              -0.000118562              -0.000227471               0.999999996              -0.000128804              -0.000241101               0.999999996              -0.000139618              -0.000254795               0.999999996              -0.000024029              -0.000155588               0.999999996              -0.000030236              -0.000138091               0.999999996              -0.000033565              -0.000135327               0.999999996              -0.000036834              -0.000139743               0.999999996              -0.000040739              -0.000148304               0.999999996              -0.000045397              -0.000159275               0.999999996              -0.000050935              -0.000171944               0.999999996              -0.000057284              -0.000185967               0.999999996              -0.000064389              -0.000200923               0.999999996              -0.000072224              -0.000216580               0.999999996              -0.000080737              -0.000233057               0.999999996              -0.000089837              -0.000250213               0.999999996              -0.000099451              -0.000267907               0.999999996              -0.000109582              -0.000285938               0.999999996              -0.000120287              -0.000304346               0.999999996              -0.000131631              -0.000323280               0.999999996              -0.000143683              -0.000342964               0.999999996              -0.000022573              -0.000191093               0.999999996              -0.000024047              -0.000170012               0.999999996              -0.000025919              -0.000167544               0.999999996              -0.000029133              -0.000173784               0.999999996              -0.000033591              -0.000184871               0.999999996              -0.000039201              -0.000198844               0.999999996              -0.000045780              -0.000214846               0.999999996              -0.000053236              -0.000232434               0.999999996              -0.000061515              -0.000251343               0.999999996              -0.000070614              -0.000271090               0.999999996              -0.000080441              -0.000291704               0.999999996              -0.000090890              -0.000313183               0.999999996              -0.000101918              -0.000335365               0.999999996              -0.000113606              -0.000358213               0.999999996              -0.000125986              -0.000381699               0.999999996              -0.000139031              -0.000406043               0.999999996              -0.000152660              -0.000431469               0.999999996              -0.000020860              -0.000224451               0.999999996              -0.000017432              -0.000200531               0.999999996              -0.000018332              -0.000198751               0.999999996              -0.000021947              -0.000206929               0.999999996              -0.000027387              -0.000220574               0.999999996              -0.000034132              -0.000237648               0.999999996              -0.000041922              -0.000256993               0.999999996              -0.000050725              -0.000278271               0.999999996              -0.000060543              -0.000301180               0.999999996              -0.000071313              -0.000325184               0.999999996              -0.000082854              -0.000349983               0.999999996              -0.000095076              -0.000375760               0.999999996              -0.000107915              -0.000402398               0.999999996              -0.000121402              -0.000429935               0.999999996              -0.000135439              -0.000458315               0.999999996              -0.000149886              -0.000487498               0.999999996              -0.000164449              -0.000517404               0.999999996              -0.000019028              -0.000255320               0.999999996              -0.000010897              -0.000229512               0.999999996              -0.000011316              -0.000228748               0.999999996              -0.000015787              -0.000238891               0.999999996              -0.000022403              -0.000255093               0.999999996              -0.000030439              -0.000275266               0.999999996              -0.000039680              -0.000298168               0.999999996              -0.000050205              -0.000323323               0.999999996              -0.000061851              -0.000350344               0.999999996              -0.000074393              -0.000378532               0.999999996              -0.000087627              -0.000407477               0.999999996              -0.000101483              -0.000437447               0.999999996              -0.000115901              -0.000468493               0.999999996              -0.000130713              -0.000500532               0.999999996              -0.000145759              -0.000533429               0.999999996              -0.000160872              -0.000566939               0.999999996              -0.000175769              -0.000600428               0.999999996              -0.000017318              -0.000283240               0.999999996              -0.000004624              -0.000257014               0.999999996              -0.000005392              -0.000257217               0.999999996              -0.000010948              -0.000269294               0.999999996              -0.000018809              -0.000288103               0.999999996              -0.000028349              -0.000311468               0.999999996              -0.000039286              -0.000338133               0.999999996              -0.000051627              -0.000367323               0.999999996              -0.000064979              -0.000398356               0.999999996              -0.000079024              -0.000430592               0.999999996              -0.000093590              -0.000463719               0.999999996              -0.000108653              -0.000497910               0.999999996              -0.000124059              -0.000533099               0.999999996              -0.000139728              -0.000569305               0.999999996              -0.000155629              -0.000606145               0.999999996              -0.000171560              -0.000643198               0.999999996              -0.000187338              -0.000680010               0.999999996              -0.000016099              -0.000309195               0.999999996              -0.000000287              -0.000285436               0.999999996               0.000000529              -0.000283067               0.999999996              -0.000003961              -0.000292124               0.999999996              -0.000010888              -0.000307849               0.999999996              -0.000019446              -0.000328262               0.999999996              -0.000029271              -0.000352206               0.999999996              -0.000040188              -0.000378800               0.999999996              -0.000052057              -0.000407374               0.999999996              -0.000064520              -0.000437280               0.999999996              -0.000077379              -0.000468121               0.999999996              -0.000090417              -0.000499660               0.999999996              -0.000103598              -0.000531965               0.999999996              -0.000116926              -0.000565110               0.999999996              -0.000130596              -0.000599054               0.999999996              -0.000144656              -0.000633622               0.999999996              -0.000159107              -0.000668348               0.999999996              -0.000014556              -0.000332545               0.999999996               0.000002671              -0.000312385               0.999999996               0.000005141              -0.000309008               0.999999996               0.000001923              -0.000315617               0.999999996              -0.000003875              -0.000328714               0.999999996              -0.000011290              -0.000346455               0.999999996              -0.000019937              -0.000367734               0.999999996              -0.000029459              -0.000391778               0.999999996              -0.000039777              -0.000417935               0.999999996              -0.000050602              -0.000445634               0.999999996              -0.000061731              -0.000474302               0.999999996              -0.000072920              -0.000503659               0.999999996              -0.000084003              -0.000533521               0.999999996              -0.000094936              -0.000564008               0.999999996              -0.000105919              -0.000595132               0.999999996              -0.000117258              -0.000626996               0.999999996              -0.000128916              -0.000659443               0.999999996              -0.000012766              -0.000352859               0.999999996               0.000004432              -0.000337291               0.999999996               0.000008126              -0.000333988               0.999999996               0.000006276              -0.000339081               0.999999996               0.000001780              -0.000350139               0.999999996              -0.000004384              -0.000365603               0.999999996              -0.000011761              -0.000384514               0.999999996              -0.000019824              -0.000406211               0.999999996              -0.000028420              -0.000430177               0.999999996              -0.000037501              -0.000455731               0.999999996              -0.000047022              -0.000482387               0.999999996              -0.000056513              -0.000509843               0.999999996              -0.000065612              -0.000537849               0.999999996              -0.000074249              -0.000566290               0.999999996              -0.000082602              -0.000595131               0.999999996              -0.000090715              -0.000624588               0.999999996              -0.000098816              -0.000654705               0.999999996              -0.000010726              -0.000369834               0.999999996               0.000005056              -0.000359234               0.999999996               0.000009382              -0.000356960               0.999999996               0.000008689              -0.000361419               0.999999996               0.000005434              -0.000371100               0.999999996               0.000000663              -0.000384822               0.999999996              -0.000005228              -0.000401937               0.999999996              -0.000011671              -0.000421720               0.999999996              -0.000018472              -0.000443699               0.999999996              -0.000025799              -0.000467407               0.999999996              -0.000033440              -0.000492472               0.999999996              -0.000041146              -0.000518424               0.999999996              -0.000048497              -0.000544967               0.999999996              -0.000055206              -0.000571924               0.999999996              -0.000061102              -0.000599278               0.999999996              -0.000066168              -0.000627014               0.999999996              -0.000070538              -0.000655240               0.999999996              -0.000008376              -0.000383368               0.999999996               0.000004705              -0.000377435               0.999999996               0.000008931              -0.000376758               0.999999996               0.000008988              -0.000381328               0.999999996               0.000006841              -0.000390257               0.999999996               0.000003472              -0.000402876               0.999999996              -0.000000702              -0.000418661               0.999999996              -0.000005526              -0.000437092               0.999999996              -0.000010662              -0.000457593               0.999999996              -0.000015961              -0.000479894               0.999999996              -0.000021520              -0.000503765               0.999999996              -0.000027383              -0.000528651               0.999999996              -0.000033064              -0.000554254               0.999999996              -0.000037995              -0.000580364               0.999999996              -0.000041797              -0.000606853               0.999999996              -0.000044409              -0.000633651               0.999999996              -0.000045762              -0.000660756               0.999999996              -0.000005764              -0.000393180               0.999999996               0.000003564              -0.000391125               0.999999996               0.000006926              -0.000392088               0.999999996               0.000007281              -0.000397127               0.999999996               0.000006093              -0.000405863               0.999999996               0.000004068              -0.000417896               0.999999996               0.000001474              -0.000432820               0.999999996              -0.000001774              -0.000450272               0.999999996              -0.000005195              -0.000469882               0.999999996              -0.000008557              -0.000491350               0.999999996              -0.000012199              -0.000514261               0.999999996              -0.000016208              -0.000538392               0.999999996              -0.000020113              -0.000563453               0.999999996              -0.000023283              -0.000589132               0.999999996              -0.000025478              -0.000615217               0.999999996              -0.000026459              -0.000641621               0.999999996              -0.000026076              -0.000668241               0.999999996              -0.000002952              -0.000399108               0.999999996               0.000001913              -0.000399643               0.999999996               0.000003785              -0.000401896               0.999999996               0.000004071              -0.000407392               0.999999996               0.000003545              -0.000416198               0.999999996               0.000002650              -0.000427973               0.999999996               0.000001385              -0.000442364               0.999999996              -0.000000265              -0.000459262               0.999999996              -0.000001927              -0.000478341               0.999999996              -0.000003549              -0.000499243               0.999999996              -0.000005396              -0.000521594               0.999999996              -0.000007421              -0.000545253               0.999999996              -0.000009433              -0.000569989               0.999999996              -0.000011066              -0.000595550               0.999999996              -0.000012022              -0.000621649               0.999999996              -0.000012198              -0.000648066               0.999999996              -0.000011506              -0.000674590               0.999999996              -0.000000000              -0.000401144               0.999999996               0.000000000              -0.000402547               0.999999996              -0.000000000              -0.000405200               0.999999996              -0.000000000              -0.000410890               0.999999996               0.000000000              -0.000419795               0.999999996              -0.000000000              -0.000431491               0.999999996               0.000000000              -0.000445721               0.999999996               0.000000000              -0.000462463               0.999999996               0.000000000              -0.000481333               0.999999996               0.000000000              -0.000502062               0.999999996               0.000000000              -0.000524313               0.999999996              -0.000000000              -0.000547802               0.999999996               0.000000000              -0.000572419               0.999999996              -0.000000000              -0.000597954               0.999999996              -0.000000000              -0.000624156               0.999999996              -0.000000000              -0.000650715               0.999999996               0.000000000              -0.000677266               0.999999996               0.000026814               0.000000000               0.999999996               0.000043077               0.000000000               0.999999996               0.000051181              -0.000000000               0.999999996               0.000056122              -0.000000000               0.999999996               0.000059947              -0.000000000               0.999999996               0.000063595              -0.000000000               0.999999996               0.000067547              -0.000000000               0.999999996               0.000072011               0.000000000               0.999999996               0.000077045              -0.000000000               0.999999996               0.000082687              -0.000000000               0.999999996               0.000089035               0.000000000               0.999999996               0.000096083               0.000000000               0.999999996               0.000103789               0.000000000               0.999999996               0.000112151               0.000000000               0.999999996               0.000121144               0.000000000               0.999999996               0.000130699               0.000000000               0.999999996               0.000140724               0.000000000               0.999999996               0.000026662              -0.000040091               0.999999996               0.000042210              -0.000035549               0.999999996               0.000049872              -0.000034415               0.999999996               0.000054602              -0.000035138               0.999999996               0.000058423              -0.000037039               0.999999996               0.000062146              -0.000039636               0.999999996               0.000066179              -0.000042736               0.999999996               0.000070731              -0.000046261               0.999999996               0.000075860              -0.000049959               0.999999996               0.000081629              -0.000053887               0.999999996               0.000088080              -0.000058024               0.999999996               0.000095215              -0.000062303               0.999999996               0.000103021              -0.000066696               0.999999996               0.000111498              -0.000071122               0.999999996               0.000120558              -0.000075554               0.999999996               0.000130144              -0.000079841               0.999999996               0.000140206              -0.000083839               0.999999996               0.000026141              -0.000079678               0.999999996               0.000039622              -0.000070629               0.999999996               0.000046163              -0.000068573               0.999999996               0.000050413              -0.000070248               0.999999996               0.000054133              -0.000074171               0.999999996               0.000057988              -0.000079416               0.999999996               0.000062296              -0.000085642               0.999999996               0.000067193              -0.000092610               0.999999996               0.000072659              -0.000100011               0.999999996               0.000078770              -0.000107826               0.999999996               0.000085550              -0.000116064               0.999999996               0.000093013              -0.000124654               0.999999996               0.000101138              -0.000133473               0.999999996               0.000109871              -0.000142370               0.999999996               0.000119124              -0.000151280               0.999999996               0.000128858              -0.000160058               0.999999996               0.000139080              -0.000168515               0.999999996               0.000025228              -0.000118316               0.999999996               0.000035539              -0.000104897               0.999999996               0.000040568              -0.000102264               0.999999996               0.000044220              -0.000105157               0.999999996               0.000047943              -0.000111306               0.999999996               0.000052087              -0.000119356               0.999999996               0.000056783              -0.000128723               0.999999996               0.000062218              -0.000139219               0.999999996               0.000068369              -0.000150329               0.999999996               0.000075183              -0.000162062               0.999999996               0.000082682              -0.000174449               0.999999996               0.000090821              -0.000187358               0.999999996               0.000099543              -0.000200590               0.999999996               0.000108815              -0.000213974               0.999999996               0.000118562              -0.000227471               0.999999996               0.000128804              -0.000241101               0.999999996               0.000139618              -0.000254795               0.999999996               0.000024029              -0.000155588               0.999999996               0.000030236              -0.000138091               0.999999996               0.000033565              -0.000135327               0.999999996               0.000036834              -0.000139743               0.999999996               0.000040739              -0.000148304               0.999999996               0.000045397              -0.000159275               0.999999996               0.000050935              -0.000171944               0.999999996               0.000057284              -0.000185967               0.999999996               0.000064389              -0.000200923               0.999999996               0.000072224              -0.000216580               0.999999996               0.000080737              -0.000233057               0.999999996               0.000089837              -0.000250213               0.999999996               0.000099451              -0.000267907               0.999999996               0.000109582              -0.000285938               0.999999996               0.000120287              -0.000304346               0.999999996               0.000131631              -0.000323280               0.999999996               0.000143683              -0.000342964               0.999999996               0.000022573              -0.000191093               0.999999996               0.000024047              -0.000170012               0.999999996               0.000025919              -0.000167544               0.999999996               0.000029133              -0.000173784               0.999999996               0.000033591              -0.000184871               0.999999996               0.000039201              -0.000198844               0.999999996               0.000045780              -0.000214846               0.999999996               0.000053236              -0.000232434               0.999999996               0.000061515              -0.000251343               0.999999996               0.000070614              -0.000271090               0.999999996               0.000080441              -0.000291704               0.999999996               0.000090890              -0.000313183               0.999999996               0.000101918              -0.000335365               0.999999996               0.000113606              -0.000358213               0.999999996               0.000125986              -0.000381699               0.999999996               0.000139031              -0.000406043               0.999999996               0.000152660              -0.000431469               0.999999996               0.000020860              -0.000224451               0.999999996               0.000017432              -0.000200531               0.999999996               0.000018332              -0.000198751               0.999999996               0.000021947              -0.000206929               0.999999996               0.000027387              -0.000220574               0.999999996               0.000034132              -0.000237648               0.999999996               0.000041922              -0.000256993               0.999999996               0.000050725              -0.000278271               0.999999996               0.000060543              -0.000301180               0.999999996               0.000071313              -0.000325184               0.999999996               0.000082854              -0.000349983               0.999999996               0.000095076              -0.000375760               0.999999996               0.000107915              -0.000402398               0.999999996               0.000121402              -0.000429935               0.999999996               0.000135439              -0.000458315               0.999999996               0.000149886              -0.000487498               0.999999996               0.000164449              -0.000517404               0.999999996               0.000019028              -0.000255320               0.999999996               0.000010897              -0.000229512               0.999999996               0.000011316              -0.000228748               0.999999996               0.000015787              -0.000238891               0.999999996               0.000022403              -0.000255093               0.999999996               0.000030439              -0.000275266               0.999999996               0.000039680              -0.000298168               0.999999996               0.000050205              -0.000323323               0.999999996               0.000061851              -0.000350344               0.999999996               0.000074393              -0.000378532               0.999999996               0.000087627              -0.000407477               0.999999996               0.000101483              -0.000437447               0.999999996               0.000115901              -0.000468493               0.999999996               0.000130713              -0.000500532               0.999999996               0.000145759              -0.000533429               0.999999996               0.000160872              -0.000566939               0.999999996               0.000175769              -0.000600428               0.999999996               0.000017318              -0.000283240               0.999999996               0.000004624              -0.000257014               0.999999996               0.000005392              -0.000257217               0.999999996               0.000010948              -0.000269294               0.999999996               0.000018809              -0.000288103               0.999999996               0.000028349              -0.000311468               0.999999996               0.000039286              -0.000338133               0.999999996               0.000051627              -0.000367323               0.999999996               0.000064979              -0.000398356               0.999999996               0.000079024              -0.000430592               0.999999996               0.000093590              -0.000463719               0.999999996               0.000108653              -0.000497910               0.999999996               0.000124059              -0.000533099               0.999999996               0.000139728              -0.000569305               0.999999996               0.000155629              -0.000606145               0.999999996               0.000171560              -0.000643198               0.999999996               0.000187338              -0.000680010               0.999999996               0.000016099              -0.000309195               0.999999996               0.000000287              -0.000285436               0.999999996              -0.000000529              -0.000283067               0.999999996               0.000003961              -0.000292124               0.999999996               0.000010888              -0.000307849               0.999999996               0.000019446              -0.000328262               0.999999996               0.000029271              -0.000352206               0.999999996               0.000040188              -0.000378800               0.999999996               0.000052057              -0.000407374               0.999999996               0.000064520              -0.000437280               0.999999996               0.000077379              -0.000468121               0.999999996               0.000090417              -0.000499660               0.999999996               0.000103598              -0.000531965               0.999999996               0.000116926              -0.000565110               0.999999996               0.000130596              -0.000599054               0.999999996               0.000144656              -0.000633622               0.999999996               0.000159107              -0.000668348               0.999999996               0.000014556              -0.000332545               0.999999996              -0.000002671              -0.000312385               0.999999996              -0.000005141              -0.000309008               0.999999996              -0.000001923              -0.000315617               0.999999996               0.000003875              -0.000328714               0.999999996               0.000011290              -0.000346455               0.999999996               0.000019937              -0.000367734               0.999999996               0.000029459              -0.000391778               0.999999996               0.000039777              -0.000417935               0.999999996               0.000050602              -0.000445634               0.999999996               0.000061731              -0.000474302               0.999999996               0.000072920              -0.000503659               0.999999996               0.000084003              -0.000533521               0.999999996               0.000094936              -0.000564008               0.999999996               0.000105919              -0.000595132               0.999999996               0.000117258              -0.000626996               0.999999996               0.000128916              -0.000659443               0.999999996               0.000012766              -0.000352859               0.999999996              -0.000004432              -0.000337291               0.999999996              -0.000008126              -0.000333988               0.999999996              -0.000006276              -0.000339081               0.999999996              -0.000001780              -0.000350139               0.999999996               0.000004384              -0.000365603               0.999999996               0.000011761              -0.000384514               0.999999996               0.000019824              -0.000406211               0.999999996               0.000028420              -0.000430177               0.999999996               0.000037501              -0.000455731               0.999999996               0.000047022              -0.000482387               0.999999996               0.000056513              -0.000509843               0.999999996               0.000065612              -0.000537849               0.999999996               0.000074249              -0.000566290               0.999999996               0.000082602              -0.000595131               0.999999996               0.000090715              -0.000624588               0.999999996               0.000098816              -0.000654705               0.999999996               0.000010726              -0.000369834               0.999999996              -0.000005056              -0.000359234               0.999999996              -0.000009382              -0.000356960               0.999999996              -0.000008689              -0.000361419               0.999999996              -0.000005434              -0.000371100               0.999999996              -0.000000663              -0.000384822               0.999999996               0.000005228              -0.000401937               0.999999996               0.000011671              -0.000421720               0.999999996               0.000018472              -0.000443699               0.999999996               0.000025799              -0.000467407               0.999999996               0.000033440              -0.000492472               0.999999996               0.000041146              -0.000518424               0.999999996               0.000048497              -0.000544967               0.999999996               0.000055206              -0.000571924               0.999999996               0.000061102              -0.000599278               0.999999996               0.000066168              -0.000627014               0.999999996               0.000070538              -0.000655240               0.999999996               0.000008376              -0.000383368               0.999999996              -0.000004705              -0.000377435               0.999999996              -0.000008931              -0.000376758               0.999999996              -0.000008988              -0.000381328               0.999999996              -0.000006841              -0.000390257               0.999999996              -0.000003472              -0.000402876               0.999999996               0.000000702              -0.000418661               0.999999996               0.000005526              -0.000437092               0.999999996               0.000010662              -0.000457593               0.999999996               0.000015961              -0.000479894               0.999999996               0.000021520              -0.000503765               0.999999996               0.000027383              -0.000528651               0.999999996               0.000033064              -0.000554254               0.999999996               0.000037995              -0.000580364               0.999999996               0.000041797              -0.000606853               0.999999996               0.000044409              -0.000633651               0.999999996               0.000045762              -0.000660756               0.999999996               0.000005764              -0.000393180               0.999999996              -0.000003564              -0.000391125               0.999999996              -0.000006926              -0.000392088               0.999999996              -0.000007281              -0.000397127               0.999999996              -0.000006093              -0.000405863               0.999999996              -0.000004068              -0.000417896               0.999999996              -0.000001474              -0.000432820               0.999999996               0.000001774              -0.000450272               0.999999996               0.000005195              -0.000469882               0.999999996               0.000008557              -0.000491350               0.999999996               0.000012199              -0.000514261               0.999999996               0.000016208              -0.000538392               0.999999996               0.000020113              -0.000563453               0.999999996               0.000023283              -0.000589132               0.999999996               0.000025478              -0.000615217               0.999999996               0.000026459              -0.000641621               0.999999996               0.000026076              -0.000668241               0.999999996               0.000002952              -0.000399108               0.999999996              -0.000001913              -0.000399643               0.999999996              -0.000003785              -0.000401896               0.999999996              -0.000004071              -0.000407392               0.999999996              -0.000003545              -0.000416198               0.999999996              -0.000002650              -0.000427973               0.999999996              -0.000001385              -0.000442364               0.999999996               0.000000265              -0.000459262               0.999999996               0.000001927              -0.000478341               0.999999996               0.000003549              -0.000499243               0.999999996               0.000005396              -0.000521594               0.999999996               0.000007421              -0.000545253               0.999999996               0.000009433              -0.000569989               0.999999996               0.000011066              -0.000595550               0.999999996               0.000012022              -0.000621649               0.999999996               0.000012198              -0.000648066               0.999999996               0.000011506              -0.000674590               0.999999996              -0.000000000              -0.000401144               0.999999996               0.000000000              -0.000402547               0.999999996              -0.000000000              -0.000405200               0.999999996              -0.000000000              -0.000410890               0.999999996               0.000000000              -0.000419795               0.999999996              -0.000000000              -0.000431491               0.999999996               0.000000000              -0.000445721               0.999999996               0.000000000              -0.000462463               0.999999996               0.000000000              -0.000481333               0.999999996               0.000000000              -0.000502062               0.999999996               0.000000000              -0.000524313               0.999999996              -0.000000000              -0.000547802               0.999999996               0.000000000              -0.000572419               0.999999996              -0.000000000              -0.000597954               0.999999996              -0.000000000              -0.000624156               0.999999996              -0.000000000              -0.000650715               0.999999996               0.000000000              -0.000677266               0.999999996               0.000026814               0.000000000               0.999999996               0.000043077               0.000000000               0.999999996               0.000051181              -0.000000000               0.999999996               0.000056122              -0.000000000               0.999999996               0.000059947              -0.000000000               0.999999996               0.000063595              -0.000000000               0.999999996               0.000067547              -0.000000000               0.999999996               0.000072011               0.000000000               0.999999996               0.000077045              -0.000000000               0.999999996               0.000082687              -0.000000000               0.999999996               0.000089035               0.000000000               0.999999996               0.000096083               0.000000000               0.999999996               0.000103789               0.000000000               0.999999996               0.000112151               0.000000000               0.999999996               0.000121144               0.000000000               0.999999996               0.000130699               0.000000000               0.999999996               0.000140724               0.000000000               0.999999996               0.000026662               0.000040091               0.999999996               0.000042210               0.000035549               0.999999996               0.000049872               0.000034415               0.999999996               0.000054602               0.000035138               0.999999996               0.000058423               0.000037039               0.999999996               0.000062146               0.000039636               0.999999996               0.000066179               0.000042736               0.999999996               0.000070731               0.000046261               0.999999996               0.000075860               0.000049959               0.999999996               0.000081629               0.000053887               0.999999996               0.000088080               0.000058024               0.999999996               0.000095215               0.000062303               0.999999996               0.000103021               0.000066696               0.999999996               0.000111498               0.000071122               0.999999996               0.000120558               0.000075554               0.999999996               0.000130144               0.000079841               0.999999996               0.000140206               0.000083839               0.999999996               0.000026141               0.000079678               0.999999996               0.000039622               0.000070629               0.999999996               0.000046163               0.000068573               0.999999996               0.000050413               0.000070248               0.999999996               0.000054133               0.000074171               0.999999996               0.000057988               0.000079416               0.999999996               0.000062296               0.000085642               0.999999996               0.000067193               0.000092610               0.999999996               0.000072659               0.000100011               0.999999996               0.000078770               0.000107826               0.999999996               0.000085550               0.000116064               0.999999996               0.000093013               0.000124654               0.999999996               0.000101138               0.000133473               0.999999996               0.000109871               0.000142370               0.999999996               0.000119124               0.000151280               0.999999996               0.000128858               0.000160058               0.999999996               0.000139080               0.000168515               0.999999996               0.000025228               0.000118316               0.999999996               0.000035539               0.000104897               0.999999996               0.000040568               0.000102264               0.999999996               0.000044220               0.000105157               0.999999996               0.000047943               0.000111306               0.999999996               0.000052087               0.000119356               0.999999996               0.000056783               0.000128723               0.999999996               0.000062218               0.000139219               0.999999996               0.000068369               0.000150329               0.999999996               0.000075183               0.000162062               0.999999996               0.000082682               0.000174449               0.999999996               0.000090821               0.000187358               0.999999996               0.000099543               0.000200590               0.999999996               0.000108815               0.000213974               0.999999996               0.000118562               0.000227471               0.999999996               0.000128804               0.000241101               0.999999996               0.000139618               0.000254795               0.999999996               0.000024029               0.000155588               0.999999996               0.000030236               0.000138091               0.999999996               0.000033565               0.000135327               0.999999996               0.000036834               0.000139743               0.999999996               0.000040739               0.000148304               0.999999996               0.000045397               0.000159275               0.999999996               0.000050935               0.000171944               0.999999996               0.000057284               0.000185967               0.999999996               0.000064389               0.000200923               0.999999996               0.000072224               0.000216580               0.999999996               0.000080737               0.000233057               0.999999996               0.000089837               0.000250213               0.999999996               0.000099451               0.000267907               0.999999996               0.000109582               0.000285938               0.999999996               0.000120287               0.000304346               0.999999996               0.000131631               0.000323280               0.999999996               0.000143683               0.000342964               0.999999996               0.000022573               0.000191093               0.999999996               0.000024047               0.000170012               0.999999996               0.000025919               0.000167544               0.999999996               0.000029133               0.000173784               0.999999996               0.000033591               0.000184871               0.999999996               0.000039201               0.000198844               0.999999996               0.000045780               0.000214846               0.999999996               0.000053236               0.000232434               0.999999996               0.000061515               0.000251343               0.999999996               0.000070614               0.000271090               0.999999996               0.000080441               0.000291704               0.999999996               0.000090890               0.000313183               0.999999996               0.000101918               0.000335365               0.999999996               0.000113606               0.000358213               0.999999996               0.000125986               0.000381699               0.999999996               0.000139031               0.000406043               0.999999996               0.000152660               0.000431469               0.999999996               0.000020860               0.000224451               0.999999996               0.000017432               0.000200531               0.999999996               0.000018332               0.000198751               0.999999996               0.000021947               0.000206929               0.999999996               0.000027387               0.000220574               0.999999996               0.000034132               0.000237648               0.999999996               0.000041922               0.000256993               0.999999996               0.000050725               0.000278271               0.999999996               0.000060543               0.000301180               0.999999996               0.000071313               0.000325184               0.999999996               0.000082854               0.000349983               0.999999996               0.000095076               0.000375760               0.999999996               0.000107915               0.000402398               0.999999996               0.000121402               0.000429935               0.999999996               0.000135439               0.000458315               0.999999996               0.000149886               0.000487498               0.999999996               0.000164449               0.000517404               0.999999996               0.000019028               0.000255320               0.999999996               0.000010897               0.000229512               0.999999996               0.000011316               0.000228748               0.999999996               0.000015787               0.000238891               0.999999996               0.000022403               0.000255093               0.999999996               0.000030439               0.000275266               0.999999996               0.000039680               0.000298168               0.999999996               0.000050205               0.000323323               0.999999996               0.000061851               0.000350344               0.999999996               0.000074393               0.000378532               0.999999996               0.000087627               0.000407477               0.999999996               0.000101483               0.000437447               0.999999996               0.000115901               0.000468493               0.999999996               0.000130713               0.000500532               0.999999996               0.000145759               0.000533429               0.999999996               0.000160872               0.000566939               0.999999996               0.000175769               0.000600428               0.999999996               0.000017318               0.000283240               0.999999996               0.000004624               0.000257014               0.999999996               0.000005392               0.000257217               0.999999996               0.000010948               0.000269294               0.999999996               0.000018809               0.000288103               0.999999996               0.000028349               0.000311468               0.999999996               0.000039286               0.000338133               0.999999996               0.000051627               0.000367323               0.999999996               0.000064979               0.000398356               0.999999996               0.000079024               0.000430592               0.999999996               0.000093590               0.000463719               0.999999996               0.000108653               0.000497910               0.999999996               0.000124059               0.000533099               0.999999996               0.000139728               0.000569305               0.999999996               0.000155629               0.000606145               0.999999996               0.000171560               0.000643198               0.999999996               0.000187338               0.000680010               0.999999996               0.000016099               0.000309195               0.999999996               0.000000287               0.000285436               0.999999996              -0.000000529               0.000283067               0.999999996               0.000003961               0.000292124               0.999999996               0.000010888               0.000307849               0.999999996               0.000019446               0.000328262               0.999999996               0.000029271               0.000352206               0.999999996               0.000040188               0.000378800               0.999999996               0.000052057               0.000407374               0.999999996               0.000064520               0.000437280               0.999999996               0.000077379               0.000468121               0.999999996               0.000090417               0.000499660               0.999999996               0.000103598               0.000531965               0.999999996               0.000116926               0.000565110               0.999999996               0.000130596               0.000599054               0.999999996               0.000144656               0.000633622               0.999999996               0.000159107               0.000668348               0.999999996               0.000014556               0.000332545               0.999999996              -0.000002671               0.000312385               0.999999996              -0.000005141               0.000309008               0.999999996              -0.000001923               0.000315617               0.999999996               0.000003875               0.000328714               0.999999996               0.000011290               0.000346455               0.999999996               0.000019937               0.000367734               0.999999996               0.000029459               0.000391778               0.999999996               0.000039777               0.000417935               0.999999996               0.000050602               0.000445634               0.999999996               0.000061731               0.000474302               0.999999996               0.000072920               0.000503659               0.999999996               0.000084003               0.000533521               0.999999996               0.000094936               0.000564008               0.999999996               0.000105919               0.000595132               0.999999996               0.000117258               0.000626996               0.999999996               0.000128916               0.000659443               0.999999996               0.000012766               0.000352859               0.999999996              -0.000004432               0.000337291               0.999999996              -0.000008126               0.000333988               0.999999996              -0.000006276               0.000339081               0.999999996              -0.000001780               0.000350139               0.999999996               0.000004384               0.000365603               0.999999996               0.000011761               0.000384514               0.999999996               0.000019824               0.000406211               0.999999996               0.000028420               0.000430177               0.999999996               0.000037501               0.000455731               0.999999996               0.000047022               0.000482387               0.999999996               0.000056513               0.000509843               0.999999996               0.000065612               0.000537849               0.999999996               0.000074249               0.000566290               0.999999996               0.000082602               0.000595131               0.999999996               0.000090715               0.000624588               0.999999996               0.000098816               0.000654705               0.999999996               0.000010726               0.000369834               0.999999996              -0.000005056               0.000359234               0.999999996              -0.000009382               0.000356960               0.999999996              -0.000008689               0.000361419               0.999999996              -0.000005434               0.000371100               0.999999996              -0.000000663               0.000384822               0.999999996               0.000005228               0.000401937               0.999999996               0.000011671               0.000421720               0.999999996               0.000018472               0.000443699               0.999999996               0.000025799               0.000467407               0.999999996               0.000033440               0.000492472               0.999999996               0.000041146               0.000518424               0.999999996               0.000048497               0.000544967               0.999999996               0.000055206               0.000571924               0.999999996               0.000061102               0.000599278               0.999999996               0.000066168               0.000627014               0.999999996               0.000070538               0.000655240               0.999999996               0.000008376               0.000383368               0.999999996              -0.000004705               0.000377435               0.999999996              -0.000008931               0.000376758               0.999999996              -0.000008988               0.000381328               0.999999996              -0.000006841               0.000390257               0.999999996              -0.000003472               0.000402876               0.999999996               0.000000702               0.000418661               0.999999996               0.000005526               0.000437092               0.999999996               0.000010662               0.000457593               0.999999996               0.000015961               0.000479894               0.999999996               0.000021520               0.000503765               0.999999996               0.000027383               0.000528651               0.999999996               0.000033064               0.000554254               0.999999996               0.000037995               0.000580364               0.999999996               0.000041797               0.000606853               0.999999996               0.000044409               0.000633651               0.999999996               0.000045762               0.000660756               0.999999996               0.000005764               0.000393180               0.999999996              -0.000003564               0.000391125               0.999999996              -0.000006926               0.000392088               0.999999996              -0.000007281               0.000397127               0.999999996              -0.000006093               0.000405863               0.999999996              -0.000004068               0.000417896               0.999999996              -0.000001474               0.000432820               0.999999996               0.000001774               0.000450272               0.999999996               0.000005195               0.000469882               0.999999996               0.000008557               0.000491350               0.999999996               0.000012199               0.000514261               0.999999996               0.000016208               0.000538392               0.999999996               0.000020113               0.000563453               0.999999996               0.000023283               0.000589132               0.999999996               0.000025478               0.000615217               0.999999996               0.000026459               0.000641621               0.999999996               0.000026076               0.000668241               0.999999996               0.000002952               0.000399108               0.999999996              -0.000001913               0.000399643               0.999999996              -0.000003785               0.000401896               0.999999996              -0.000004071               0.000407392               0.999999996              -0.000003545               0.000416198               0.999999996              -0.000002650               0.000427973               0.999999996              -0.000001385               0.000442364               0.999999996               0.000000265               0.000459262               0.999999996               0.000001927               0.000478341               0.999999996               0.000003549               0.000499243               0.999999996               0.000005396               0.000521594               0.999999996               0.000007421               0.000545253               0.999999996               0.000009433               0.000569989               0.999999996               0.000011066               0.000595550               0.999999996               0.000012022               0.000621649               0.999999996               0.000012198               0.000648066               0.999999996               0.000011506               0.000674590               0.999999996              -0.000000000               0.000401144               0.999999996               0.000000000               0.000402547               0.999999996              -0.000000000               0.000405200               0.999999996               0.000000000               0.000410890               0.999999996              -0.000000000               0.000419795               0.999999996              -0.000000000               0.000431491               0.999999996              -0.000000000               0.000445721               0.999999996              -0.000000000               0.000462463               0.999999996              -0.000000000               0.000481333               0.999999996               0.000000000               0.000502062               0.999999996              -0.000000000               0.000524313               0.999999996               0.000000000               0.000547802               0.999999996               0.000000000               0.000572419               0.999999996              -0.000000000               0.000597954               0.999999996              -0.000000000               0.000624156               0.999999996               0.000000000               0.000650715               0.999999996               0.000000000               0.000677266               0.999999996 </DataArray>
<DataArray type="Float64"                                    Name="stress"                                                      NumberOfComponents="10" format="ascii">
              0.000639852               0.007504042              -0.000000000              -0.000698059               0.002734009               0.002035950               0.000000000               0.000000000               0.000000000               0.000000000               0.000696215               0.006189840              -0.000000000              -0.000512648               0.002234142               0.001721494               0.000000000               0.000000000               0.000000000               0.000000000               0.000968930               0.005134474               0.000000000              -0.000278460               0.001804294               0.001525835               0.000000000               0.000000000               0.000000000               0.000000000               0.001009084               0.004556454               0.000000000              -0.000191150               0.001582519               0.001391370               0.000000000               0.000000000               0.000000000               0.000000000               0.000964911               0.004220472               0.000000000              -0.000165717               0.001462049               0.001296332               0.000000000               0.000000000               0.000000000               0.000000000               0.000886332               0.004011880               0.000000000              -0.000169110               0.001393650               0.001224540               0.000000000               0.000000000               0.000000000               0.000000000               0.000794771               0.003878586               0.000000000              -0.000186784               0.001355110               0.001168326               0.000000000               0.000000000               0.000000000               0.000000000               0.000704293               0.003794310               0.000000000              -0.000210178               0.001334817               0.001124639               0.000000000               0.000000000               0.000000000               0.000000000               0.000616179               0.003735447              -0.000000000              -0.000235863               0.001323758               0.001087895               0.000000000               0.000000000               0.000000000               0.000000000               0.000526607               0.003694707               0.000000000              -0.000264360               0.001319677               0.001055317               0.000000000               0.000000000               0.000000000               0.000000000               0.000437299               0.003667780               0.000000000              -0.000294485               0.001320743               0.001026258               0.000000000               0.000000000               0.000000000               0.000000000               0.000353260               0.003650613               0.000000000              -0.000323853               0.001324810               0.001000956               0.000000000               0.000000000               0.000000000               0.000000000               0.000272833               0.003638918              -0.000000000              -0.000352551               0.001330478               0.000977926               0.000000000               0.000000000               0.000000000               0.000000000               0.000195682               0.003628636              -0.000000000              -0.000380198               0.001336266               0.000956068               0.000000000               0.000000000               0.000000000               0.000000000               0.000124783               0.003618054              -0.000000000              -0.000405462               0.001341160               0.000935698               0.000000000               0.000000000               0.000000000               0.000000000               0.000060212               0.003601761              -0.000000000              -0.000427640               0.001343122               0.000915482               0.000000000               0.000000000               0.000000000               0.000000000               0.000029107               0.003589030              -0.000000000              -0.000437713               0.001342236               0.000904523               0.000000000               0.000000000               0.000000000               0.000000000               0.000680169               0.007370205              -0.000558073              -0.000666211               0.002678781               0.002012570               0.000000000               0.000000000               0.000000000               0.000000000               0.000707514               0.006095804              -0.000348959              -0.000496657               0.002197467               0.001700810               0.000000000               0.000000000               0.000000000               0.000000000               0.000948375               0.005085237              -0.000134663              -0.000280013               0.001788400               0.001508387               0.000000000               0.000000000               0.000000000               0.000000000               0.000972246               0.004531996              -0.000036088              -0.000201907               0.001577952               0.001376046               0.000000000               0.000000000               0.000000000               0.000000000               0.000921206               0.004207519               0.000008989              -0.000180487               0.001462655               0.001282168               0.000000000               0.000000000               0.000000000               0.000000000               0.000843480               0.004004574               0.000029005              -0.000184266               0.001396267               0.001212000               0.000000000               0.000000000               0.000000000               0.000000000               0.000755607               0.003873853               0.000039252              -0.000200879               0.001358231               0.001157353               0.000000000               0.000000000               0.000000000               0.000000000               0.000668752               0.003788772               0.000041865              -0.000222814               0.001337183               0.001114369               0.000000000               0.000000000               0.000000000               0.000000000               0.000583661               0.003729993               0.000041263              -0.000247376               0.001325777               0.001078402               0.000000000               0.000000000               0.000000000               0.000000000               0.000497404               0.003688966               0.000041736              -0.000274594               0.001321174               0.001046581               0.000000000               0.000000000               0.000000000               0.000000000               0.000412408               0.003662348               0.000041641              -0.000303140               0.001321817               0.001018677               0.000000000               0.000000000               0.000000000               0.000000000               0.000331473               0.003646431               0.000040298              -0.000331501               0.001325965               0.000994464               0.000000000               0.000000000               0.000000000               0.000000000               0.000253526               0.003636020               0.000037129              -0.000359429               0.001331804               0.000972375               0.000000000               0.000000000               0.000000000               0.000000000               0.000180866               0.003627808               0.000032816              -0.000385651               0.001337808               0.000952157               0.000000000               0.000000000               0.000000000               0.000000000               0.000115570               0.003620253               0.000026620              -0.000409192               0.001343136               0.000933944               0.000000000               0.000000000               0.000000000               0.000000000               0.000054916               0.003609653               0.000016081              -0.000430612               0.001346743               0.000916131               0.000000000               0.000000000               0.000000000               0.000000000               0.000026012               0.003602901               0.000009418              -0.000440607               0.001347824               0.000907217               0.000000000               0.000000000               0.000000000               0.000000000               0.000786711               0.006989464              -0.001052265              -0.000578665               0.002522686               0.001944021               0.000000000               0.000000000               0.000000000               0.000000000               0.000733242               0.005831055              -0.000661903              -0.000453915               0.002094970               0.001641055               0.000000000               0.000000000               0.000000000               0.000000000               0.000886639               0.004945487              -0.000264024              -0.000285696               0.001743711               0.001458015               0.000000000               0.000000000               0.000000000               0.000000000               0.000873056               0.004457987              -0.000083928              -0.000229852               0.001562598               0.001332746               0.000000000               0.000000000               0.000000000               0.000000000               0.000809715               0.004167393              -0.000001305              -0.000217281               0.001461544               0.001244263               0.000000000               0.000000000               0.000000000               0.000000000               0.000733061               0.003982101               0.000036805              -0.000222864               0.001401642               0.001178778               0.000000000               0.000000000               0.000000000               0.000000000               0.000650485               0.003858476               0.000056982              -0.000238377               0.001365605               0.001127228               0.000000000               0.000000000               0.000000000               0.000000000               0.000572540               0.003776910               0.000063080              -0.000257411               0.001344761               0.001087350               0.000000000               0.000000000               0.000000000               0.000000000               0.000498849               0.003721187               0.000062119              -0.000278080               0.001333076               0.001054997               0.000000000               0.000000000               0.000000000               0.000000000               0.000424181               0.003682684               0.000062550              -0.000301267               0.001327972               0.001026705               0.000000000               0.000000000               0.000000000               0.000000000               0.000350646               0.003658872               0.000062780              -0.000325866               0.001328234               0.001002368               0.000000000               0.000000000               0.000000000               0.000000000               0.000279880               0.003645610               0.000060512              -0.000350745               0.001332106               0.000981361               0.000000000               0.000000000               0.000000000               0.000000000               0.000212822               0.003637812               0.000054855              -0.000374917               0.001337564               0.000962647               0.000000000               0.000000000               0.000000000               0.000000000               0.000152496               0.003633665               0.000047286              -0.000397021               0.001343550               0.000946529               0.000000000               0.000000000               0.000000000               0.000000000               0.000098693               0.003633125               0.000037719              -0.000417130               0.001350073               0.000932943               0.000000000               0.000000000               0.000000000               0.000000000               0.000047140               0.003637420               0.000022559              -0.000436999               0.001358128               0.000921129               0.000000000               0.000000000               0.000000000               0.000000000               0.000024645               0.003646735               0.000011829              -0.000446599               0.001364432               0.000917834               0.000000000               0.000000000               0.000000000               0.000000000               0.000927109               0.006412138              -0.001439487              -0.000453851               0.002288642               0.001834790               0.000000000               0.000000000               0.000000000               0.000000000               0.000759566               0.005435964              -0.000913808              -0.000394658               0.001943523               0.001548865               0.000000000               0.000000000               0.000000000               0.000000000               0.000791233               0.004738571              -0.000381112              -0.000295608               0.001678044               0.001382436               0.000000000               0.000000000               0.000000000               0.000000000               0.000733380               0.004343468              -0.000146410              -0.000267915               0.001537113               0.001269198               0.000000000               0.000000000               0.000000000               0.000000000               0.000659045               0.004100932              -0.000038310              -0.000265474               0.001455455               0.001189981               0.000000000               0.000000000               0.000000000               0.000000000               0.000589634               0.003943470               0.000011694              -0.000271820               0.001405084               0.001133263               0.000000000               0.000000000               0.000000000               0.000000000               0.000519746               0.003836519               0.000038099              -0.000284659               0.001373713               0.001089054               0.000000000               0.000000000               0.000000000               0.000000000               0.000451560               0.003763374               0.000047969              -0.000301086               0.001354808               0.001053721               0.000000000               0.000000000               0.000000000               0.000000000               0.000390603               0.003714739               0.000047667              -0.000317866               0.001344189               0.001026324               0.000000000               0.000000000               0.000000000               0.000000000               0.000331400               0.003681023               0.000049296              -0.000335852               0.001338946               0.001003094               0.000000000               0.000000000               0.000000000               0.000000000               0.000274020               0.003659951               0.000051323              -0.000354736               0.001338217               0.000983481               0.000000000               0.000000000               0.000000000               0.000000000               0.000220914               0.003648904               0.000049836              -0.000373269               0.001340712               0.000967443               0.000000000               0.000000000               0.000000000               0.000000000               0.000170942               0.003645290               0.000043718              -0.000391557               0.001345603               0.000954046               0.000000000               0.000000000               0.000000000               0.000000000               0.000125304               0.003648337               0.000035129              -0.000409052               0.001352451               0.000943399               0.000000000               0.000000000               0.000000000               0.000000000               0.000083482               0.003659890               0.000026220              -0.000426179               0.001362011               0.000935832               0.000000000               0.000000000               0.000000000               0.000000000               0.000041027               0.003683703               0.000014859              -0.000445077               0.001376247               0.000931171               0.000000000               0.000000000               0.000000000               0.000000000               0.000026416               0.003712607               0.000004410              -0.000454169               0.001388913               0.000934744               0.000000000               0.000000000               0.000000000               0.000000000               0.001069708               0.005702270              -0.001693348              -0.000311644               0.002004619               0.001692975               0.000000000               0.000000000               0.000000000               0.000000000               0.000778014               0.004957427              -0.001090702              -0.000327923               0.001761766               0.001433844               0.000000000               0.000000000               0.000000000               0.000000000               0.000675059               0.004488413              -0.000484498              -0.000307904               0.001598757               0.001290853               0.000000000               0.000000000               0.000000000               0.000000000               0.000580838               0.004201979              -0.000224642              -0.000307432               0.001503123               0.001195691               0.000000000               0.000000000               0.000000000               0.000000000               0.000505581               0.004013398              -0.000103284              -0.000312081               0.001441813               0.001129732               0.000000000               0.000000000               0.000000000               0.000000000               0.000443472               0.003884993              -0.000046152              -0.000319321               0.001401425               0.001082104               0.000000000               0.000000000               0.000000000               0.000000000               0.000387528               0.003797313              -0.000015201              -0.000329340               0.001375538               0.001046198               0.000000000               0.000000000               0.000000000               0.000000000               0.000336311               0.003736681               0.000001045              -0.000340968               0.001359204               0.001018236               0.000000000               0.000000000               0.000000000               0.000000000               0.000289699               0.003699968               0.000004749              -0.000353858               0.001351263               0.000997405               0.000000000               0.000000000               0.000000000               0.000000000               0.000245334               0.003674672               0.000007529              -0.000367333               0.001347323               0.000979990               0.000000000               0.000000000               0.000000000               0.000000000               0.000205557               0.003658087               0.000012383              -0.000380176               0.001346075               0.000965899               0.000000000               0.000000000               0.000000000               0.000000000               0.000172172               0.003651631               0.000013859              -0.000391888               0.001347828               0.000955939               0.000000000               0.000000000               0.000000000               0.000000000               0.000140918               0.003654469               0.000009769              -0.000403963               0.001352799               0.000948835               0.000000000               0.000000000               0.000000000               0.000000000               0.000108525               0.003667000               0.000001962              -0.000417677               0.001361547               0.000943870               0.000000000               0.000000000               0.000000000               0.000000000               0.000074449               0.003689249              -0.000003995              -0.000433237               0.001374150               0.000940913               0.000000000               0.000000000               0.000000000               0.000000000               0.000038105               0.003723484              -0.000004951              -0.000451145               0.001391531               0.000940385               0.000000000               0.000000000               0.000000000               0.000000000               0.000027973               0.003758489              -0.000008840              -0.000459320               0.001405924               0.000946604               0.000000000               0.000000000               0.000000000               0.000000000               0.001178622               0.004925478              -0.001808207              -0.000173703               0.001699710               0.001526007               0.000000000               0.000000000               0.000000000               0.000000000               0.000778845               0.004441793              -0.001195641              -0.000263158               0.001568302               0.001305144               0.000000000               0.000000000               0.000000000               0.000000000               0.000557589               0.004217691              -0.000579090              -0.000318115               0.001511921               0.001193806               0.000000000               0.000000000               0.000000000               0.000000000               0.000442402               0.004038516              -0.000317005              -0.000338913               0.001459130               0.001120216               0.000000000               0.000000000               0.000000000               0.000000000               0.000373929               0.003902882              -0.000191125              -0.000347636               0.001416826               0.001069190               0.000000000               0.000000000               0.000000000               0.000000000               0.000325975               0.003806653              -0.000126788              -0.000353590               0.001386735               0.001033145               0.000000000               0.000000000               0.000000000               0.000000000               0.000285290               0.003738234              -0.000087090              -0.000360295               0.001366164               0.001005869               0.000000000               0.000000000               0.000000000               0.000000000               0.000248818               0.003694177              -0.000061449              -0.000368464               0.001354201               0.000985737               0.000000000               0.000000000               0.000000000               0.000000000               0.000215578               0.003670966              -0.000052134              -0.000378028               0.001349653               0.000971624               0.000000000               0.000000000               0.000000000               0.000000000               0.000186037               0.003658611              -0.000050837              -0.000387562               0.001348712               0.000961150               0.000000000               0.000000000               0.000000000               0.000000000               0.000161725               0.003649603              -0.000045951              -0.000395553               0.001348373               0.000952820               0.000000000               0.000000000               0.000000000               0.000000000               0.000142246               0.003647439              -0.000042046              -0.000402587               0.001349996               0.000947410               0.000000000               0.000000000               0.000000000               0.000000000               0.000119797               0.003651526              -0.000041547              -0.000411516               0.001354335               0.000942819               0.000000000               0.000000000               0.000000000               0.000000000               0.000092174               0.003664008              -0.000042894              -0.000423435               0.001362469               0.000939034               0.000000000               0.000000000               0.000000000               0.000000000               0.000062204               0.003683154              -0.000039934              -0.000437067               0.001373395               0.000936328               0.000000000               0.000000000               0.000000000               0.000000000               0.000031612               0.003704026              -0.000025815              -0.000451148               0.001385046               0.000933898               0.000000000               0.000000000               0.000000000               0.000000000               0.000019668               0.003718943              -0.000017498              -0.000457491               0.001392132               0.000934641               0.000000000               0.000000000               0.000000000               0.000000000               0.001232478               0.004143290              -0.001802159              -0.000055734               0.001399660               0.001343926               0.000000000               0.000000000               0.000000000               0.000000000               0.000762730               0.003929734              -0.001240473              -0.000205194               0.001378296               0.001173102               0.000000000               0.000000000               0.000000000               0.000000000               0.000453077               0.003944159              -0.000665923              -0.000323115               0.001422411               0.001099296               0.000000000               0.000000000               0.000000000               0.000000000               0.000332845               0.003860730              -0.000415331              -0.000357773               0.001406155               0.001048381               0.000000000               0.000000000               0.000000000               0.000000000               0.000278763               0.003775800              -0.000283930              -0.000367438               0.001381067               0.001013629               0.000000000               0.000000000               0.000000000               0.000000000               0.000248002               0.003713625              -0.000209552              -0.000371202               0.001361596               0.000990395               0.000000000               0.000000000               0.000000000               0.000000000               0.000222100               0.003672243              -0.000163166              -0.000375742               0.001349316               0.000973574               0.000000000               0.000000000               0.000000000               0.000000000               0.000197566               0.003650274              -0.000132207              -0.000382196               0.001344144               0.000961948               0.000000000               0.000000000               0.000000000               0.000000000               0.000174199               0.003639761              -0.000117944              -0.000389645               0.001343123               0.000953479               0.000000000               0.000000000               0.000000000               0.000000000               0.000153892               0.003633191              -0.000115339              -0.000396439               0.001343198               0.000946759               0.000000000               0.000000000               0.000000000               0.000000000               0.000135239               0.003624929              -0.000108197              -0.000402401               0.001342431               0.000940031               0.000000000               0.000000000               0.000000000               0.000000000               0.000116609               0.003619518              -0.000096205              -0.000408710               0.001342731               0.000934020               0.000000000               0.000000000               0.000000000               0.000000000               0.000094426               0.003619489              -0.000083999              -0.000417025               0.001345493               0.000928467               0.000000000               0.000000000               0.000000000               0.000000000               0.000067105               0.003623080              -0.000069392              -0.000427720               0.001350254               0.000922535               0.000000000               0.000000000               0.000000000               0.000000000               0.000039076               0.003627301              -0.000050862              -0.000438758               0.001355341               0.000916583               0.000000000               0.000000000               0.000000000               0.000000000               0.000016177               0.003623581              -0.000026192              -0.000446880               0.001356808               0.000909928               0.000000000               0.000000000               0.000000000               0.000000000               0.000002480               0.003610924              -0.000009586              -0.000450434               0.001353774               0.000903340               0.000000000               0.000000000               0.000000000               0.000000000               0.001234170               0.003407536              -0.001698982               0.000036869               0.001123543               0.001160413               0.000000000               0.000000000               0.000000000               0.000000000               0.000732903               0.003454623              -0.001236514              -0.000156990               0.001203859               0.001046869               0.000000000               0.000000000               0.000000000               0.000000000               0.000374744               0.003674653              -0.000743599              -0.000318802               0.001331139               0.001012337               0.000000000               0.000000000               0.000000000               0.000000000               0.000264424               0.003675718              -0.000507751              -0.000360305               0.001345329               0.000985024               0.000000000               0.000000000               0.000000000               0.000000000               0.000225557               0.003641650              -0.000368750              -0.000370621               0.001337412               0.000966790               0.000000000               0.000000000               0.000000000               0.000000000               0.000209661               0.003616777              -0.000284564              -0.000373473               0.001330071               0.000956598               0.000000000               0.000000000               0.000000000               0.000000000               0.000193789               0.003607761              -0.000233779              -0.000378298               0.001328675               0.000950376               0.000000000               0.000000000               0.000000000               0.000000000               0.000175259               0.003606218              -0.000199165              -0.000385054               0.001330412               0.000945358               0.000000000               0.000000000               0.000000000               0.000000000               0.000156491               0.003600849              -0.000176889              -0.000391421               0.001330745               0.000939324               0.000000000               0.000000000               0.000000000               0.000000000               0.000136153               0.003590033              -0.000164595              -0.000397696               0.001329231               0.000931535               0.000000000               0.000000000               0.000000000               0.000000000               0.000112294               0.003578363              -0.000147761              -0.000405184               0.001327837               0.000922653               0.000000000               0.000000000               0.000000000               0.000000000               0.000083448               0.003566769              -0.000121415              -0.000414552               0.001327095               0.000912543               0.000000000               0.000000000               0.000000000               0.000000000               0.000053439               0.003555942              -0.000091199              -0.000424452               0.001326786               0.000902334               0.000000000               0.000000000               0.000000000               0.000000000               0.000025291               0.003545065              -0.000060098              -0.000433648               0.001326226               0.000892578               0.000000000               0.000000000               0.000000000               0.000000000               0.000002333               0.003528773              -0.000030788              -0.000440221               0.001322986               0.000882766               0.000000000               0.000000000               0.000000000               0.000000000              -0.000007866               0.003502782              -0.000008719              -0.000440796               0.001314514               0.000873718               0.000000000               0.000000000               0.000000000               0.000000000              -0.000013334               0.003477111               0.000002761              -0.000439638               0.001305571               0.000865933               0.000000000               0.000000000               0.000000000               0.000000000               0.001210192               0.002772358              -0.001530104               0.000107275               0.000888351               0.000995626               0.000000000               0.000000000               0.000000000               0.000000000               0.000714889               0.003032053              -0.001208923              -0.000110924               0.001047649               0.000936724               0.000000000               0.000000000               0.000000000               0.000000000               0.000340195               0.003424600              -0.000828847              -0.000300502               0.001241689               0.000941187               0.000000000               0.000000000               0.000000000               0.000000000               0.000244338               0.003510298              -0.000602805              -0.000347160               0.001285808               0.000938648               0.000000000               0.000000000               0.000000000               0.000000000               0.000215209               0.003528258              -0.000456642              -0.000360328               0.001296184               0.000935856               0.000000000               0.000000000               0.000000000               0.000000000               0.000205543               0.003540906              -0.000362136              -0.000365534               0.001302135               0.000936601               0.000000000               0.000000000               0.000000000               0.000000000               0.000195478               0.003558718              -0.000302596              -0.000371535               0.001310072               0.000938538               0.000000000               0.000000000               0.000000000               0.000000000               0.000178030               0.003570297              -0.000260616              -0.000379525               0.001316595               0.000937070               0.000000000               0.000000000               0.000000000               0.000000000               0.000159111               0.003565866              -0.000227599              -0.000386066               0.001317299               0.000931233               0.000000000               0.000000000               0.000000000               0.000000000               0.000136247               0.003549324              -0.000200568              -0.000392572               0.001313954               0.000921382               0.000000000               0.000000000               0.000000000               0.000000000               0.000108310               0.003534158              -0.000171998              -0.000401152               0.001311758               0.000910606               0.000000000               0.000000000               0.000000000               0.000000000               0.000071928               0.003516703              -0.000135191              -0.000412614               0.001309761               0.000897147               0.000000000               0.000000000               0.000000000               0.000000000               0.000031159               0.003496720              -0.000092936              -0.000425404               0.001307363               0.000881959               0.000000000               0.000000000               0.000000000               0.000000000              -0.000010322               0.003471855              -0.000052981              -0.000437852               0.001303224               0.000865372               0.000000000               0.000000000               0.000000000               0.000000000              -0.000044373               0.003436966              -0.000021717              -0.000446260               0.001294397               0.000848137               0.000000000               0.000000000               0.000000000               0.000000000              -0.000062312               0.003391304              -0.000002142              -0.000447279               0.001279516               0.000832237               0.000000000               0.000000000               0.000000000               0.000000000              -0.000066047               0.003360306               0.000005280              -0.000444805               0.001268359               0.000823554               0.000000000               0.000000000               0.000000000               0.000000000               0.001142854               0.002161909              -0.001331144               0.000158329               0.000667852               0.000826181               0.000000000               0.000000000               0.000000000               0.000000000               0.000722806               0.002543989              -0.001170488              -0.000046948               0.000863637               0.000816689               0.000000000               0.000000000               0.000000000               0.000000000               0.000361199               0.003064257              -0.000928020              -0.000247583               0.001103936               0.000856353               0.000000000               0.000000000               0.000000000               0.000000000               0.000264358               0.003248884              -0.000719936              -0.000306976               0.001185276               0.000878300               0.000000000               0.000000000               0.000000000               0.000000000               0.000238471               0.003334908              -0.000569514              -0.000327436               0.001220770               0.000893334               0.000000000               0.000000000               0.000000000               0.000000000               0.000232384               0.003398682              -0.000463374              -0.000337691               0.001245446               0.000907756               0.000000000               0.000000000               0.000000000               0.000000000               0.000227638               0.003450417              -0.000388172              -0.000345937               0.001265440               0.000919503               0.000000000               0.000000000               0.000000000               0.000000000               0.000211255               0.003484301              -0.000332220              -0.000356316               0.001280194               0.000923878               0.000000000               0.000000000               0.000000000               0.000000000               0.000188289               0.003495894              -0.000287149              -0.000366378               0.001287412               0.000921034               0.000000000               0.000000000               0.000000000               0.000000000               0.000160259               0.003486725              -0.000247544              -0.000375743               0.001287478               0.000911735               0.000000000               0.000000000               0.000000000               0.000000000               0.000126425               0.003464915              -0.000208358              -0.000385704               0.001283528               0.000897824               0.000000000               0.000000000               0.000000000               0.000000000               0.000084067               0.003437128              -0.000164206              -0.000398115               0.001278403               0.000880288               0.000000000               0.000000000               0.000000000               0.000000000               0.000035614               0.003412677              -0.000116262              -0.000413228               0.001275290               0.000862062               0.000000000               0.000000000               0.000000000               0.000000000              -0.000017517               0.003389400              -0.000071137              -0.000430243               0.001273203               0.000842960               0.000000000               0.000000000               0.000000000               0.000000000              -0.000069915               0.003363721              -0.000035470              -0.000446682               0.001270123               0.000823441               0.000000000               0.000000000               0.000000000               0.000000000              -0.000115082               0.003327721              -0.000011519              -0.000459120               0.001262269               0.000803149               0.000000000               0.000000000               0.000000000               0.000000000              -0.000140114               0.003298629               0.000000085              -0.000464870               0.001254489               0.000789619               0.000000000               0.000000000               0.000000000               0.000000000               0.000996747               0.001592229              -0.001106250               0.000174749               0.000472488               0.000647236               0.000000000               0.000000000               0.000000000               0.000000000               0.000721143               0.002058435              -0.001098691               0.000013122               0.000681763               0.000694886               0.000000000               0.000000000               0.000000000               0.000000000               0.000421137               0.002660493              -0.001000084              -0.000174636               0.000945034               0.000770398               0.000000000               0.000000000               0.000000000               0.000000000               0.000322320               0.002940265              -0.000831740              -0.000246663               0.001062299               0.000815636               0.000000000               0.000000000               0.000000000               0.000000000               0.000290287               0.003103275              -0.000686150              -0.000279052               0.001127432               0.000848380               0.000000000               0.000000000               0.000000000               0.000000000               0.000279519               0.003219348              -0.000574046              -0.000297598               0.001172305               0.000874706               0.000000000               0.000000000               0.000000000               0.000000000               0.000274220               0.003309105              -0.000485931              -0.000310805               0.001206625               0.000895821               0.000000000               0.000000000               0.000000000               0.000000000               0.000259640               0.003375587              -0.000415356              -0.000324583               0.001233379               0.000908796               0.000000000               0.000000000               0.000000000               0.000000000               0.000233072               0.003415262              -0.000357995              -0.000339505               0.001251577               0.000912073               0.000000000               0.000000000               0.000000000               0.000000000               0.000200898               0.003424634              -0.000309072              -0.000352742               0.001259114               0.000906372               0.000000000               0.000000000               0.000000000               0.000000000               0.000167834               0.003412806              -0.000263616              -0.000363662               0.001258811               0.000895149               0.000000000               0.000000000               0.000000000               0.000000000               0.000130229               0.003390609              -0.000215669              -0.000374989               0.001255188               0.000880199               0.000000000               0.000000000               0.000000000               0.000000000               0.000083027               0.003366858              -0.000163612              -0.000389721               0.001252182               0.000862461               0.000000000               0.000000000               0.000000000               0.000000000               0.000025298               0.003344641              -0.000112281              -0.000408592               0.001251067               0.000842474               0.000000000               0.000000000               0.000000000               0.000000000              -0.000041392               0.003325457              -0.000067583              -0.000431203               0.001252209               0.000821006               0.000000000               0.000000000               0.000000000               0.000000000              -0.000115328               0.003306206              -0.000029421              -0.000456523               0.001254232               0.000797709               0.000000000               0.000000000               0.000000000               0.000000000              -0.000169392               0.003282524              -0.000005231              -0.000473836               0.001252109               0.000778273               0.000000000               0.000000000               0.000000000               0.000000000               0.000784560               0.001095336              -0.000859087               0.000157291               0.000312677               0.000469968               0.000000000               0.000000000               0.000000000               0.000000000               0.000680960               0.001592423              -0.000976524               0.000056306               0.000512033               0.000568339               0.000000000               0.000000000               0.000000000               0.000000000               0.000492497               0.002218132              -0.001005382              -0.000092581               0.000770230               0.000677649               0.000000000               0.000000000               0.000000000               0.000000000               0.000414127               0.002576081              -0.000891987              -0.000166713               0.000914256               0.000747543               0.000000000               0.000000000               0.000000000               0.000000000               0.000379471               0.002809400              -0.000766712              -0.000208873               0.001006082               0.000797208               0.000000000               0.000000000               0.000000000               0.000000000               0.000358765               0.002978976              -0.000659457              -0.000237835               0.001072260               0.000834425               0.000000000               0.000000000               0.000000000               0.000000000               0.000344350               0.003114812              -0.000567595              -0.000260220               0.001125000               0.000864780               0.000000000               0.000000000               0.000000000               0.000000000               0.000324521               0.003222032              -0.000486518              -0.000281058               0.001167686               0.000886628               0.000000000               0.000000000               0.000000000               0.000000000               0.000291760               0.003293655              -0.000419950              -0.000302296               0.001198639               0.000896343               0.000000000               0.000000000               0.000000000               0.000000000               0.000254951               0.003330075              -0.000367876              -0.000320652               0.001216898               0.000896246               0.000000000               0.000000000               0.000000000               0.000000000               0.000220021               0.003345196              -0.000320707              -0.000335641               0.001226934               0.000891293               0.000000000               0.000000000               0.000000000               0.000000000               0.000185585               0.003344227              -0.000268546              -0.000348433               0.001230875               0.000882442               0.000000000               0.000000000               0.000000000               0.000000000               0.000145476               0.003332543              -0.000212080              -0.000362013               0.001231508               0.000869494               0.000000000               0.000000000               0.000000000               0.000000000               0.000093870               0.003314672              -0.000156023              -0.000379132               0.001231257               0.000852125               0.000000000               0.000000000               0.000000000               0.000000000               0.000027622               0.003301105              -0.000101231              -0.000402279               0.001234450               0.000832171               0.000000000               0.000000000               0.000000000               0.000000000              -0.000055949               0.003292806              -0.000047515              -0.000432581               0.001241785               0.000809204               0.000000000               0.000000000               0.000000000               0.000000000              -0.000123331               0.003274026              -0.000013812              -0.000455501               0.001243165               0.000787664               0.000000000               0.000000000               0.000000000               0.000000000               0.000527402               0.000699292              -0.000616415               0.000110363               0.000196307               0.000306670               0.000000000               0.000000000               0.000000000               0.000000000               0.000612404               0.001173821              -0.000814032               0.000082922               0.000363628               0.000446551               0.000000000               0.000000000               0.000000000               0.000000000               0.000566893               0.001776320              -0.000937523              -0.000009456               0.000595252               0.000585796               0.000000000               0.000000000               0.000000000               0.000000000               0.000530811               0.002182742              -0.000882337              -0.000073789               0.000752169               0.000678380               0.000000000               0.000000000               0.000000000               0.000000000               0.000502116               0.002471619              -0.000786541              -0.000120659               0.000864084               0.000743425               0.000000000               0.000000000               0.000000000               0.000000000               0.000471640               0.002695828              -0.000691716              -0.000160114               0.000951971               0.000791858               0.000000000               0.000000000               0.000000000               0.000000000               0.000439675               0.002877688              -0.000604611              -0.000194833               0.001024164               0.000829331               0.000000000               0.000000000               0.000000000               0.000000000               0.000410695               0.003021914              -0.000525040              -0.000223728               0.001081870               0.000858142               0.000000000               0.000000000               0.000000000               0.000000000               0.000375986               0.003130533              -0.000458594              -0.000250322               0.001126941               0.000876620               0.000000000               0.000000000               0.000000000               0.000000000               0.000333692               0.003210247              -0.000405960              -0.000276146               0.001162120               0.000885974               0.000000000               0.000000000               0.000000000               0.000000000               0.000289186               0.003261650              -0.000360243              -0.000299261               0.001186959               0.000887698               0.000000000               0.000000000               0.000000000               0.000000000               0.000251382               0.003286239              -0.000312614              -0.000316511               0.001200906               0.000884395               0.000000000               0.000000000               0.000000000               0.000000000               0.000218501               0.003295202              -0.000257898              -0.000329962               0.001208377               0.000878415               0.000000000               0.000000000               0.000000000               0.000000000               0.000179258               0.003295898              -0.000197084              -0.000344765               0.001213543               0.000868779               0.000000000               0.000000000               0.000000000               0.000000000               0.000124041               0.003293011              -0.000132079              -0.000365110               0.001219363               0.000854253               0.000000000               0.000000000               0.000000000               0.000000000               0.000051166               0.003289647              -0.000065745              -0.000392018               0.001227211               0.000835193               0.000000000               0.000000000               0.000000000               0.000000000              -0.000010539               0.003276116              -0.000026103              -0.000413465               0.001229850               0.000816384               0.000000000               0.000000000               0.000000000               0.000000000               0.000255341               0.000407131              -0.000403699               0.000044861               0.000120755               0.000165616               0.000000000               0.000000000               0.000000000               0.000000000               0.000528051               0.000827532              -0.000625785               0.000094576               0.000244315               0.000338891               0.000000000               0.000000000               0.000000000               0.000000000               0.000637697               0.001373239              -0.000793448               0.000067480               0.000435248               0.000502728               0.000000000               0.000000000               0.000000000               0.000000000               0.000652619               0.001795256              -0.000784138               0.000020324               0.000591638               0.000611962               0.000000000               0.000000000               0.000000000               0.000000000               0.000632135               0.002120975              -0.000719406              -0.000028072               0.000716342               0.000688270               0.000000000               0.000000000               0.000000000               0.000000000               0.000596687               0.002388829              -0.000642558              -0.000074847               0.000821217               0.000746370               0.000000000               0.000000000               0.000000000               0.000000000               0.000554728               0.002611538              -0.000570352              -0.000118419               0.000909977               0.000791558               0.000000000               0.000000000               0.000000000               0.000000000               0.000520030               0.002793311              -0.000505260              -0.000154153               0.000982479               0.000828326               0.000000000               0.000000000               0.000000000               0.000000000               0.000483977               0.002941411              -0.000445223              -0.000186185               0.001042522               0.000856337               0.000000000               0.000000000               0.000000000               0.000000000               0.000438863               0.003064780              -0.000395673              -0.000218524               0.001094424               0.000875901               0.000000000               0.000000000               0.000000000               0.000000000               0.000392051               0.003153540              -0.000358583              -0.000247173               0.001133561               0.000886388               0.000000000               0.000000000               0.000000000               0.000000000               0.000351770               0.003209569              -0.000322706              -0.000269282               0.001159606               0.000890324               0.000000000               0.000000000               0.000000000               0.000000000               0.000318482               0.003245987              -0.000274475              -0.000286317               0.001177424               0.000891107               0.000000000               0.000000000               0.000000000               0.000000000               0.000284356               0.003267415              -0.000213180              -0.000301793               0.001189725               0.000887932               0.000000000               0.000000000               0.000000000               0.000000000               0.000246394               0.003279357              -0.000145311              -0.000317521               0.001198948               0.000881427               0.000000000               0.000000000               0.000000000               0.000000000               0.000201189               0.003286206              -0.000074571              -0.000335329               0.001207167               0.000871838               0.000000000               0.000000000               0.000000000               0.000000000               0.000163556               0.003281688              -0.000034752              -0.000348877               0.001210177               0.000861301               0.000000000               0.000000000               0.000000000               0.000000000               0.000013828               0.000214564              -0.000231814              -0.000021635               0.000078732               0.000057097               0.000000000               0.000000000               0.000000000               0.000000000               0.000444108               0.000569192              -0.000422292               0.000095390               0.000157932               0.000253322               0.000000000               0.000000000               0.000000000               0.000000000               0.000692536               0.001043966              -0.000578438               0.000129204               0.000304917               0.000434121               0.000000000               0.000000000               0.000000000               0.000000000               0.000757201               0.001461461              -0.000591540               0.000101266               0.000453393               0.000554660               0.000000000               0.000000000               0.000000000               0.000000000               0.000750939               0.001807593              -0.000553719               0.000055652               0.000583974               0.000639626               0.000000000               0.000000000               0.000000000               0.000000000               0.000717565               0.002100711              -0.000500834               0.000006498               0.000698064               0.000704562               0.000000000               0.000000000               0.000000000               0.000000000               0.000677638               0.002353794              -0.000451853              -0.000040110               0.000797960               0.000757850               0.000000000               0.000000000               0.000000000               0.000000000               0.000637965               0.002571729              -0.000405376              -0.000082230               0.000884644               0.000802415               0.000000000               0.000000000               0.000000000               0.000000000               0.000597403               0.002757004              -0.000356966              -0.000120599               0.000959192               0.000838593               0.000000000               0.000000000               0.000000000               0.000000000               0.000554320               0.002907673              -0.000319180              -0.000155589               0.001021077               0.000865489               0.000000000               0.000000000               0.000000000               0.000000000               0.000510418               0.003025069              -0.000294957              -0.000186726               0.001070588               0.000883862               0.000000000               0.000000000               0.000000000               0.000000000               0.000467411               0.003116376              -0.000270383              -0.000214268               0.001110204               0.000895937               0.000000000               0.000000000               0.000000000               0.000000000               0.000429536               0.003181522              -0.000231945              -0.000236614               0.001139368               0.000902754               0.000000000               0.000000000               0.000000000               0.000000000               0.000400047               0.003224461              -0.000181634              -0.000253039               0.001159156               0.000906116               0.000000000               0.000000000               0.000000000               0.000000000               0.000380885               0.003254654              -0.000125536              -0.000263999               0.001172874               0.000908874               0.000000000               0.000000000               0.000000000               0.000000000               0.000370557               0.003276321              -0.000064605              -0.000270581               0.001182290               0.000911709               0.000000000               0.000000000               0.000000000               0.000000000               0.000366032               0.003283207              -0.000031957              -0.000273138               0.001185438               0.000912299               0.000000000               0.000000000               0.000000000               0.000000000              -0.000155361               0.000110809              -0.000103244              -0.000072112               0.000060973              -0.000011139               0.000000000               0.000000000               0.000000000               0.000000000               0.000381055               0.000411832              -0.000211985               0.000091415               0.000106804               0.000198219               0.000000000               0.000000000               0.000000000               0.000000000               0.000726526               0.000826681              -0.000304696               0.000169110               0.000219187               0.000388298               0.000000000               0.000000000               0.000000000               0.000000000               0.000827825               0.001233455              -0.000318566               0.000156251               0.000359064               0.000515315               0.000000000               0.000000000               0.000000000               0.000000000               0.000836591               0.001587596              -0.000302029               0.000115271               0.000490770               0.000606040               0.000000000               0.000000000               0.000000000               0.000000000               0.000810592               0.001889815              -0.000275791               0.000067744               0.000607351               0.000675095               0.000000000               0.000000000               0.000000000               0.000000000               0.000773126               0.002161992              -0.000251900               0.000019673               0.000714099               0.000733772               0.000000000               0.000000000               0.000000000               0.000000000               0.000728109               0.002405936              -0.000226807              -0.000027701               0.000811204               0.000783503               0.000000000               0.000000000               0.000000000               0.000000000               0.000684560               0.002613427              -0.000198610              -0.000069968               0.000894456               0.000824488               0.000000000               0.000000000               0.000000000               0.000000000               0.000643883               0.002782484              -0.000178907              -0.000106354               0.000962937               0.000856582               0.000000000               0.000000000               0.000000000               0.000000000               0.000598891               0.002919815              -0.000167725              -0.000140392               0.001020059               0.000879667               0.000000000               0.000000000               0.000000000               0.000000000               0.000550562               0.003034140              -0.000154681              -0.000172806               0.001068972               0.000896166               0.000000000               0.000000000               0.000000000               0.000000000               0.000508623               0.003124552              -0.000133815              -0.000199835               0.001108119               0.000908284               0.000000000               0.000000000               0.000000000               0.000000000               0.000484261               0.003192046              -0.000105202              -0.000217407               0.001136474               0.000919066               0.000000000               0.000000000               0.000000000               0.000000000               0.000481404               0.003239867              -0.000073054              -0.000224456               0.001154764               0.000930307               0.000000000               0.000000000               0.000000000               0.000000000               0.000501457               0.003270512              -0.000038591              -0.000220767               0.001163749               0.000942982               0.000000000               0.000000000               0.000000000               0.000000000               0.000526308               0.003284123              -0.000020614              -0.000213149               0.001165746               0.000952597               0.000000000               0.000000000               0.000000000               0.000000000              -0.000217833               0.000076247               0.000000000              -0.000091218               0.000055821              -0.000035397               0.000000000               0.000000000               0.000000000               0.000000000               0.000357040               0.000355904               0.000000000               0.000089401               0.000088833               0.000178234               0.000000000               0.000000000               0.000000000               0.000000000               0.000738760               0.000748838               0.000000000               0.000183429               0.000188467               0.000371896               0.000000000               0.000000000               0.000000000               0.000000000               0.000854320               0.001153486              -0.000000000               0.000176183               0.000325764               0.000501946               0.000000000               0.000000000               0.000000000               0.000000000               0.000867557               0.001508128              -0.000000000               0.000136817               0.000457099               0.000593915               0.000000000               0.000000000               0.000000000               0.000000000               0.000845285               0.001811635              -0.000000000               0.000090527               0.000573697               0.000664223               0.000000000               0.000000000               0.000000000               0.000000000               0.000807807               0.002091208              -0.000000000               0.000041526               0.000683220               0.000724747               0.000000000               0.000000000               0.000000000               0.000000000               0.000759831               0.002343002              -0.000000000              -0.000007939               0.000783639               0.000775700               0.000000000               0.000000000               0.000000000               0.000000000               0.000716732               0.002558371               0.000000000              -0.000051022               0.000869789               0.000818767               0.000000000               0.000000000               0.000000000               0.000000000               0.000678237               0.002738041               0.000000000              -0.000087916               0.000941976               0.000854061               0.000000000               0.000000000               0.000000000               0.000000000               0.000630901               0.002881295               0.000000000              -0.000123574               0.001001613               0.000878040               0.000000000               0.000000000               0.000000000               0.000000000               0.000579515               0.003000903               0.000000000              -0.000157795               0.001052889               0.000895095               0.000000000               0.000000000               0.000000000               0.000000000               0.000535237               0.003101301              -0.000000000              -0.000186948               0.001096073               0.000909124               0.000000000               0.000000000               0.000000000               0.000000000               0.000511347               0.003180513              -0.000000000              -0.000205808               0.001128763               0.000922955               0.000000000               0.000000000               0.000000000               0.000000000               0.000516259               0.003238050              -0.000000000              -0.000211159               0.001149726               0.000938567               0.000000000               0.000000000               0.000000000               0.000000000               0.000549137               0.003270474               0.000000000              -0.000202882               0.001157774               0.000954892               0.000000000               0.000000000               0.000000000               0.000000000               0.000585612               0.003284294               0.000000000              -0.000190932               0.001158398               0.000967466               0.000000000               0.000000000               0.000000000               0.000000000               0.000000000               0.000000000               0.000000000               0.000000000               0.000000000               0.000000000               0.000000000               0.000000000               0.000000000               0.000000000               0.000000000               0.000000000               0.000000000               0.000000000               0.000000000               0.000000000               0.000000000               0.000000000               0.000000000               0.000000000               0.000000000               0.000000000               0.000000000               0.000000000               0.000000000               0.000000000               0.000000000               0.000000000               0.000000000               0.000000000               0.000000000               0.000000000               0.000000000               0.000000000               0.000000000               0.000000000               0.000000000               0.000000000               0.000000000               0.000000000               0.000000000               0.000000000               0.000000000               0.000000000               0.000000000               0.000000000               0.000000000               0.000000000               0.000000000               0.000000000               0.000000000               0.000000000               0.000000000               0.000000000               0.000000000               0.000000000               0.000000000               0.000000000               0.000000000               0.000000000               0.000000000               0.000000000               0.000000000               0.000000000               0.000000000               0.000000000               0.000000000               0.000000000               0.000000000               0.000000000               0.000000000               0.000000000               0.000000000               0.000000000               0.000000000               0.000000000               0.000000000               0.000000000               0.000000000               0.000000000               0.000000000               0.000000000               0.000000000               0.000000000               0.000000000               0.000000000               0.000000000               0.000000000               0.000000000               0.000000000               0.000000000               0.000000000               0.000000000               0.000000000               0.000000000               0.000000000               0.000000000               0.000000000               0.000000000               0.000000000               0.000000000               0.000000000               0.000000000               0.000000000               0.000000000               0.000000000               0.000000000               0.000000000               0.000000000               0.000000000               0.000000000               0.000000000               0.000000000               0.000000000               0.000000000               0.000000000               0.000000000               0.000000000               0.000000000               0.000000000               0.000000000               0.000000000               0.000000000               0.000000000               0.000000000               0.000000000               0.000000000               0.000000000               0.000000000               0.000000000               0.000000000               0.000000000               0.000000000               0.000000000               0.000000000               0.000000000               0.000000000               0.000000000               0.000000000               0.000000000               0.000000000               0.000000000               0.000000000               0.000000000               0.000000000               0.000000000               0.000000000               0.000000000               0.000000000               0.000000000               0.000000000               0.000000000               0.000000000               0.000000000               0.000000000               0.000000000               0.000000000               0.000000000               0.000000000               0.000000000               0.000000000               0.000000000               0.000000000               0.000000000               0.000000000               0.000000000               0.000000000               0.000000000               0.000000000               0.000000000               0.000680169               0.007370205               0.000558073              -0.000666211               0.002678781               0.002012570               0.000000000               0.000000000               0.000000000               0.000000000               0.000707514               0.006095804               0.000348959              -0.000496657               0.002197467               0.001700810               0.000000000               0.000000000               0.000000000               0.000000000               0.000948375               0.005085237               0.000134663              -0.000280013               0.001788400               0.001508387               0.000000000               0.000000000               0.000000000               0.000000000               0.000972246               0.004531996               0.000036088              -0.000201907               0.001577952               0.001376046               0.000000000               0.000000000               0.000000000               0.000000000               0.000921206               0.004207519              -0.000008989              -0.000180487               0.001462655               0.001282168               0.000000000               0.000000000               0.000000000               0.000000000               0.000843480               0.004004574              -0.000029005              -0.000184266               0.001396267               0.001212000               0.000000000               0.000000000               0.000000000               0.000000000               0.000755607               0.003873853              -0.000039252              -0.000200879               0.001358231               0.001157353               0.000000000               0.000000000               0.000000000               0.000000000               0.000668752               0.003788772              -0.000041865              -0.000222814               0.001337183               0.001114369               0.000000000               0.000000000               0.000000000               0.000000000               0.000583661               0.003729993              -0.000041263              -0.000247376               0.001325777               0.001078402               0.000000000               0.000000000               0.000000000               0.000000000               0.000497404               0.003688966              -0.000041736              -0.000274594               0.001321174               0.001046581               0.000000000               0.000000000               0.000000000               0.000000000               0.000412408               0.003662348              -0.000041641              -0.000303140               0.001321817               0.001018677               0.000000000               0.000000000               0.000000000               0.000000000               0.000331473               0.003646431              -0.000040298              -0.000331501               0.001325965               0.000994464               0.000000000               0.000000000               0.000000000               0.000000000               0.000253526               0.003636020              -0.000037129              -0.000359429               0.001331804               0.000972375               0.000000000               0.000000000               0.000000000               0.000000000               0.000180866               0.003627808              -0.000032816              -0.000385651               0.001337808               0.000952157               0.000000000               0.000000000               0.000000000               0.000000000               0.000115570               0.003620253              -0.000026620              -0.000409192               0.001343136               0.000933944               0.000000000               0.000000000               0.000000000               0.000000000               0.000054916               0.003609653              -0.000016081              -0.000430612               0.001346743               0.000916131               0.000000000               0.000000000               0.000000000               0.000000000               0.000026012               0.003602901              -0.000009418              -0.000440607               0.001347824               0.000907217               0.000000000               0.000000000               0.000000000               0.000000000               0.000786711               0.006989464               0.001052265              -0.000578665               0.002522686               0.001944021               0.000000000               0.000000000               0.000000000               0.000000000               0.000733242               0.005831055               0.000661903              -0.000453915               0.002094970               0.001641055               0.000000000               0.000000000               0.000000000               0.000000000               0.000886639               0.004945487               0.000264024              -0.000285696               0.001743711               0.001458015               0.000000000               0.000000000               0.000000000               0.000000000               0.000873056               0.004457987               0.000083928              -0.000229852               0.001562598               0.001332746               0.000000000               0.000000000               0.000000000               0.000000000               0.000809715               0.004167393               0.000001305              -0.000217281               0.001461544               0.001244263               0.000000000               0.000000000               0.000000000               0.000000000               0.000733061               0.003982101              -0.000036805              -0.000222864               0.001401642               0.001178778               0.000000000               0.000000000               0.000000000               0.000000000               0.000650485               0.003858476              -0.000056982              -0.000238377               0.001365605               0.001127228               0.000000000               0.000000000               0.000000000               0.000000000               0.000572540               0.003776910              -0.000063080              -0.000257411               0.001344761               0.001087350               0.000000000               0.000000000               0.000000000               0.000000000               0.000498849               0.003721187              -0.000062119              -0.000278080               0.001333076               0.001054997               0.000000000               0.000000000               0.000000000               0.000000000               0.000424181               0.003682684              -0.000062550              -0.000301267               0.001327972               0.001026705               0.000000000               0.000000000               0.000000000               0.000000000               0.000350646               0.003658872              -0.000062780              -0.000325866               0.001328234               0.001002368               0.000000000               0.000000000               0.000000000               0.000000000               0.000279880               0.003645610              -0.000060512              -0.000350745               0.001332106               0.000981361               0.000000000               0.000000000               0.000000000               0.000000000               0.000212822               0.003637812              -0.000054855              -0.000374917               0.001337564               0.000962647               0.000000000               0.000000000               0.000000000               0.000000000               0.000152496               0.003633665              -0.000047286              -0.000397021               0.001343550               0.000946529               0.000000000               0.000000000               0.000000000               0.000000000               0.000098693               0.003633125              -0.000037719              -0.000417130               0.001350073               0.000932943               0.000000000               0.000000000               0.000000000               0.000000000               0.000047140               0.003637420              -0.000022559              -0.000436999               0.001358128               0.000921129               0.000000000               0.000000000               0.000000000               0.000000000               0.000024645               0.003646735              -0.000011829              -0.000446599               0.001364432               0.000917834               0.000000000               0.000000000               0.000000000               0.000000000               0.000927109               0.006412138               0.001439487              -0.000453851               0.002288642               0.001834790               0.000000000               0.000000000               0.000000000               0.000000000               0.000759566               0.005435964               0.000913808              -0.000394658               0.001943523               0.001548865               0.000000000               0.000000000               0.000000000               0.000000000               0.000791233               0.004738571               0.000381112              -0.000295608               0.001678044               0.001382436               0.000000000               0.000000000               0.000000000               0.000000000               0.000733380               0.004343468               0.000146410              -0.000267915               0.001537113               0.001269198               0.000000000               0.000000000               0.000000000               0.000000000               0.000659045               0.004100932               0.000038310              -0.000265474               0.001455455               0.001189981               0.000000000               0.000000000               0.000000000               0.000000000               0.000589634               0.003943470              -0.000011694              -0.000271820               0.001405084               0.001133263               0.000000000               0.000000000               0.000000000               0.000000000               0.000519746               0.003836519              -0.000038099              -0.000284659               0.001373713               0.001089054               0.000000000               0.000000000               0.000000000               0.000000000               0.000451560               0.003763374              -0.000047969              -0.000301086               0.001354808               0.001053721               0.000000000               0.000000000               0.000000000               0.000000000               0.000390603               0.003714739              -0.000047667              -0.000317866               0.001344189               0.001026324               0.000000000               0.000000000               0.000000000               0.000000000               0.000331400               0.003681023              -0.000049296              -0.000335852               0.001338946               0.001003094               0.000000000               0.000000000               0.000000000               0.000000000               0.000274020               0.003659951              -0.000051323              -0.000354736               0.001338217               0.000983481               0.000000000               0.000000000               0.000000000               0.000000000               0.000220914               0.003648904              -0.000049836              -0.000373269               0.001340712               0.000967443               0.000000000               0.000000000               0.000000000               0.000000000               0.000170942               0.003645290              -0.000043718              -0.000391557               0.001345603               0.000954046               0.000000000               0.000000000               0.000000000               0.000000000               0.000125304               0.003648337              -0.000035129              -0.000409052               0.001352451               0.000943399               0.000000000               0.000000000               0.000000000               0.000000000               0.000083482               0.003659890              -0.000026220              -0.000426179               0.001362011               0.000935832               0.000000000               0.000000000               0.000000000               0.000000000               0.000041027               0.003683703              -0.000014859              -0.000445077               0.001376247               0.000931171               0.000000000               0.000000000               0.000000000               0.000000000               0.000026416               0.003712607              -0.000004410              -0.000454169               0.001388913               0.000934744               0.000000000               0.000000000               0.000000000               0.000000000               0.001069708               0.005702270               0.001693348              -0.000311644               0.002004619               0.001692975               0.000000000               0.000000000               0.000000000               0.000000000               0.000778014               0.004957427               0.001090702              -0.000327923               0.001761766               0.001433844               0.000000000               0.000000000               0.000000000               0.000000000               0.000675059               0.004488413               0.000484498              -0.000307904               0.001598757               0.001290853               0.000000000               0.000000000               0.000000000               0.000000000               0.000580838               0.004201979               0.000224642              -0.000307432               0.001503123               0.001195691               0.000000000               0.000000000               0.000000000               0.000000000               0.000505581               0.004013398               0.000103284              -0.000312081               0.001441813               0.001129732               0.000000000               0.000000000               0.000000000               0.000000000               0.000443472               0.003884993               0.000046152              -0.000319321               0.001401425               0.001082104               0.000000000               0.000000000               0.000000000               0.000000000               0.000387528               0.003797313               0.000015201              -0.000329340               0.001375538               0.001046198               0.000000000               0.000000000               0.000000000               0.000000000               0.000336311               0.003736681              -0.000001045              -0.000340968               0.001359204               0.001018236               0.000000000               0.000000000               0.000000000               0.000000000               0.000289699               0.003699968              -0.000004749              -0.000353858               0.001351263               0.000997405               0.000000000               0.000000000               0.000000000               0.000000000               0.000245334               0.003674672              -0.000007529              -0.000367333               0.001347323               0.000979990               0.000000000               0.000000000               0.000000000               0.000000000               0.000205557               0.003658087              -0.000012383              -0.000380176               0.001346075               0.000965899               0.000000000               0.000000000               0.000000000               0.000000000               0.000172172               0.003651631              -0.000013859              -0.000391888               0.001347828               0.000955939               0.000000000               0.000000000               0.000000000               0.000000000               0.000140918               0.003654469              -0.000009769              -0.000403963               0.001352799               0.000948835               0.000000000               0.000000000               0.000000000               0.000000000               0.000108525               0.003667000              -0.000001962              -0.000417677               0.001361547               0.000943870               0.000000000               0.000000000               0.000000000               0.000000000               0.000074449               0.003689249               0.000003995              -0.000433237               0.001374150               0.000940913               0.000000000               0.000000000               0.000000000               0.000000000               0.000038105               0.003723484               0.000004951              -0.000451145               0.001391531               0.000940385               0.000000000               0.000000000               0.000000000               0.000000000               0.000027973               0.003758489               0.000008840              -0.000459320               0.001405924               0.000946604               0.000000000               0.000000000               0.000000000               0.000000000               0.001178622               0.004925478               0.001808207              -0.000173703               0.001699710               0.001526007               0.000000000               0.000000000               0.000000000               0.000000000               0.000778845               0.004441793               0.001195641              -0.000263158               0.001568302               0.001305144               0.000000000               0.000000000               0.000000000               0.000000000               0.000557589               0.004217691               0.000579090              -0.000318115               0.001511921               0.001193806               0.000000000               0.000000000               0.000000000               0.000000000               0.000442402               0.004038516               0.000317005              -0.000338913               0.001459130               0.001120216               0.000000000               0.000000000               0.000000000               0.000000000               0.000373929               0.003902882               0.000191125              -0.000347636               0.001416826               0.001069190               0.000000000               0.000000000               0.000000000               0.000000000               0.000325975               0.003806653               0.000126788              -0.000353590               0.001386735               0.001033145               0.000000000               0.000000000               0.000000000               0.000000000               0.000285290               0.003738234               0.000087090              -0.000360295               0.001366164               0.001005869               0.000000000               0.000000000               0.000000000               0.000000000               0.000248818               0.003694177               0.000061449              -0.000368464               0.001354201               0.000985737               0.000000000               0.000000000               0.000000000               0.000000000               0.000215578               0.003670966               0.000052134              -0.000378028               0.001349653               0.000971624               0.000000000               0.000000000               0.000000000               0.000000000               0.000186037               0.003658611               0.000050837              -0.000387562               0.001348712               0.000961150               0.000000000               0.000000000               0.000000000               0.000000000               0.000161725               0.003649603               0.000045951              -0.000395553               0.001348373               0.000952820               0.000000000               0.000000000               0.000000000               0.000000000               0.000142246               0.003647439               0.000042046              -0.000402587               0.001349996               0.000947410               0.000000000               0.000000000               0.000000000               0.000000000               0.000119797               0.003651526               0.000041547              -0.000411516               0.001354335               0.000942819               0.000000000               0.000000000               0.000000000               0.000000000               0.000092174               0.003664008               0.000042894              -0.000423435               0.001362469               0.000939034               0.000000000               0.000000000               0.000000000               0.000000000               0.000062204               0.003683154               0.000039934              -0.000437067               0.001373395               0.000936328               0.000000000               0.000000000               0.000000000               0.000000000               0.000031612               0.003704026               0.000025815              -0.000451148               0.001385046               0.000933898               0.000000000               0.000000000               0.000000000               0.000000000               0.000019668               0.003718943               0.000017498              -0.000457491               0.001392132               0.000934641               0.000000000               0.000000000               0.000000000               0.000000000               0.001232478               0.004143290               0.001802159              -0.000055734               0.001399660               0.001343926               0.000000000               0.000000000               0.000000000               0.000000000               0.000762730               0.003929734               0.001240473              -0.000205194               0.001378296               0.001173102               0.000000000               0.000000000               0.000000000               0.000000000               0.000453077               0.003944159               0.000665923              -0.000323115               0.001422411               0.001099296               0.000000000               0.000000000               0.000000000               0.000000000               0.000332845               0.003860730               0.000415331              -0.000357773               0.001406155               0.001048381               0.000000000               0.000000000               0.000000000               0.000000000               0.000278763               0.003775800               0.000283930              -0.000367438               0.001381067               0.001013629               0.000000000               0.000000000               0.000000000               0.000000000               0.000248002               0.003713625               0.000209552              -0.000371202               0.001361596               0.000990395               0.000000000               0.000000000               0.000000000               0.000000000               0.000222100               0.003672243               0.000163166              -0.000375742               0.001349316               0.000973574               0.000000000               0.000000000               0.000000000               0.000000000               0.000197566               0.003650274               0.000132207              -0.000382196               0.001344144               0.000961948               0.000000000               0.000000000               0.000000000               0.000000000               0.000174199               0.003639761               0.000117944              -0.000389645               0.001343123               0.000953479               0.000000000               0.000000000               0.000000000               0.000000000               0.000153892               0.003633191               0.000115339              -0.000396439               0.001343198               0.000946759               0.000000000               0.000000000               0.000000000               0.000000000               0.000135239               0.003624929               0.000108197              -0.000402401               0.001342431               0.000940031               0.000000000               0.000000000               0.000000000               0.000000000               0.000116609               0.003619518               0.000096205              -0.000408710               0.001342731               0.000934020               0.000000000               0.000000000               0.000000000               0.000000000               0.000094426               0.003619489               0.000083999              -0.000417025               0.001345493               0.000928467               0.000000000               0.000000000               0.000000000               0.000000000               0.000067105               0.003623080               0.000069392              -0.000427720               0.001350254               0.000922535               0.000000000               0.000000000               0.000000000               0.000000000               0.000039076               0.003627301               0.000050862              -0.000438758               0.001355341               0.000916583               0.000000000               0.000000000               0.000000000               0.000000000               0.000016177               0.003623581               0.000026192              -0.000446880               0.001356808               0.000909928               0.000000000               0.000000000               0.000000000               0.000000000               0.000002480               0.003610924               0.000009586              -0.000450434               0.001353774               0.000903340               0.000000000               0.000000000               0.000000000               0.000000000               0.001234170               0.003407536               0.001698982               0.000036869               0.001123543               0.001160413               0.000000000               0.000000000               0.000000000               0.000000000               0.000732903               0.003454623               0.001236514              -0.000156990               0.001203859               0.001046869               0.000000000               0.000000000               0.000000000               0.000000000               0.000374744               0.003674653               0.000743599              -0.000318802               0.001331139               0.001012337               0.000000000               0.000000000               0.000000000               0.000000000               0.000264424               0.003675718               0.000507751              -0.000360305               0.001345329               0.000985024               0.000000000               0.000000000               0.000000000               0.000000000               0.000225557               0.003641650               0.000368750              -0.000370621               0.001337412               0.000966790               0.000000000               0.000000000               0.000000000               0.000000000               0.000209661               0.003616777               0.000284564              -0.000373473               0.001330071               0.000956598               0.000000000               0.000000000               0.000000000               0.000000000               0.000193789               0.003607761               0.000233779              -0.000378298               0.001328675               0.000950376               0.000000000               0.000000000               0.000000000               0.000000000               0.000175259               0.003606218               0.000199165              -0.000385054               0.001330412               0.000945358               0.000000000               0.000000000               0.000000000               0.000000000               0.000156491               0.003600849               0.000176889              -0.000391421               0.001330745               0.000939324               0.000000000               0.000000000               0.000000000               0.000000000               0.000136153               0.003590033               0.000164595              -0.000397696               0.001329231               0.000931535               0.000000000               0.000000000               0.000000000               0.000000000               0.000112294               0.003578363               0.000147761              -0.000405184               0.001327837               0.000922653               0.000000000               0.000000000               0.000000000               0.000000000               0.000083448               0.003566769               0.000121415              -0.000414552               0.001327095               0.000912543               0.000000000               0.000000000               0.000000000               0.000000000               0.000053439               0.003555942               0.000091199              -0.000424452               0.001326786               0.000902334               0.000000000               0.000000000               0.000000000               0.000000000               0.000025291               0.003545065               0.000060098              -0.000433648               0.001326226               0.000892578               0.000000000               0.000000000               0.000000000               0.000000000               0.000002333               0.003528773               0.000030788              -0.000440221               0.001322986               0.000882766               0.000000000               0.000000000               0.000000000               0.000000000              -0.000007866               0.003502782               0.000008719              -0.000440796               0.001314514               0.000873718               0.000000000               0.000000000               0.000000000               0.000000000              -0.000013334               0.003477111              -0.000002761              -0.000439638               0.001305571               0.000865933               0.000000000               0.000000000               0.000000000               0.000000000               0.001210192               0.002772358               0.001530104               0.000107275               0.000888351               0.000995626               0.000000000               0.000000000               0.000000000               0.000000000               0.000714889               0.003032053               0.001208923              -0.000110924               0.001047649               0.000936724               0.000000000               0.000000000               0.000000000               0.000000000               0.000340195               0.003424600               0.000828847              -0.000300502               0.001241689               0.000941187               0.000000000               0.000000000               0.000000000               0.000000000               0.000244338               0.003510298               0.000602805              -0.000347160               0.001285808               0.000938648               0.000000000               0.000000000               0.000000000               0.000000000               0.000215209               0.003528258               0.000456642              -0.000360328               0.001296184               0.000935856               0.000000000               0.000000000               0.000000000               0.000000000               0.000205543               0.003540906               0.000362136              -0.000365534               0.001302135               0.000936601               0.000000000               0.000000000               0.000000000               0.000000000               0.000195478               0.003558718               0.000302596              -0.000371535               0.001310072               0.000938538               0.000000000               0.000000000               0.000000000               0.000000000               0.000178030               0.003570297               0.000260616              -0.000379525               0.001316595               0.000937070               0.000000000               0.000000000               0.000000000               0.000000000               0.000159111               0.003565866               0.000227599              -0.000386066               0.001317299               0.000931233               0.000000000               0.000000000               0.000000000               0.000000000               0.000136247               0.003549324               0.000200568              -0.000392572               0.001313954               0.000921382               0.000000000               0.000000000               0.000000000               0.000000000               0.000108310               0.003534158               0.000171998              -0.000401152               0.001311758               0.000910606               0.000000000               0.000000000               0.000000000               0.000000000               0.000071928               0.003516703               0.000135191              -0.000412614               0.001309761               0.000897147               0.000000000               0.000000000               0.000000000               0.000000000               0.000031159               0.003496720               0.000092936              -0.000425404               0.001307363               0.000881959               0.000000000               0.000000000               0.000000000               0.000000000              -0.000010322               0.003471855               0.000052981              -0.000437852               0.001303224               0.000865372               0.000000000               0.000000000               0.000000000               0.000000000              -0.000044373               0.003436966               0.000021717              -0.000446260               0.001294397               0.000848137               0.000000000               0.000000000               0.000000000               0.000000000              -0.000062312               0.003391304               0.000002142              -0.000447279               0.001279516               0.000832237               0.000000000               0.000000000               0.000000000               0.000000000              -0.000066047               0.003360306              -0.000005280              -0.000444805               0.001268359               0.000823554               0.000000000               0.000000000               0.000000000               0.000000000               0.001142854               0.002161909               0.001331144               0.000158329               0.000667852               0.000826181               0.000000000               0.000000000               0.000000000               0.000000000               0.000722806               0.002543989               0.001170488              -0.000046948               0.000863637               0.000816689               0.000000000               0.000000000               0.000000000               0.000000000               0.000361199               0.003064257               0.000928020              -0.000247583               0.001103936               0.000856353               0.000000000               0.000000000               0.000000000               0.000000000               0.000264358               0.003248884               0.000719936              -0.000306976               0.001185276               0.000878300               0.000000000               0.000000000               0.000000000               0.000000000               0.000238471               0.003334908               0.000569514              -0.000327436               0.001220770               0.000893334               0.000000000               0.000000000               0.000000000               0.000000000               0.000232384               0.003398682               0.000463374              -0.000337691               0.001245446               0.000907756               0.000000000               0.000000000               0.000000000               0.000000000               0.000227638               0.003450417               0.000388172              -0.000345937               0.001265440               0.000919503               0.000000000               0.000000000               0.000000000               0.000000000               0.000211255               0.003484301               0.000332220              -0.000356316               0.001280194               0.000923878               0.000000000               0.000000000               0.000000000               0.000000000               0.000188289               0.003495894               0.000287149              -0.000366378               0.001287412               0.000921034               0.000000000               0.000000000               0.000000000               0.000000000               0.000160259               0.003486725               0.000247544              -0.000375743               0.001287478               0.000911735               0.000000000               0.000000000               0.000000000               0.000000000               0.000126425               0.003464915               0.000208358              -0.000385704               0.001283528               0.000897824               0.000000000               0.000000000               0.000000000               0.000000000               0.000084067               0.003437128               0.000164206              -0.000398115               0.001278403               0.000880288               0.000000000               0.000000000               0.000000000               0.000000000               0.000035614               0.003412677               0.000116262              -0.000413228               0.001275290               0.000862062               0.000000000               0.000000000               0.000000000               0.000000000              -0.000017517               0.003389400               0.000071137              -0.000430243               0.001273203               0.000842960               0.000000000               0.000000000               0.000000000               0.000000000              -0.000069915               0.003363721               0.000035470              -0.000446682               0.001270123               0.000823441               0.000000000               0.000000000               0.000000000               0.000000000              -0.000115082               0.003327721               0.000011519              -0.000459120               0.001262269               0.000803149               0.000000000               0.000000000               0.000000000               0.000000000              -0.000140114               0.003298629              -0.000000085              -0.000464870               0.001254489               0.000789619               0.000000000               0.000000000               0.000000000               0.000000000               0.000996747               0.001592229               0.001106250               0.000174749               0.000472488               0.000647236               0.000000000               0.000000000               0.000000000               0.000000000               0.000721143               0.002058435               0.001098691               0.000013122               0.000681763               0.000694886               0.000000000               0.000000000               0.000000000               0.000000000               0.000421137               0.002660493               0.001000084              -0.000174636               0.000945034               0.000770398               0.000000000               0.000000000               0.000000000               0.000000000               0.000322320               0.002940265               0.000831740              -0.000246663               0.001062299               0.000815636               0.000000000               0.000000000               0.000000000               0.000000000               0.000290287               0.003103275               0.000686150              -0.000279052               0.001127432               0.000848380               0.000000000               0.000000000               0.000000000               0.000000000               0.000279519               0.003219348               0.000574046              -0.000297598               0.001172305               0.000874706               0.000000000               0.000000000               0.000000000               0.000000000               0.000274220               0.003309105               0.000485931              -0.000310805               0.001206625               0.000895821               0.000000000               0.000000000               0.000000000               0.000000000               0.000259640               0.003375587               0.000415356              -0.000324583               0.001233379               0.000908796               0.000000000               0.000000000               0.000000000               0.000000000               0.000233072               0.003415262               0.000357995              -0.000339505               0.001251577               0.000912073               0.000000000               0.000000000               0.000000000               0.000000000               0.000200898               0.003424634               0.000309072              -0.000352742               0.001259114               0.000906372               0.000000000               0.000000000               0.000000000               0.000000000               0.000167834               0.003412806               0.000263616              -0.000363662               0.001258811               0.000895149               0.000000000               0.000000000               0.000000000               0.000000000               0.000130229               0.003390609               0.000215669              -0.000374989               0.001255188               0.000880199               0.000000000               0.000000000               0.000000000               0.000000000               0.000083027               0.003366858               0.000163612              -0.000389721               0.001252182               0.000862461               0.000000000               0.000000000               0.000000000               0.000000000               0.000025298               0.003344641               0.000112281              -0.000408592               0.001251067               0.000842474               0.000000000               0.000000000               0.000000000               0.000000000              -0.000041392               0.003325457               0.000067583              -0.000431203               0.001252209               0.000821006               0.000000000               0.000000000               0.000000000               0.000000000              -0.000115328               0.003306206               0.000029421              -0.000456523               0.001254232               0.000797709               0.000000000               0.000000000               0.000000000               0.000000000              -0.000169392               0.003282524               0.000005231              -0.000473836               0.001252109               0.000778273               0.000000000               0.000000000               0.000000000               0.000000000               0.000784560               0.001095336               0.000859087               0.000157291               0.000312677               0.000469968               0.000000000               0.000000000               0.000000000               0.000000000               0.000680960               0.001592423               0.000976524               0.000056306               0.000512033               0.000568339               0.000000000               0.000000000               0.000000000               0.000000000               0.000492497               0.002218132               0.001005382              -0.000092581               0.000770230               0.000677649               0.000000000               0.000000000               0.000000000               0.000000000               0.000414127               0.002576081               0.000891987              -0.000166713               0.000914256               0.000747543               0.000000000               0.000000000               0.000000000               0.000000000               0.000379471               0.002809400               0.000766712              -0.000208873               0.001006082               0.000797208               0.000000000               0.000000000               0.000000000               0.000000000               0.000358765               0.002978976               0.000659457              -0.000237835               0.001072260               0.000834425               0.000000000               0.000000000               0.000000000               0.000000000               0.000344350               0.003114812               0.000567595              -0.000260220               0.001125000               0.000864780               0.000000000               0.000000000               0.000000000               0.000000000               0.000324521               0.003222032               0.000486518              -0.000281058               0.001167686               0.000886628               0.000000000               0.000000000               0.000000000               0.000000000               0.000291760               0.003293655               0.000419950              -0.000302296               0.001198639               0.000896343               0.000000000               0.000000000               0.000000000               0.000000000               0.000254951               0.003330075               0.000367876              -0.000320652               0.001216898               0.000896246               0.000000000               0.000000000               0.000000000               0.000000000               0.000220021               0.003345196               0.000320707              -0.000335641               0.001226934               0.000891293               0.000000000               0.000000000               0.000000000               0.000000000               0.000185585               0.003344227               0.000268546              -0.000348433               0.001230875               0.000882442               0.000000000               0.000000000               0.000000000               0.000000000               0.000145476               0.003332543               0.000212080              -0.000362013               0.001231508               0.000869494               0.000000000               0.000000000               0.000000000               0.000000000               0.000093870               0.003314672               0.000156023              -0.000379132               0.001231257               0.000852125               0.000000000               0.000000000               0.000000000               0.000000000               0.000027622               0.003301105               0.000101231              -0.000402279               0.001234450               0.000832171               0.000000000               0.000000000               0.000000000               0.000000000              -0.000055949               0.003292806               0.000047515              -0.000432581               0.001241785               0.000809204               0.000000000               0.000000000               0.000000000               0.000000000              -0.000123331               0.003274026               0.000013812              -0.000455501               0.001243165               0.000787664               0.000000000               0.000000000               0.000000000               0.000000000               0.000527402               0.000699292               0.000616415               0.000110363               0.000196307               0.000306670               0.000000000               0.000000000               0.000000000               0.000000000               0.000612404               0.001173821               0.000814032               0.000082922               0.000363628               0.000446551               0.000000000               0.000000000               0.000000000               0.000000000               0.000566893               0.001776320               0.000937523              -0.000009456               0.000595252               0.000585796               0.000000000               0.000000000               0.000000000               0.000000000               0.000530811               0.002182742               0.000882337              -0.000073789               0.000752169               0.000678380               0.000000000               0.000000000               0.000000000               0.000000000               0.000502116               0.002471619               0.000786541              -0.000120659               0.000864084               0.000743425               0.000000000               0.000000000               0.000000000               0.000000000               0.000471640               0.002695828               0.000691716              -0.000160114               0.000951971               0.000791858               0.000000000               0.000000000               0.000000000               0.000000000               0.000439675               0.002877688               0.000604611              -0.000194833               0.001024164               0.000829331               0.000000000               0.000000000               0.000000000               0.000000000               0.000410695               0.003021914               0.000525040              -0.000223728               0.001081870               0.000858142               0.000000000               0.000000000               0.000000000               0.000000000               0.000375986               0.003130533               0.000458594              -0.000250322               0.001126941               0.000876620               0.000000000               0.000000000               0.000000000               0.000000000               0.000333692               0.003210247               0.000405960              -0.000276146               0.001162120               0.000885974               0.000000000               0.000000000               0.000000000               0.000000000               0.000289186               0.003261650               0.000360243              -0.000299261               0.001186959               0.000887698               0.000000000               0.000000000               0.000000000               0.000000000               0.000251382               0.003286239               0.000312614              -0.000316511               0.001200906               0.000884395               0.000000000               0.000000000               0.000000000               0.000000000               0.000218501               0.003295202               0.000257898              -0.000329962               0.001208377               0.000878415               0.000000000               0.000000000               0.000000000               0.000000000               0.000179258               0.003295898               0.000197084              -0.000344765               0.001213543               0.000868779               0.000000000               0.000000000               0.000000000               0.000000000               0.000124041               0.003293011               0.000132079              -0.000365110               0.001219363               0.000854253               0.000000000               0.000000000               0.000000000               0.000000000               0.000051166               0.003289647               0.000065745              -0.000392018               0.001227211               0.000835193               0.000000000               0.000000000               0.000000000               0.000000000              -0.000010539               0.003276116               0.000026103              -0.000413465               0.001229850               0.000816384               0.000000000               0.000000000               0.000000000               0.000000000               0.000255341               0.000407131               0.000403699               0.000044861               0.000120755               0.000165616               0.000000000               0.000000000               0.000000000               0.000000000               0.000528051               0.000827532               0.000625785               0.000094576               0.000244315               0.000338891               0.000000000               0.000000000               0.000000000               0.000000000               0.000637697               0.001373239               0.000793448               0.000067480               0.000435248               0.000502728               0.000000000               0.000000000               0.000000000               0.000000000               0.000652619               0.001795256               0.000784138               0.000020324               0.000591638               0.000611962               0.000000000               0.000000000               0.000000000               0.000000000               0.000632135               0.002120975               0.000719406              -0.000028072               0.000716342               0.000688270               0.000000000               0.000000000               0.000000000               0.000000000               0.000596687               0.002388829               0.000642558              -0.000074847               0.000821217               0.000746370               0.000000000               0.000000000               0.000000000               0.000000000               0.000554728               0.002611538               0.000570352              -0.000118419               0.000909977               0.000791558               0.000000000               0.000000000               0.000000000               0.000000000               0.000520030               0.002793311               0.000505260              -0.000154153               0.000982479               0.000828326               0.000000000               0.000000000               0.000000000               0.000000000               0.000483977               0.002941411               0.000445223              -0.000186185               0.001042522               0.000856337               0.000000000               0.000000000               0.000000000               0.000000000               0.000438863               0.003064780               0.000395673              -0.000218524               0.001094424               0.000875901               0.000000000               0.000000000               0.000000000               0.000000000               0.000392051               0.003153540               0.000358583              -0.000247173               0.001133561               0.000886388               0.000000000               0.000000000               0.000000000               0.000000000               0.000351770               0.003209569               0.000322706              -0.000269282               0.001159606               0.000890324               0.000000000               0.000000000               0.000000000               0.000000000               0.000318482               0.003245987               0.000274475              -0.000286317               0.001177424               0.000891107               0.000000000               0.000000000               0.000000000               0.000000000               0.000284356               0.003267415               0.000213180              -0.000301793               0.001189725               0.000887932               0.000000000               0.000000000               0.000000000               0.000000000               0.000246394               0.003279357               0.000145311              -0.000317521               0.001198948               0.000881427               0.000000000               0.000000000               0.000000000               0.000000000               0.000201189               0.003286206               0.000074571              -0.000335329               0.001207167               0.000871838               0.000000000               0.000000000               0.000000000               0.000000000               0.000163556               0.003281688               0.000034752              -0.000348877               0.001210177               0.000861301               0.000000000               0.000000000               0.000000000               0.000000000               0.000013828               0.000214564               0.000231814              -0.000021635               0.000078732               0.000057097               0.000000000               0.000000000               0.000000000               0.000000000               0.000444108               0.000569192               0.000422292               0.000095390               0.000157932               0.000253322               0.000000000               0.000000000               0.000000000               0.000000000               0.000692536               0.001043966               0.000578438               0.000129204               0.000304917               0.000434121               0.000000000               0.000000000               0.000000000               0.000000000               0.000757201               0.001461461               0.000591540               0.000101266               0.000453393               0.000554660               0.000000000               0.000000000               0.000000000               0.000000000               0.000750939               0.001807593               0.000553719               0.000055652               0.000583974               0.000639626               0.000000000               0.000000000               0.000000000               0.000000000               0.000717565               0.002100711               0.000500834               0.000006498               0.000698064               0.000704562               0.000000000               0.000000000               0.000000000               0.000000000               0.000677638               0.002353794               0.000451853              -0.000040110               0.000797960               0.000757850               0.000000000               0.000000000               0.000000000               0.000000000               0.000637965               0.002571729               0.000405376              -0.000082230               0.000884644               0.000802415               0.000000000               0.000000000               0.000000000               0.000000000               0.000597403               0.002757004               0.000356966              -0.000120599               0.000959192               0.000838593               0.000000000               0.000000000               0.000000000               0.000000000               0.000554320               0.002907673               0.000319180              -0.000155589               0.001021077               0.000865489               0.000000000               0.000000000               0.000000000               0.000000000               0.000510418               0.003025069               0.000294957              -0.000186726               0.001070588               0.000883862               0.000000000               0.000000000               0.000000000               0.000000000               0.000467411               0.003116376               0.000270383              -0.000214268               0.001110204               0.000895937               0.000000000               0.000000000               0.000000000               0.000000000               0.000429536               0.003181522               0.000231945              -0.000236614               0.001139368               0.000902754               0.000000000               0.000000000               0.000000000               0.000000000               0.000400047               0.003224461               0.000181634              -0.000253039               0.001159156               0.000906116               0.000000000               0.000000000               0.000000000               0.000000000               0.000380885               0.003254654               0.000125536              -0.000263999               0.001172874               0.000908874               0.000000000               0.000000000               0.000000000               0.000000000               0.000370557               0.003276321               0.000064605              -0.000270581               0.001182290               0.000911709               0.000000000               0.000000000               0.000000000               0.000000000               0.000366032               0.003283207               0.000031957              -0.000273138               0.001185438               0.000912299               0.000000000               0.000000000               0.000000000               0.000000000              -0.000155361               0.000110809               0.000103244              -0.000072112               0.000060973              -0.000011139               0.000000000               0.000000000               0.000000000               0.000000000               0.000381055               0.000411832               0.000211985               0.000091415               0.000106804               0.000198219               0.000000000               0.000000000               0.000000000               0.000000000               0.000726526               0.000826681               0.000304696               0.000169110               0.000219187               0.000388298               0.000000000               0.000000000               0.000000000               0.000000000               0.000827825               0.001233455               0.000318566               0.000156251               0.000359064               0.000515315               0.000000000               0.000000000               0.000000000               0.000000000               0.000836591               0.001587596               0.000302029               0.000115271               0.000490770               0.000606040               0.000000000               0.000000000               0.000000000               0.000000000               0.000810592               0.001889815               0.000275791               0.000067744               0.000607351               0.000675095               0.000000000               0.000000000               0.000000000               0.000000000               0.000773126               0.002161992               0.000251900               0.000019673               0.000714099               0.000733772               0.000000000               0.000000000               0.000000000               0.000000000               0.000728109               0.002405936               0.000226807              -0.000027701               0.000811204               0.000783503               0.000000000               0.000000000               0.000000000               0.000000000               0.000684560               0.002613427               0.000198610              -0.000069968               0.000894456               0.000824488               0.000000000               0.000000000               0.000000000               0.000000000               0.000643883               0.002782484               0.000178907              -0.000106354               0.000962937               0.000856582               0.000000000               0.000000000               0.000000000               0.000000000               0.000598891               0.002919815               0.000167725              -0.000140392               0.001020059               0.000879667               0.000000000               0.000000000               0.000000000               0.000000000               0.000550562               0.003034140               0.000154681              -0.000172806               0.001068972               0.000896166               0.000000000               0.000000000               0.000000000               0.000000000               0.000508623               0.003124552               0.000133815              -0.000199835               0.001108119               0.000908284               0.000000000               0.000000000               0.000000000               0.000000000               0.000484261               0.003192046               0.000105202              -0.000217407               0.001136474               0.000919066               0.000000000               0.000000000               0.000000000               0.000000000               0.000481404               0.003239867               0.000073054              -0.000224456               0.001154764               0.000930307               0.000000000               0.000000000               0.000000000               0.000000000               0.000501457               0.003270512               0.000038591              -0.000220767               0.001163749               0.000942982               0.000000000               0.000000000               0.000000000               0.000000000               0.000526308               0.003284123               0.000020614              -0.000213149               0.001165746               0.000952597               0.000000000               0.000000000               0.000000000               0.000000000              -0.000217833               0.000076247              -0.000000000              -0.000091218               0.000055821              -0.000035397               0.000000000               0.000000000               0.000000000               0.000000000               0.000357040               0.000355904               0.000000000               0.000089401               0.000088833               0.000178234               0.000000000               0.000000000               0.000000000               0.000000000               0.000738760               0.000748838               0.000000000               0.000183429               0.000188467               0.000371896               0.000000000               0.000000000               0.000000000               0.000000000               0.000854320               0.001153486              -0.000000000               0.000176183               0.000325764               0.000501946               0.000000000               0.000000000               0.000000000               0.000000000               0.000867557               0.001508128               0.000000000               0.000136817               0.000457099               0.000593915               0.000000000               0.000000000               0.000000000               0.000000000               0.000845285               0.001811635               0.000000000               0.000090527               0.000573697               0.000664223               0.000000000               0.000000000               0.000000000               0.000000000               0.000807807               0.002091208               0.000000000               0.000041526               0.000683220               0.000724747               0.000000000               0.000000000               0.000000000               0.000000000               0.000759831               0.002343002              -0.000000000              -0.000007939               0.000783639               0.000775700               0.000000000               0.000000000               0.000000000               0.000000000               0.000716732               0.002558371              -0.000000000              -0.000051022               0.000869789               0.000818767               0.000000000               0.000000000               0.000000000               0.000000000               0.000678237               0.002738041              -0.000000000              -0.000087916               0.000941976               0.000854061               0.000000000               0.000000000               0.000000000               0.000000000               0.000630901               0.002881295              -0.000000000              -0.000123574               0.001001613               0.000878040               0.000000000               0.000000000               0.000000000               0.000000000               0.000579515               0.003000903              -0.000000000              -0.000157795               0.001052889               0.000895095               0.000000000               0.000000000               0.000000000               0.000000000               0.000535237               0.003101301              -0.000000000              -0.000186948               0.001096073               0.000909124               0.000000000               0.000000000               0.000000000               0.000000000               0.000511347               0.003180513               0.000000000              -0.000205808               0.001128763               0.000922955               0.000000000               0.000000000               0.000000000               0.000000000               0.000516259               0.003238050              -0.000000000              -0.000211159               0.001149726               0.000938567               0.000000000               0.000000000               0.000000000               0.000000000               0.000549137               0.003270474              -0.000000000              -0.000202882               0.001157774               0.000954892               0.000000000               0.000000000               0.000000000               0.000000000               0.000585612               0.003284294              -0.000000000              -0.000190932               0.001158398               0.000967466               0.000000000               0.000000000               0.000000000               0.000000000               0.000639852               0.007504042               0.000000000              -0.000698059               0.002734009               0.002035950               0.000000000               0.000000000               0.000000000               0.000000000               0.000696215               0.006189840               0.000000000              -0.000512648               0.002234142               0.001721494               0.000000000               0.000000000               0.000000000               0.000000000               0.000968930               0.005134474               0.000000000              -0.000278460               0.001804294               0.001525835               0.000000000               0.000000000               0.000000000               0.000000000               0.001009084               0.004556454               0.000000000              -0.000191150               0.001582519               0.001391370               0.000000000               0.000000000               0.000000000               0.000000000               0.000964911               0.004220472              -0.000000000              -0.000165717               0.001462049               0.001296332               0.000000000               0.000000000               0.000000000               0.000000000               0.000886332               0.004011880              -0.000000000              -0.000169110               0.001393650               0.001224540               0.000000000               0.000000000               0.000000000               0.000000000               0.000794771               0.003878586              -0.000000000              -0.000186784               0.001355110               0.001168326               0.000000000               0.000000000               0.000000000               0.000000000               0.000704293               0.003794310              -0.000000000              -0.000210178               0.001334817               0.001124639               0.000000000               0.000000000               0.000000000               0.000000000               0.000616179               0.003735447              -0.000000000              -0.000235863               0.001323758               0.001087895               0.000000000               0.000000000               0.000000000               0.000000000               0.000526607               0.003694707              -0.000000000              -0.000264360               0.001319677               0.001055317               0.000000000               0.000000000               0.000000000               0.000000000               0.000437299               0.003667780              -0.000000000              -0.000294485               0.001320743               0.001026258               0.000000000               0.000000000               0.000000000               0.000000000               0.000353260               0.003650613               0.000000000              -0.000323853               0.001324810               0.001000956               0.000000000               0.000000000               0.000000000               0.000000000               0.000272833               0.003638918              -0.000000000              -0.000352551               0.001330478               0.000977926               0.000000000               0.000000000               0.000000000               0.000000000               0.000195682               0.003628636              -0.000000000              -0.000380198               0.001336266               0.000956068               0.000000000               0.000000000               0.000000000               0.000000000               0.000124783               0.003618054               0.000000000              -0.000405462               0.001341160               0.000935698               0.000000000               0.000000000               0.000000000               0.000000000               0.000060212               0.003601761               0.000000000              -0.000427640               0.001343122               0.000915482               0.000000000               0.000000000               0.000000000               0.000000000               0.000029107               0.003589030               0.000000000              -0.000437713               0.001342236               0.000904523               0.000000000               0.000000000               0.000000000               0.000000000               0.000680169               0.007370205              -0.000558073              -0.000666211               0.002678781               0.002012570               0.000000000               0.000000000               0.000000000               0.000000000               0.000707514               0.006095804              -0.000348959              -0.000496657               0.002197467               0.001700810               0.000000000               0.000000000               0.000000000               0.000000000               0.000948375               0.005085237              -0.000134663              -0.000280013               0.001788400               0.001508387               0.000000000               0.000000000               0.000000000               0.000000000               0.000972246               0.004531996              -0.000036088              -0.000201907               0.001577952               0.001376046               0.000000000               0.000000000               0.000000000               0.000000000               0.000921206               0.004207519               0.000008989              -0.000180487               0.001462655               0.001282168               0.000000000               0.000000000               0.000000000               0.000000000               0.000843480               0.004004574               0.000029005              -0.000184266               0.001396267               0.001212000               0.000000000               0.000000000               0.000000000               0.000000000               0.000755607               0.003873853               0.000039252              -0.000200879               0.001358231               0.001157353               0.000000000               0.000000000               0.000000000               0.000000000               0.000668752               0.003788772               0.000041865              -0.000222814               0.001337183               0.001114369               0.000000000               0.000000000               0.000000000               0.000000000               0.000583661               0.003729993               0.000041263              -0.000247376               0.001325777               0.001078402               0.000000000               0.000000000               0.000000000               0.000000000               0.000497404               0.003688966               0.000041736              -0.000274594               0.001321174               0.001046581               0.000000000               0.000000000               0.000000000               0.000000000               0.000412408               0.003662348               0.000041641              -0.000303140               0.001321817               0.001018677               0.000000000               0.000000000               0.000000000               0.000000000               0.000331473               0.003646431               0.000040298              -0.000331501               0.001325965               0.000994464               0.000000000               0.000000000               0.000000000               0.000000000               0.000253526               0.003636020               0.000037129              -0.000359429               0.001331804               0.000972375               0.000000000               0.000000000               0.000000000               0.000000000               0.000180866               0.003627808               0.000032816              -0.000385651               0.001337808               0.000952157               0.000000000               0.000000000               0.000000000               0.000000000               0.000115570               0.003620253               0.000026620              -0.000409192               0.001343136               0.000933944               0.000000000               0.000000000               0.000000000               0.000000000               0.000054916               0.003609653               0.000016081              -0.000430612               0.001346743               0.000916131               0.000000000               0.000000000               0.000000000               0.000000000               0.000026012               0.003602901               0.000009418              -0.000440607               0.001347824               0.000907217               0.000000000               0.000000000               0.000000000               0.000000000               0.000786711               0.006989464              -0.001052265              -0.000578665               0.002522686               0.001944021               0.000000000               0.000000000               0.000000000               0.000000000               0.000733242               0.005831055              -0.000661903              -0.000453915               0.002094970               0.001641055               0.000000000               0.000000000               0.000000000               0.000000000               0.000886639               0.004945487              -0.000264024              -0.000285696               0.001743711               0.001458015               0.000000000               0.000000000               0.000000000               0.000000000               0.000873056               0.004457987              -0.000083928              -0.000229852               0.001562598               0.001332746               0.000000000               0.000000000               0.000000000               0.000000000               0.000809715               0.004167393              -0.000001305              -0.000217281               0.001461544               0.001244263               0.000000000               0.000000000               0.000000000               0.000000000               0.000733061               0.003982101               0.000036805              -0.000222864               0.001401642               0.001178778               0.000000000               0.000000000               0.000000000               0.000000000               0.000650485               0.003858476               0.000056982              -0.000238377               0.001365605               0.001127228               0.000000000               0.000000000               0.000000000               0.000000000               0.000572540               0.003776910               0.000063080              -0.000257411               0.001344761               0.001087350               0.000000000               0.000000000               0.000000000               0.000000000               0.000498849               0.003721187               0.000062119              -0.000278080               0.001333076               0.001054997               0.000000000               0.000000000               0.000000000               0.000000000               0.000424181               0.003682684               0.000062550              -0.000301267               0.001327972               0.001026705               0.000000000               0.000000000               0.000000000               0.000000000               0.000350646               0.003658872               0.000062780              -0.000325866               0.001328234               0.001002368               0.000000000               0.000000000               0.000000000               0.000000000               0.000279880               0.003645610               0.000060512              -0.000350745               0.001332106               0.000981361               0.000000000               0.000000000               0.000000000               0.000000000               0.000212822               0.003637812               0.000054855              -0.000374917               0.001337564               0.000962647               0.000000000               0.000000000               0.000000000               0.000000000               0.000152496               0.003633665               0.000047286              -0.000397021               0.001343550               0.000946529               0.000000000               0.000000000               0.000000000               0.000000000               0.000098693               0.003633125               0.000037719              -0.000417130               0.001350073               0.000932943               0.000000000               0.000000000               0.000000000               0.000000000               0.000047140               0.003637420               0.000022559              -0.000436999               0.001358128               0.000921129               0.000000000               0.000000000               0.000000000               0.000000000               0.000024645               0.003646735               0.000011829              -0.000446599               0.001364432               0.000917834               0.000000000               0.000000000               0.000000000               0.000000000               0.000927109               0.006412138              -0.001439487              -0.000453851               0.002288642               0.001834790               0.000000000               0.000000000               0.000000000               0.000000000               0.000759566               0.005435964              -0.000913808              -0.000394658               0.001943523               0.001548865               0.000000000               0.000000000               0.000000000               0.000000000               0.000791233               0.004738571              -0.000381112              -0.000295608               0.001678044               0.001382436               0.000000000               0.000000000               0.000000000               0.000000000               0.000733380               0.004343468              -0.000146410              -0.000267915               0.001537113               0.001269198               0.000000000               0.000000000               0.000000000               0.000000000               0.000659045               0.004100932              -0.000038310              -0.000265474               0.001455455               0.001189981               0.000000000               0.000000000               0.000000000               0.000000000               0.000589634               0.003943470               0.000011694              -0.000271820               0.001405084               0.001133263               0.000000000               0.000000000               0.000000000               0.000000000               0.000519746               0.003836519               0.000038099              -0.000284659               0.001373713               0.001089054               0.000000000               0.000000000               0.000000000               0.000000000               0.000451560               0.003763374               0.000047969              -0.000301086               0.001354808               0.001053721               0.000000000               0.000000000               0.000000000               0.000000000               0.000390603               0.003714739               0.000047667              -0.000317866               0.001344189               0.001026324               0.000000000               0.000000000               0.000000000               0.000000000               0.000331400               0.003681023               0.000049296              -0.000335852               0.001338946               0.001003094               0.000000000               0.000000000               0.000000000               0.000000000               0.000274020               0.003659951               0.000051323              -0.000354736               0.001338217               0.000983481               0.000000000               0.000000000               0.000000000               0.000000000               0.000220914               0.003648904               0.000049836              -0.000373269               0.001340712               0.000967443               0.000000000               0.000000000               0.000000000               0.000000000               0.000170942               0.003645290               0.000043718              -0.000391557               0.001345603               0.000954046               0.000000000               0.000000000               0.000000000               0.000000000               0.000125304               0.003648337               0.000035129              -0.000409052               0.001352451               0.000943399               0.000000000               0.000000000               0.000000000               0.000000000               0.000083482               0.003659890               0.000026220              -0.000426179               0.001362011               0.000935832               0.000000000               0.000000000               0.000000000               0.000000000               0.000041027               0.003683703               0.000014859              -0.000445077               0.001376247               0.000931171               0.000000000               0.000000000               0.000000000               0.000000000               0.000026416               0.003712607               0.000004410              -0.000454169               0.001388913               0.000934744               0.000000000               0.000000000               0.000000000               0.000000000               0.001069708               0.005702270              -0.001693348              -0.000311644               0.002004619               0.001692975               0.000000000               0.000000000               0.000000000               0.000000000               0.000778014               0.004957427              -0.001090702              -0.000327923               0.001761766               0.001433844               0.000000000               0.000000000               0.000000000               0.000000000               0.000675059               0.004488413              -0.000484498              -0.000307904               0.001598757               0.001290853               0.000000000               0.000000000               0.000000000               0.000000000               0.000580838               0.004201979              -0.000224642              -0.000307432               0.001503123               0.001195691               0.000000000               0.000000000               0.000000000               0.000000000               0.000505581               0.004013398              -0.000103284              -0.000312081               0.001441813               0.001129732               0.000000000               0.000000000               0.000000000               0.000000000               0.000443472               0.003884993              -0.000046152              -0.000319321               0.001401425               0.001082104               0.000000000               0.000000000               0.000000000               0.000000000               0.000387528               0.003797313              -0.000015201              -0.000329340               0.001375538               0.001046198               0.000000000               0.000000000               0.000000000               0.000000000               0.000336311               0.003736681               0.000001045              -0.000340968               0.001359204               0.001018236               0.000000000               0.000000000               0.000000000               0.000000000               0.000289699               0.003699968               0.000004749              -0.000353858               0.001351263               0.000997405               0.000000000               0.000000000               0.000000000               0.000000000               0.000245334               0.003674672               0.000007529              -0.000367333               0.001347323               0.000979990               0.000000000               0.000000000               0.000000000               0.000000000               0.000205557               0.003658087               0.000012383              -0.000380176               0.001346075               0.000965899               0.000000000               0.000000000               0.000000000               0.000000000               0.000172172               0.003651631               0.000013859              -0.000391888               0.001347828               0.000955939               0.000000000               0.000000000               0.000000000               0.000000000               0.000140918               0.003654469               0.000009769              -0.000403963               0.001352799               0.000948835               0.000000000               0.000000000               0.000000000               0.000000000               0.000108525               0.003667000               0.000001962              -0.000417677               0.001361547               0.000943870               0.000000000               0.000000000               0.000000000               0.000000000               0.000074449               0.003689249              -0.000003995              -0.000433237               0.001374150               0.000940913               0.000000000               0.000000000               0.000000000               0.000000000               0.000038105               0.003723484              -0.000004951              -0.000451145               0.001391531               0.000940385               0.000000000               0.000000000               0.000000000               0.000000000               0.000027973               0.003758489              -0.000008840              -0.000459320               0.001405924               0.000946604               0.000000000               0.000000000               0.000000000               0.000000000               0.001178622               0.004925478              -0.001808207              -0.000173703               0.001699710               0.001526007               0.000000000               0.000000000               0.000000000               0.000000000               0.000778845               0.004441793              -0.001195641              -0.000263158               0.001568302               0.001305144               0.000000000               0.000000000               0.000000000               0.000000000               0.000557589               0.004217691              -0.000579090              -0.000318115               0.001511921               0.001193806               0.000000000               0.000000000               0.000000000               0.000000000               0.000442402               0.004038516              -0.000317005              -0.000338913               0.001459130               0.001120216               0.000000000               0.000000000               0.000000000               0.000000000               0.000373929               0.003902882              -0.000191125              -0.000347636               0.001416826               0.001069190               0.000000000               0.000000000               0.000000000               0.000000000               0.000325975               0.003806653              -0.000126788              -0.000353590               0.001386735               0.001033145               0.000000000               0.000000000               0.000000000               0.000000000               0.000285290               0.003738234              -0.000087090              -0.000360295               0.001366164               0.001005869               0.000000000               0.000000000               0.000000000               0.000000000               0.000248818               0.003694177              -0.000061449              -0.000368464               0.001354201               0.000985737               0.000000000               0.000000000               0.000000000               0.000000000               0.000215578               0.003670966              -0.000052134              -0.000378028               0.001349653               0.000971624               0.000000000               0.000000000               0.000000000               0.000000000               0.000186037               0.003658611              -0.000050837              -0.000387562               0.001348712               0.000961150               0.000000000               0.000000000               0.000000000               0.000000000               0.000161725               0.003649603              -0.000045951              -0.000395553               0.001348373               0.000952820               0.000000000               0.000000000               0.000000000               0.000000000               0.000142246               0.003647439              -0.000042046              -0.000402587               0.001349996               0.000947410               0.000000000               0.000000000               0.000000000               0.000000000               0.000119797               0.003651526              -0.000041547              -0.000411516               0.001354335               0.000942819               0.000000000               0.000000000               0.000000000               0.000000000               0.000092174               0.003664008              -0.000042894              -0.000423435               0.001362469               0.000939034               0.000000000               0.000000000               0.000000000               0.000000000               0.000062204               0.003683154              -0.000039934              -0.000437067               0.001373395               0.000936328               0.000000000               0.000000000               0.000000000               0.000000000               0.000031612               0.003704026              -0.000025815              -0.000451148               0.001385046               0.000933898               0.000000000               0.000000000               0.000000000               0.000000000               0.000019668               0.003718943              -0.000017498              -0.000457491               0.001392132               0.000934641               0.000000000               0.000000000               0.000000000               0.000000000               0.001232478               0.004143290              -0.001802159              -0.000055734               0.001399660               0.001343926               0.000000000               0.000000000               0.000000000               0.000000000               0.000762730               0.003929734              -0.001240473              -0.000205194               0.001378296               0.001173102               0.000000000               0.000000000               0.000000000               0.000000000               0.000453077               0.003944159              -0.000665923              -0.000323115               0.001422411               0.001099296               0.000000000               0.000000000               0.000000000               0.000000000               0.000332845               0.003860730              -0.000415331              -0.000357773               0.001406155               0.001048381               0.000000000               0.000000000               0.000000000               0.000000000               0.000278763               0.003775800              -0.000283930              -0.000367438               0.001381067               0.001013629               0.000000000               0.000000000               0.000000000               0.000000000               0.000248002               0.003713625              -0.000209552              -0.000371202               0.001361596               0.000990395               0.000000000               0.000000000               0.000000000               0.000000000               0.000222100               0.003672243              -0.000163166              -0.000375742               0.001349316               0.000973574               0.000000000               0.000000000               0.000000000               0.000000000               0.000197566               0.003650274              -0.000132207              -0.000382196               0.001344144               0.000961948               0.000000000               0.000000000               0.000000000               0.000000000               0.000174199               0.003639761              -0.000117944              -0.000389645               0.001343123               0.000953479               0.000000000               0.000000000               0.000000000               0.000000000               0.000153892               0.003633191              -0.000115339              -0.000396439               0.001343198               0.000946759               0.000000000               0.000000000               0.000000000               0.000000000               0.000135239               0.003624929              -0.000108197              -0.000402401               0.001342431               0.000940031               0.000000000               0.000000000               0.000000000               0.000000000               0.000116609               0.003619518              -0.000096205              -0.000408710               0.001342731               0.000934020               0.000000000               0.000000000               0.000000000               0.000000000               0.000094426               0.003619489              -0.000083999              -0.000417025               0.001345493               0.000928467               0.000000000               0.000000000               0.000000000               0.000000000               0.000067105               0.003623080              -0.000069392              -0.000427720               0.001350254               0.000922535               0.000000000               0.000000000               0.000000000               0.000000000               0.000039076               0.003627301              -0.000050862              -0.000438758               0.001355341               0.000916583               0.000000000               0.000000000               0.000000000               0.000000000               0.000016177               0.003623581              -0.000026192              -0.000446880               0.001356808               0.000909928               0.000000000               0.000000000               0.000000000               0.000000000               0.000002480               0.003610924              -0.000009586              -0.000450434               0.001353774               0.000903340               0.000000000               0.000000000               0.000000000               0.000000000               0.001234170               0.003407536              -0.001698982               0.000036869               0.001123543               0.001160413               0.000000000               0.000000000               0.000000000               0.000000000               0.000732903               0.003454623              -0.001236514              -0.000156990               0.001203859               0.001046869               0.000000000               0.000000000               0.000000000               0.000000000               0.000374744               0.003674653              -0.000743599              -0.000318802               0.001331139               0.001012337               0.000000000               0.000000000               0.000000000               0.000000000               0.000264424               0.003675718              -0.000507751              -0.000360305               0.001345329               0.000985024               0.000000000               0.000000000               0.000000000               0.000000000               0.000225557               0.003641650              -0.000368750              -0.000370621               0.001337412               0.000966790               0.000000000               0.000000000               0.000000000               0.000000000               0.000209661               0.003616777              -0.000284564              -0.000373473               0.001330071               0.000956598               0.000000000               0.000000000               0.000000000               0.000000000               0.000193789               0.003607761              -0.000233779              -0.000378298               0.001328675               0.000950376               0.000000000               0.000000000               0.000000000               0.000000000               0.000175259               0.003606218              -0.000199165              -0.000385054               0.001330412               0.000945358               0.000000000               0.000000000               0.000000000               0.000000000               0.000156491               0.003600849              -0.000176889              -0.000391421               0.001330745               0.000939324               0.000000000               0.000000000               0.000000000               0.000000000               0.000136153               0.003590033              -0.000164595              -0.000397696               0.001329231               0.000931535               0.000000000               0.000000000               0.000000000               0.000000000               0.000112294               0.003578363              -0.000147761              -0.000405184               0.001327837               0.000922653               0.000000000               0.000000000               0.000000000               0.000000000               0.000083448               0.003566769              -0.000121415              -0.000414552               0.001327095               0.000912543               0.000000000               0.000000000               0.000000000               0.000000000               0.000053439               0.003555942              -0.000091199              -0.000424452               0.001326786               0.000902334               0.000000000               0.000000000               0.000000000               0.000000000               0.000025291               0.003545065              -0.000060098              -0.000433648               0.001326226               0.000892578               0.000000000               0.000000000               0.000000000               0.000000000               0.000002333               0.003528773              -0.000030788              -0.000440221               0.001322986               0.000882766               0.000000000               0.000000000               0.000000000               0.000000000              -0.000007866               0.003502782              -0.000008719              -0.000440796               0.001314514               0.000873718               0.000000000               0.000000000               0.000000000               0.000000000              -0.000013334               0.003477111               0.000002761              -0.000439638               0.001305571               0.000865933               0.000000000               0.000000000               0.000000000               0.000000000               0.001210192               0.002772358              -0.001530104               0.000107275               0.000888351               0.000995626               0.000000000               0.000000000               0.000000000               0.000000000               0.000714889               0.003032053              -0.001208923              -0.000110924               0.001047649               0.000936724               0.000000000               0.000000000               0.000000000               0.000000000               0.000340195               0.003424600              -0.000828847              -0.000300502               0.001241689               0.000941187               0.000000000               0.000000000               0.000000000               0.000000000               0.000244338               0.003510298              -0.000602805              -0.000347160               0.001285808               0.000938648               0.000000000               0.000000000               0.000000000               0.000000000               0.000215209               0.003528258              -0.000456642              -0.000360328               0.001296184               0.000935856               0.000000000               0.000000000               0.000000000               0.000000000               0.000205543               0.003540906              -0.000362136              -0.000365534               0.001302135               0.000936601               0.000000000               0.000000000               0.000000000               0.000000000               0.000195478               0.003558718              -0.000302596              -0.000371535               0.001310072               0.000938538               0.000000000               0.000000000               0.000000000               0.000000000               0.000178030               0.003570297              -0.000260616              -0.000379525               0.001316595               0.000937070               0.000000000               0.000000000               0.000000000               0.000000000               0.000159111               0.003565866              -0.000227599              -0.000386066               0.001317299               0.000931233               0.000000000               0.000000000               0.000000000               0.000000000               0.000136247               0.003549324              -0.000200568              -0.000392572               0.001313954               0.000921382               0.000000000               0.000000000               0.000000000               0.000000000               0.000108310               0.003534158              -0.000171998              -0.000401152               0.001311758               0.000910606               0.000000000               0.000000000               0.000000000               0.000000000               0.000071928               0.003516703              -0.000135191              -0.000412614               0.001309761               0.000897147               0.000000000               0.000000000               0.000000000               0.000000000               0.000031159               0.003496720              -0.000092936              -0.000425404               0.001307363               0.000881959               0.000000000               0.000000000               0.000000000               0.000000000              -0.000010322               0.003471855              -0.000052981              -0.000437852               0.001303224               0.000865372               0.000000000               0.000000000               0.000000000               0.000000000              -0.000044373               0.003436966              -0.000021717              -0.000446260               0.001294397               0.000848137               0.000000000               0.000000000               0.000000000               0.000000000              -0.000062312               0.003391304              -0.000002142              -0.000447279               0.001279516               0.000832237               0.000000000               0.000000000               0.000000000               0.000000000              -0.000066047               0.003360306               0.000005280              -0.000444805               0.001268359               0.000823554               0.000000000               0.000000000               0.000000000               0.000000000               0.001142854               0.002161909              -0.001331144               0.000158329               0.000667852               0.000826181               0.000000000               0.000000000               0.000000000               0.000000000               0.000722806               0.002543989              -0.001170488              -0.000046948               0.000863637               0.000816689               0.000000000               0.000000000               0.000000000               0.000000000               0.000361199               0.003064257              -0.000928020              -0.000247583               0.001103936               0.000856353               0.000000000               0.000000000               0.000000000               0.000000000               0.000264358               0.003248884              -0.000719936              -0.000306976               0.001185276               0.000878300               0.000000000               0.000000000               0.000000000               0.000000000               0.000238471               0.003334908              -0.000569514              -0.000327436               0.001220770               0.000893334               0.000000000               0.000000000               0.000000000               0.000000000               0.000232384               0.003398682              -0.000463374              -0.000337691               0.001245446               0.000907756               0.000000000               0.000000000               0.000000000               0.000000000               0.000227638               0.003450417              -0.000388172              -0.000345937               0.001265440               0.000919503               0.000000000               0.000000000               0.000000000               0.000000000               0.000211255               0.003484301              -0.000332220              -0.000356316               0.001280194               0.000923878               0.000000000               0.000000000               0.000000000               0.000000000               0.000188289               0.003495894              -0.000287149              -0.000366378               0.001287412               0.000921034               0.000000000               0.000000000               0.000000000               0.000000000               0.000160259               0.003486725              -0.000247544              -0.000375743               0.001287478               0.000911735               0.000000000               0.000000000               0.000000000               0.000000000               0.000126425               0.003464915              -0.000208358              -0.000385704               0.001283528               0.000897824               0.000000000               0.000000000               0.000000000               0.000000000               0.000084067               0.003437128              -0.000164206              -0.000398115               0.001278403               0.000880288               0.000000000               0.000000000               0.000000000               0.000000000               0.000035614               0.003412677              -0.000116262              -0.000413228               0.001275290               0.000862062               0.000000000               0.000000000               0.000000000               0.000000000              -0.000017517               0.003389400              -0.000071137              -0.000430243               0.001273203               0.000842960               0.000000000               0.000000000               0.000000000               0.000000000              -0.000069915               0.003363721              -0.000035470              -0.000446682               0.001270123               0.000823441               0.000000000               0.000000000               0.000000000               0.000000000              -0.000115082               0.003327721              -0.000011519              -0.000459120               0.001262269               0.000803149               0.000000000               0.000000000               0.000000000               0.000000000              -0.000140114               0.003298629               0.000000085              -0.000464870               0.001254489               0.000789619               0.000000000               0.000000000               0.000000000               0.000000000               0.000996747               0.001592229              -0.001106250               0.000174749               0.000472488               0.000647236               0.000000000               0.000000000               0.000000000               0.000000000               0.000721143               0.002058435              -0.001098691               0.000013122               0.000681763               0.000694886               0.000000000               0.000000000               0.000000000               0.000000000               0.000421137               0.002660493              -0.001000084              -0.000174636               0.000945034               0.000770398               0.000000000               0.000000000               0.000000000               0.000000000               0.000322320               0.002940265              -0.000831740              -0.000246663               0.001062299               0.000815636               0.000000000               0.000000000               0.000000000               0.000000000               0.000290287               0.003103275              -0.000686150              -0.000279052               0.001127432               0.000848380               0.000000000               0.000000000               0.000000000               0.000000000               0.000279519               0.003219348              -0.000574046              -0.000297598               0.001172305               0.000874706               0.000000000               0.000000000               0.000000000               0.000000000               0.000274220               0.003309105              -0.000485931              -0.000310805               0.001206625               0.000895821               0.000000000               0.000000000               0.000000000               0.000000000               0.000259640               0.003375587              -0.000415356              -0.000324583               0.001233379               0.000908796               0.000000000               0.000000000               0.000000000               0.000000000               0.000233072               0.003415262              -0.000357995              -0.000339505               0.001251577               0.000912073               0.000000000               0.000000000               0.000000000               0.000000000               0.000200898               0.003424634              -0.000309072              -0.000352742               0.001259114               0.000906372               0.000000000               0.000000000               0.000000000               0.000000000               0.000167834               0.003412806              -0.000263616              -0.000363662               0.001258811               0.000895149               0.000000000               0.000000000               0.000000000               0.000000000               0.000130229               0.003390609              -0.000215669              -0.000374989               0.001255188               0.000880199               0.000000000               0.000000000               0.000000000               0.000000000               0.000083027               0.003366858              -0.000163612              -0.000389721               0.001252182               0.000862461               0.000000000               0.000000000               0.000000000               0.000000000               0.000025298               0.003344641              -0.000112281              -0.000408592               0.001251067               0.000842474               0.000000000               0.000000000               0.000000000               0.000000000              -0.000041392               0.003325457              -0.000067583              -0.000431203               0.001252209               0.000821006               0.000000000               0.000000000               0.000000000               0.000000000              -0.000115328               0.003306206              -0.000029421              -0.000456523               0.001254232               0.000797709               0.000000000               0.000000000               0.000000000               0.000000000              -0.000169392               0.003282524              -0.000005231              -0.000473836               0.001252109               0.000778273               0.000000000               0.000000000               0.000000000               0.000000000               0.000784560               0.001095336              -0.000859087               0.000157291               0.000312677               0.000469968               0.000000000               0.000000000               0.000000000               0.000000000               0.000680960               0.001592423              -0.000976524               0.000056306               0.000512033               0.000568339               0.000000000               0.000000000               0.000000000               0.000000000               0.000492497               0.002218132              -0.001005382              -0.000092581               0.000770230               0.000677649               0.000000000               0.000000000               0.000000000               0.000000000               0.000414127               0.002576081              -0.000891987              -0.000166713               0.000914256               0.000747543               0.000000000               0.000000000               0.000000000               0.000000000               0.000379471               0.002809400              -0.000766712              -0.000208873               0.001006082               0.000797208               0.000000000               0.000000000               0.000000000               0.000000000               0.000358765               0.002978976              -0.000659457              -0.000237835               0.001072260               0.000834425               0.000000000               0.000000000               0.000000000               0.000000000               0.000344350               0.003114812              -0.000567595              -0.000260220               0.001125000               0.000864780               0.000000000               0.000000000               0.000000000               0.000000000               0.000324521               0.003222032              -0.000486518              -0.000281058               0.001167686               0.000886628               0.000000000               0.000000000               0.000000000               0.000000000               0.000291760               0.003293655              -0.000419950              -0.000302296               0.001198639               0.000896343               0.000000000               0.000000000               0.000000000               0.000000000               0.000254951               0.003330075              -0.000367876              -0.000320652               0.001216898               0.000896246               0.000000000               0.000000000               0.000000000               0.000000000               0.000220021               0.003345196              -0.000320707              -0.000335641               0.001226934               0.000891293               0.000000000               0.000000000               0.000000000               0.000000000               0.000185585               0.003344227              -0.000268546              -0.000348433               0.001230875               0.000882442               0.000000000               0.000000000               0.000000000               0.000000000               0.000145476               0.003332543              -0.000212080              -0.000362013               0.001231508               0.000869494               0.000000000               0.000000000               0.000000000               0.000000000               0.000093870               0.003314672              -0.000156023              -0.000379132               0.001231257               0.000852125               0.000000000               0.000000000               0.000000000               0.000000000               0.000027622               0.003301105              -0.000101231              -0.000402279               0.001234450               0.000832171               0.000000000               0.000000000               0.000000000               0.000000000              -0.000055949               0.003292806              -0.000047515              -0.000432581               0.001241785               0.000809204               0.000000000               0.000000000               0.000000000               0.000000000              -0.000123331               0.003274026              -0.000013812              -0.000455501               0.001243165               0.000787664               0.000000000               0.000000000               0.000000000               0.000000000               0.000527402               0.000699292              -0.000616415               0.000110363               0.000196307               0.000306670               0.000000000               0.000000000               0.000000000               0.000000000               0.000612404               0.001173821              -0.000814032               0.000082922               0.000363628               0.000446551               0.000000000               0.000000000               0.000000000               0.000000000               0.000566893               0.001776320              -0.000937523              -0.000009456               0.000595252               0.000585796               0.000000000               0.000000000               0.000000000               0.000000000               0.000530811               0.002182742              -0.000882337              -0.000073789               0.000752169               0.000678380               0.000000000               0.000000000               0.000000000               0.000000000               0.000502116               0.002471619              -0.000786541              -0.000120659               0.000864084               0.000743425               0.000000000               0.000000000               0.000000000               0.000000000               0.000471640               0.002695828              -0.000691716              -0.000160114               0.000951971               0.000791858               0.000000000               0.000000000               0.000000000               0.000000000               0.000439675               0.002877688              -0.000604611              -0.000194833               0.001024164               0.000829331               0.000000000               0.000000000               0.000000000               0.000000000               0.000410695               0.003021914              -0.000525040              -0.000223728               0.001081870               0.000858142               0.000000000               0.000000000               0.000000000               0.000000000               0.000375986               0.003130533              -0.000458594              -0.000250322               0.001126941               0.000876620               0.000000000               0.000000000               0.000000000               0.000000000               0.000333692               0.003210247              -0.000405960              -0.000276146               0.001162120               0.000885974               0.000000000               0.000000000               0.000000000               0.000000000               0.000289186               0.003261650              -0.000360243              -0.000299261               0.001186959               0.000887698               0.000000000               0.000000000               0.000000000               0.000000000               0.000251382               0.003286239              -0.000312614              -0.000316511               0.001200906               0.000884395               0.000000000               0.000000000               0.000000000               0.000000000               0.000218501               0.003295202              -0.000257898              -0.000329962               0.001208377               0.000878415               0.000000000               0.000000000               0.000000000               0.000000000               0.000179258               0.003295898              -0.000197084              -0.000344765               0.001213543               0.000868779               0.000000000               0.000000000               0.000000000               0.000000000               0.000124041               0.003293011              -0.000132079              -0.000365110               0.001219363               0.000854253               0.000000000               0.000000000               0.000000000               0.000000000               0.000051166               0.003289647              -0.000065745              -0.000392018               0.001227211               0.000835193               0.000000000               0.000000000               0.000000000               0.000000000              -0.000010539               0.003276116              -0.000026103              -0.000413465               0.001229850               0.000816384               0.000000000               0.000000000               0.000000000               0.000000000               0.000255341               0.000407131              -0.000403699               0.000044861               0.000120755               0.000165616               0.000000000               0.000000000               0.000000000               0.000000000               0.000528051               0.000827532              -0.000625785               0.000094576               0.000244315               0.000338891               0.000000000               0.000000000               0.000000000               0.000000000               0.000637697               0.001373239              -0.000793448               0.000067480               0.000435248               0.000502728               0.000000000               0.000000000               0.000000000               0.000000000               0.000652619               0.001795256              -0.000784138               0.000020324               0.000591638               0.000611962               0.000000000               0.000000000               0.000000000               0.000000000               0.000632135               0.002120975              -0.000719406              -0.000028072               0.000716342               0.000688270               0.000000000               0.000000000               0.000000000               0.000000000               0.000596687               0.002388829              -0.000642558              -0.000074847               0.000821217               0.000746370               0.000000000               0.000000000               0.000000000               0.000000000               0.000554728               0.002611538              -0.000570352              -0.000118419               0.000909977               0.000791558               0.000000000               0.000000000               0.000000000               0.000000000               0.000520030               0.002793311              -0.000505260              -0.000154153               0.000982479               0.000828326               0.000000000               0.000000000               0.000000000               0.000000000               0.000483977               0.002941411              -0.000445223              -0.000186185               0.001042522               0.000856337               0.000000000               0.000000000               0.000000000               0.000000000               0.000438863               0.003064780              -0.000395673              -0.000218524               0.001094424               0.000875901               0.000000000               0.000000000               0.000000000               0.000000000               0.000392051               0.003153540              -0.000358583              -0.000247173               0.001133561               0.000886388               0.000000000               0.000000000               0.000000000               0.000000000               0.000351770               0.003209569              -0.000322706              -0.000269282               0.001159606               0.000890324               0.000000000               0.000000000               0.000000000               0.000000000               0.000318482               0.003245987              -0.000274475              -0.000286317               0.001177424               0.000891107               0.000000000               0.000000000               0.000000000               0.000000000               0.000284356               0.003267415              -0.000213180              -0.000301793               0.001189725               0.000887932               0.000000000               0.000000000               0.000000000               0.000000000               0.000246394               0.003279357              -0.000145311              -0.000317521               0.001198948               0.000881427               0.000000000               0.000000000               0.000000000               0.000000000               0.000201189               0.003286206              -0.000074571              -0.000335329               0.001207167               0.000871838               0.000000000               0.000000000               0.000000000               0.000000000               0.000163556               0.003281688              -0.000034752              -0.000348877               0.001210177               0.000861301               0.000000000               0.000000000               0.000000000               0.000000000               0.000013828               0.000214564              -0.000231814              -0.000021635               0.000078732               0.000057097               0.000000000               0.000000000               0.000000000               0.000000000               0.000444108               0.000569192              -0.000422292               0.000095390               0.000157932               0.000253322               0.000000000               0.000000000               0.000000000               0.000000000               0.000692536               0.001043966              -0.000578438               0.000129204               0.000304917               0.000434121               0.000000000               0.000000000               0.000000000               0.000000000               0.000757201               0.001461461              -0.000591540               0.000101266               0.000453393               0.000554660               0.000000000               0.000000000               0.000000000               0.000000000               0.000750939               0.001807593              -0.000553719               0.000055652               0.000583974               0.000639626               0.000000000               0.000000000               0.000000000               0.000000000               0.000717565               0.002100711              -0.000500834               0.000006498               0.000698064               0.000704562               0.000000000               0.000000000               0.000000000               0.000000000               0.000677638               0.002353794              -0.000451853              -0.000040110               0.000797960               0.000757850               0.000000000               0.000000000               0.000000000               0.000000000               0.000637965               0.002571729              -0.000405376              -0.000082230               0.000884644               0.000802415               0.000000000               0.000000000               0.000000000               0.000000000               0.000597403               0.002757004              -0.000356966              -0.000120599               0.000959192               0.000838593               0.000000000               0.000000000               0.000000000               0.000000000               0.000554320               0.002907673              -0.000319180              -0.000155589               0.001021077               0.000865489               0.000000000               0.000000000               0.000000000               0.000000000               0.000510418               0.003025069              -0.000294957              -0.000186726               0.001070588               0.000883862               0.000000000               0.000000000               0.000000000               0.000000000               0.000467411               0.003116376              -0.000270383              -0.000214268               0.001110204               0.000895937               0.000000000               0.000000000               0.000000000               0.000000000               0.000429536               0.003181522              -0.000231945              -0.000236614               0.001139368               0.000902754               0.000000000               0.000000000               0.000000000               0.000000000               0.000400047               0.003224461              -0.000181634              -0.000253039               0.001159156               0.000906116               0.000000000               0.000000000               0.000000000               0.000000000               0.000380885               0.003254654              -0.000125536              -0.000263999               0.001172874               0.000908874               0.000000000               0.000000000               0.000000000               0.000000000               0.000370557               0.003276321              -0.000064605              -0.000270581               0.001182290               0.000911709               0.000000000               0.000000000               0.000000000               0.000000000               0.000366032               0.003283207              -0.000031957              -0.000273138               0.001185438               0.000912299               0.000000000               0.000000000               0.000000000               0.000000000              -0.000155361               0.000110809              -0.000103244              -0.000072112               0.000060973              -0.000011139               0.000000000               0.000000000               0.000000000               0.000000000               0.000381055               0.000411832              -0.000211985               0.000091415               0.000106804               0.000198219               0.000000000               0.000000000               0.000000000               0.000000000               0.000726526               0.000826681              -0.000304696               0.000169110               0.000219187               0.000388298               0.000000000               0.000000000               0.000000000               0.000000000               0.000827825               0.001233455              -0.000318566               0.000156251               0.000359064               0.000515315               0.000000000               0.000000000               0.000000000               0.000000000               0.000836591               0.001587596              -0.000302029               0.000115271               0.000490770               0.000606040               0.000000000               0.000000000               0.000000000               0.000000000               0.000810592               0.001889815              -0.000275791               0.000067744               0.000607351               0.000675095               0.000000000               0.000000000               0.000000000               0.000000000               0.000773126               0.002161992              -0.000251900               0.000019673               0.000714099               0.000733772               0.000000000               0.000000000               0.000000000               0.000000000               0.000728109               0.002405936              -0.000226807              -0.000027701               0.000811204               0.000783503               0.000000000               0.000000000               0.000000000               0.000000000               0.000684560               0.002613427              -0.000198610              -0.000069968               0.000894456               0.000824488               0.000000000               0.000000000               0.000000000               0.000000000               0.000643883               0.002782484              -0.000178907              -0.000106354               0.000962937               0.000856582               0.000000000               0.000000000               0.000000000               0.000000000               0.000598891               0.002919815              -0.000167725              -0.000140392               0.001020059               0.000879667               0.000000000               0.000000000               0.000000000               0.000000000               0.000550562               0.003034140              -0.000154681              -0.000172806               0.001068972               0.000896166               0.000000000               0.000000000               0.000000000               0.000000000               0.000508623               0.003124552              -0.000133815              -0.000199835               0.001108119               0.000908284               0.000000000               0.000000000               0.000000000               0.000000000               0.000484261               0.003192046              -0.000105202              -0.000217407               0.001136474               0.000919066               0.000000000               0.000000000               0.000000000               0.000000000               0.000481404               0.003239867              -0.000073054              -0.000224456               0.001154764               0.000930307               0.000000000               0.000000000               0.000000000               0.000000000               0.000501457               0.003270512              -0.000038591              -0.000220767               0.001163749               0.000942982               0.000000000               0.000000000               0.000000000               0.000000000               0.000526308               0.003284123              -0.000020614              -0.000213149               0.001165746               0.000952597               0.000000000               0.000000000               0.000000000               0.000000000               0.000000000               0.000000000               0.000000000               0.000000000               0.000000000               0.000000000               0.000000000               0.000000000               0.000000000               0.000000000               0.000000000               0.000000000               0.000000000               0.000000000               0.000000000               0.000000000               0.000000000               0.000000000               0.000000000               0.000000000               0.000000000               0.000000000               0.000000000               0.000000000               0.000000000               0.000000000               0.000000000               0.000000000               0.000000000               0.000000000               0.000000000               0.000000000               0.000000000               0.000000000               0.000000000               0.000000000               0.000000000               0.000000000               0.000000000               0.000000000               0.000000000               0.000000000               0.000000000               0.000000000               0.000000000               0.000000000               0.000000000               0.000000000               0.000000000               0.000000000               0.000000000               0.000000000               0.000000000               0.000000000               0.000000000               0.000000000               0.000000000               0.000000000               0.000000000               0.000000000               0.000000000               0.000000000               0.000000000               0.000000000               0.000000000               0.000000000               0.000000000               0.000000000               0.000000000               0.000000000               0.000000000               0.000000000               0.000000000               0.000000000               0.000000000               0.000000000               0.000000000               0.000000000               0.000000000               0.000000000               0.000000000               0.000000000               0.000000000               0.000000000               0.000000000               0.000000000               0.000000000               0.000000000               0.000000000               0.000000000               0.000000000               0.000000000               0.000000000               0.000000000               0.000000000               0.000000000               0.000000000               0.000000000               0.000000000               0.000000000               0.000000000               0.000000000               0.000000000               0.000000000               0.000000000               0.000000000               0.000000000               0.000000000               0.000000000               0.000000000               0.000000000               0.000000000               0.000000000               0.000000000               0.000000000               0.000000000               0.000000000               0.000000000               0.000000000               0.000000000               0.000000000               0.000000000               0.000000000               0.000000000               0.000000000               0.000000000               0.000000000               0.000000000               0.000000000               0.000000000               0.000000000               0.000000000               0.000000000               0.000000000               0.000000000               0.000000000               0.000000000               0.000000000               0.000000000               0.000000000               0.000000000               0.000000000               0.000000000               0.000000000               0.000000000               0.000000000               0.000000000               0.000000000               0.000000000               0.000000000               0.000000000               0.000000000               0.000000000               0.000000000               0.000000000               0.000000000               0.000000000               0.000000000               0.000000000               0.000000000               0.000000000               0.000000000               0.000000000               0.000000000               0.000000000               0.000000000               0.000000000               0.000000000               0.000000000               0.000000000               0.000000000               0.000000000               0.000000000               0.000000000               0.000000000               0.000000000               0.000000000               0.000000000               0.000000000               0.000000000               0.000000000               0.000000000               0.000000000               0.000000000               0.000000000               0.000000000               0.000000000               0.000000000               0.000000000               0.000000000               0.000000000               0.000000000               0.000000000               0.000000000               0.000000000               0.000000000               0.000000000               0.000000000               0.000000000               0.000000000               0.000000000               0.000000000               0.000000000               0.000000000               0.000000000               0.000000000               0.000000000               0.000000000               0.000000000               0.000000000               0.000000000               0.000000000               0.000000000               0.000000000               0.000000000               0.000000000               0.000000000               0.000000000               0.000000000               0.000000000               0.000000000               0.000000000               0.000000000               0.000000000               0.000000000               0.000000000               0.000000000               0.000000000               0.000000000               0.000000000               0.000000000               0.000000000               0.000000000               0.000000000               0.000000000               0.000000000               0.000000000               0.000000000               0.000000000               0.000000000               0.000000000               0.000000000               0.000000000               0.000000000               0.000000000               0.000000000               0.000000000               0.000000000               0.000000000               0.000000000               0.000000000               0.000000000               0.000000000               0.000000000               0.000000000               0.000000000               0.000000000               0.000000000               0.000000000               0.000000000               0.000000000               0.000000000               0.000000000               0.000000000               0.000000000               0.000000000               0.000000000               0.000000000               0.000000000               0.000000000               0.000000000               0.000000000               0.000000000               0.000000000               0.000000000               0.000000000               0.000000000               0.000000000               0.000000000               0.000000000               0.000000000               0.000000000               0.000000000               0.000000000               0.000000000               0.000000000               0.000000000               0.000000000               0.000000000               0.000000000               0.000000000               0.000000000               0.000000000               0.000000000               0.000000000               0.000000000               0.000000000               0.000000000               0.000000000               0.000000000               0.000000000               0.000000000               0.000000000               0.000000000               0.000000000               0.000000000               0.000000000               0.000000000               0.000000000               0.000000000               0.000000000               0.000000000               0.000000000               0.000000000               0.000000000               0.000000000               0.000000000               0.000000000               0.000000000               0.000000000               0.000000000               0.000000000               0.000000000               0.000000000               0.000000000               0.000000000               0.000000000               0.000000000               0.000000000               0.000000000               0.000000000               0.000000000               0.000000000               0.000000000               0.000000000               0.000000000               0.000000000               0.000000000               0.000000000               0.000000000               0.000680169               0.007370205               0.000558073              -0.000666211               0.002678781               0.002012570               0.000000000               0.000000000               0.000000000               0.000000000               0.000707514               0.006095804               0.000348959              -0.000496657               0.002197467               0.001700810               0.000000000               0.000000000               0.000000000               0.000000000               0.000948375               0.005085237               0.000134663              -0.000280013               0.001788400               0.001508387               0.000000000               0.000000000               0.000000000               0.000000000               0.000972246               0.004531996               0.000036088              -0.000201907               0.001577952               0.001376046               0.000000000               0.000000000               0.000000000               0.000000000               0.000921206               0.004207519              -0.000008989              -0.000180487               0.001462655               0.001282168               0.000000000               0.000000000               0.000000000               0.000000000               0.000843480               0.004004574              -0.000029005              -0.000184266               0.001396267               0.001212000               0.000000000               0.000000000               0.000000000               0.000000000               0.000755607               0.003873853              -0.000039252              -0.000200879               0.001358231               0.001157353               0.000000000               0.000000000               0.000000000               0.000000000               0.000668752               0.003788772              -0.000041865              -0.000222814               0.001337183               0.001114369               0.000000000               0.000000000               0.000000000               0.000000000               0.000583661               0.003729993              -0.000041263              -0.000247376               0.001325777               0.001078402               0.000000000               0.000000000               0.000000000               0.000000000               0.000497404               0.003688966              -0.000041736              -0.000274594               0.001321174               0.001046581               0.000000000               0.000000000               0.000000000               0.000000000               0.000412408               0.003662348              -0.000041641              -0.000303140               0.001321817               0.001018677               0.000000000               0.000000000               0.000000000               0.000000000               0.000331473               0.003646431              -0.000040298              -0.000331501               0.001325965               0.000994464               0.000000000               0.000000000               0.000000000               0.000000000               0.000253526               0.003636020              -0.000037129              -0.000359429               0.001331804               0.000972375               0.000000000               0.000000000               0.000000000               0.000000000               0.000180866               0.003627808              -0.000032816              -0.000385651               0.001337808               0.000952157               0.000000000               0.000000000               0.000000000               0.000000000               0.000115570               0.003620253              -0.000026620              -0.000409192               0.001343136               0.000933944               0.000000000               0.000000000               0.000000000               0.000000000               0.000054916               0.003609653              -0.000016081              -0.000430612               0.001346743               0.000916131               0.000000000               0.000000000               0.000000000               0.000000000               0.000026012               0.003602901              -0.000009418              -0.000440607               0.001347824               0.000907217               0.000000000               0.000000000               0.000000000               0.000000000               0.000786711               0.006989464               0.001052265              -0.000578665               0.002522686               0.001944021               0.000000000               0.000000000               0.000000000               0.000000000               0.000733242               0.005831055               0.000661903              -0.000453915               0.002094970               0.001641055               0.000000000               0.000000000               0.000000000               0.000000000               0.000886639               0.004945487               0.000264024              -0.000285696               0.001743711               0.001458015               0.000000000               0.000000000               0.000000000               0.000000000               0.000873056               0.004457987               0.000083928              -0.000229852               0.001562598               0.001332746               0.000000000               0.000000000               0.000000000               0.000000000               0.000809715               0.004167393               0.000001305              -0.000217281               0.001461544               0.001244263               0.000000000               0.000000000               0.000000000               0.000000000               0.000733061               0.003982101              -0.000036805              -0.000222864               0.001401642               0.001178778               0.000000000               0.000000000               0.000000000               0.000000000               0.000650485               0.003858476              -0.000056982              -0.000238377               0.001365605               0.001127228               0.000000000               0.000000000               0.000000000               0.000000000               0.000572540               0.003776910              -0.000063080              -0.000257411               0.001344761               0.001087350               0.000000000               0.000000000               0.000000000               0.000000000               0.000498849               0.003721187              -0.000062119              -0.000278080               0.001333076               0.001054997               0.000000000               0.000000000               0.000000000               0.000000000               0.000424181               0.003682684              -0.000062550              -0.000301267               0.001327972               0.001026705               0.000000000               0.000000000               0.000000000               0.000000000               0.000350646               0.003658872              -0.000062780              -0.000325866               0.001328234               0.001002368               0.000000000               0.000000000               0.000000000               0.000000000               0.000279880               0.003645610              -0.000060512              -0.000350745               0.001332106               0.000981361               0.000000000               0.000000000               0.000000000               0.000000000               0.000212822               0.003637812              -0.000054855              -0.000374917               0.001337564               0.000962647               0.000000000               0.000000000               0.000000000               0.000000000               0.000152496               0.003633665              -0.000047286              -0.000397021               0.001343550               0.000946529               0.000000000               0.000000000               0.000000000               0.000000000               0.000098693               0.003633125              -0.000037719              -0.000417130               0.001350073               0.000932943               0.000000000               0.000000000               0.000000000               0.000000000               0.000047140               0.003637420              -0.000022559              -0.000436999               0.001358128               0.000921129               0.000000000               0.000000000               0.000000000               0.000000000               0.000024645               0.003646735              -0.000011829              -0.000446599               0.001364432               0.000917834               0.000000000               0.000000000               0.000000000               0.000000000               0.000927109               0.006412138               0.001439487              -0.000453851               0.002288642               0.001834790               0.000000000               0.000000000               0.000000000               0.000000000               0.000759566               0.005435964               0.000913808              -0.000394658               0.001943523               0.001548865               0.000000000               0.000000000               0.000000000               0.000000000               0.000791233               0.004738571               0.000381112              -0.000295608               0.001678044               0.001382436               0.000000000               0.000000000               0.000000000               0.000000000               0.000733380               0.004343468               0.000146410              -0.000267915               0.001537113               0.001269198               0.000000000               0.000000000               0.000000000               0.000000000               0.000659045               0.004100932               0.000038310              -0.000265474               0.001455455               0.001189981               0.000000000               0.000000000               0.000000000               0.000000000               0.000589634               0.003943470              -0.000011694              -0.000271820               0.001405084               0.001133263               0.000000000               0.000000000               0.000000000               0.000000000               0.000519746               0.003836519              -0.000038099              -0.000284659               0.001373713               0.001089054               0.000000000               0.000000000               0.000000000               0.000000000               0.000451560               0.003763374              -0.000047969              -0.000301086               0.001354808               0.001053721               0.000000000               0.000000000               0.000000000               0.000000000               0.000390603               0.003714739              -0.000047667              -0.000317866               0.001344189               0.001026324               0.000000000               0.000000000               0.000000000               0.000000000               0.000331400               0.003681023              -0.000049296              -0.000335852               0.001338946               0.001003094               0.000000000               0.000000000               0.000000000               0.000000000               0.000274020               0.003659951              -0.000051323              -0.000354736               0.001338217               0.000983481               0.000000000               0.000000000               0.000000000               0.000000000               0.000220914               0.003648904              -0.000049836              -0.000373269               0.001340712               0.000967443               0.000000000               0.000000000               0.000000000               0.000000000               0.000170942               0.003645290              -0.000043718              -0.000391557               0.001345603               0.000954046               0.000000000               0.000000000               0.000000000               0.000000000               0.000125304               0.003648337              -0.000035129              -0.000409052               0.001352451               0.000943399               0.000000000               0.000000000               0.000000000               0.000000000               0.000083482               0.003659890              -0.000026220              -0.000426179               0.001362011               0.000935832               0.000000000               0.000000000               0.000000000               0.000000000               0.000041027               0.003683703              -0.000014859              -0.000445077               0.001376247               0.000931171               0.000000000               0.000000000               0.000000000               0.000000000               0.000026416               0.003712607              -0.000004410              -0.000454169               0.001388913               0.000934744               0.000000000               0.000000000               0.000000000               0.000000000               0.001069708               0.005702270               0.001693348              -0.000311644               0.002004619               0.001692975               0.000000000               0.000000000               0.000000000               0.000000000               0.000778014               0.004957427               0.001090702              -0.000327923               0.001761766               0.001433844               0.000000000               0.000000000               0.000000000               0.000000000               0.000675059               0.004488413               0.000484498              -0.000307904               0.001598757               0.001290853               0.000000000               0.000000000               0.000000000               0.000000000               0.000580838               0.004201979               0.000224642              -0.000307432               0.001503123               0.001195691               0.000000000               0.000000000               0.000000000               0.000000000               0.000505581               0.004013398               0.000103284              -0.000312081               0.001441813               0.001129732               0.000000000               0.000000000               0.000000000               0.000000000               0.000443472               0.003884993               0.000046152              -0.000319321               0.001401425               0.001082104               0.000000000               0.000000000               0.000000000               0.000000000               0.000387528               0.003797313               0.000015201              -0.000329340               0.001375538               0.001046198               0.000000000               0.000000000               0.000000000               0.000000000               0.000336311               0.003736681              -0.000001045              -0.000340968               0.001359204               0.001018236               0.000000000               0.000000000               0.000000000               0.000000000               0.000289699               0.003699968              -0.000004749              -0.000353858               0.001351263               0.000997405               0.000000000               0.000000000               0.000000000               0.000000000               0.000245334               0.003674672              -0.000007529              -0.000367333               0.001347323               0.000979990               0.000000000               0.000000000               0.000000000               0.000000000               0.000205557               0.003658087              -0.000012383              -0.000380176               0.001346075               0.000965899               0.000000000               0.000000000               0.000000000               0.000000000               0.000172172               0.003651631              -0.000013859              -0.000391888               0.001347828               0.000955939               0.000000000               0.000000000               0.000000000               0.000000000               0.000140918               0.003654469              -0.000009769              -0.000403963               0.001352799               0.000948835               0.000000000               0.000000000               0.000000000               0.000000000               0.000108525               0.003667000              -0.000001962              -0.000417677               0.001361547               0.000943870               0.000000000               0.000000000               0.000000000               0.000000000               0.000074449               0.003689249               0.000003995              -0.000433237               0.001374150               0.000940913               0.000000000               0.000000000               0.000000000               0.000000000               0.000038105               0.003723484               0.000004951              -0.000451145               0.001391531               0.000940385               0.000000000               0.000000000               0.000000000               0.000000000               0.000027973               0.003758489               0.000008840              -0.000459320               0.001405924               0.000946604               0.000000000               0.000000000               0.000000000               0.000000000               0.001178622               0.004925478               0.001808207              -0.000173703               0.001699710               0.001526007               0.000000000               0.000000000               0.000000000               0.000000000               0.000778845               0.004441793               0.001195641              -0.000263158               0.001568302               0.001305144               0.000000000               0.000000000               0.000000000               0.000000000               0.000557589               0.004217691               0.000579090              -0.000318115               0.001511921               0.001193806               0.000000000               0.000000000               0.000000000               0.000000000               0.000442402               0.004038516               0.000317005              -0.000338913               0.001459130               0.001120216               0.000000000               0.000000000               0.000000000               0.000000000               0.000373929               0.003902882               0.000191125              -0.000347636               0.001416826               0.001069190               0.000000000               0.000000000               0.000000000               0.000000000               0.000325975               0.003806653               0.000126788              -0.000353590               0.001386735               0.001033145               0.000000000               0.000000000               0.000000000               0.000000000               0.000285290               0.003738234               0.000087090              -0.000360295               0.001366164               0.001005869               0.000000000               0.000000000               0.000000000               0.000000000               0.000248818               0.003694177               0.000061449              -0.000368464               0.001354201               0.000985737               0.000000000               0.000000000               0.000000000               0.000000000               0.000215578               0.003670966               0.000052134              -0.000378028               0.001349653               0.000971624               0.000000000               0.000000000               0.000000000               0.000000000               0.000186037               0.003658611               0.000050837              -0.000387562               0.001348712               0.000961150               0.000000000               0.000000000               0.000000000               0.000000000               0.000161725               0.003649603               0.000045951              -0.000395553               0.001348373               0.000952820               0.000000000               0.000000000               0.000000000               0.000000000               0.000142246               0.003647439               0.000042046              -0.000402587               0.001349996               0.000947410               0.000000000               0.000000000               0.000000000               0.000000000               0.000119797               0.003651526               0.000041547              -0.000411516               0.001354335               0.000942819               0.000000000               0.000000000               0.000000000               0.000000000               0.000092174               0.003664008               0.000042894              -0.000423435               0.001362469               0.000939034               0.000000000               0.000000000               0.000000000               0.000000000               0.000062204               0.003683154               0.000039934              -0.000437067               0.001373395               0.000936328               0.000000000               0.000000000               0.000000000               0.000000000               0.000031612               0.003704026               0.000025815              -0.000451148               0.001385046               0.000933898               0.000000000               0.000000000               0.000000000               0.000000000               0.000019668               0.003718943               0.000017498              -0.000457491               0.001392132               0.000934641               0.000000000               0.000000000               0.000000000               0.000000000               0.001232478               0.004143290               0.001802159              -0.000055734               0.001399660               0.001343926               0.000000000               0.000000000               0.000000000               0.000000000               0.000762730               0.003929734               0.001240473              -0.000205194               0.001378296               0.001173102               0.000000000               0.000000000               0.000000000               0.000000000               0.000453077               0.003944159               0.000665923              -0.000323115               0.001422411               0.001099296               0.000000000               0.000000000               0.000000000               0.000000000               0.000332845               0.003860730               0.000415331              -0.000357773               0.001406155               0.001048381               0.000000000               0.000000000               0.000000000               0.000000000               0.000278763               0.003775800               0.000283930              -0.000367438               0.001381067               0.001013629               0.000000000               0.000000000               0.000000000               0.000000000               0.000248002               0.003713625               0.000209552              -0.000371202               0.001361596               0.000990395               0.000000000               0.000000000               0.000000000               0.000000000               0.000222100               0.003672243               0.000163166              -0.000375742               0.001349316               0.000973574               0.000000000               0.000000000               0.000000000               0.000000000               0.000197566               0.003650274               0.000132207              -0.000382196               0.001344144               0.000961948               0.000000000               0.000000000               0.000000000               0.000000000               0.000174199               0.003639761               0.000117944              -0.000389645               0.001343123               0.000953479               0.000000000               0.000000000               0.000000000               0.000000000               0.000153892               0.003633191               0.000115339              -0.000396439               0.001343198               0.000946759               0.000000000               0.000000000               0.000000000               0.000000000               0.000135239               0.003624929               0.000108197              -0.000402401               0.001342431               0.000940031               0.000000000               0.000000000               0.000000000               0.000000000               0.000116609               0.003619518               0.000096205              -0.000408710               0.001342731               0.000934020               0.000000000               0.000000000               0.000000000               0.000000000               0.000094426               0.003619489               0.000083999              -0.000417025               0.001345493               0.000928467               0.000000000               0.000000000               0.000000000               0.000000000               0.000067105               0.003623080               0.000069392              -0.000427720               0.001350254               0.000922535               0.000000000               0.000000000               0.000000000               0.000000000               0.000039076               0.003627301               0.000050862              -0.000438758               0.001355341               0.000916583               0.000000000               0.000000000               0.000000000               0.000000000               0.000016177               0.003623581               0.000026192              -0.000446880               0.001356808               0.000909928               0.000000000               0.000000000               0.000000000               0.000000000               0.000002480               0.003610924               0.000009586              -0.000450434               0.001353774               0.000903340               0.000000000               0.000000000               0.000000000               0.000000000               0.001234170               0.003407536               0.001698982               0.000036869               0.001123543               0.001160413               0.000000000               0.000000000               0.000000000               0.000000000               0.000732903               0.003454623               0.001236514              -0.000156990               0.001203859               0.001046869               0.000000000               0.000000000               0.000000000               0.000000000               0.000374744               0.003674653               0.000743599              -0.000318802               0.001331139               0.001012337               0.000000000               0.000000000               0.000000000               0.000000000               0.000264424               0.003675718               0.000507751              -0.000360305               0.001345329               0.000985024               0.000000000               0.000000000               0.000000000               0.000000000               0.000225557               0.003641650               0.000368750              -0.000370621               0.001337412               0.000966790               0.000000000               0.000000000               0.000000000               0.000000000               0.000209661               0.003616777               0.000284564              -0.000373473               0.001330071               0.000956598               0.000000000               0.000000000               0.000000000               0.000000000               0.000193789               0.003607761               0.000233779              -0.000378298               0.001328675               0.000950376               0.000000000               0.000000000               0.000000000               0.000000000               0.000175259               0.003606218               0.000199165              -0.000385054               0.001330412               0.000945358               0.000000000               0.000000000               0.000000000               0.000000000               0.000156491               0.003600849               0.000176889              -0.000391421               0.001330745               0.000939324               0.000000000               0.000000000               0.000000000               0.000000000               0.000136153               0.003590033               0.000164595              -0.000397696               0.001329231               0.000931535               0.000000000               0.000000000               0.000000000               0.000000000               0.000112294               0.003578363               0.000147761              -0.000405184               0.001327837               0.000922653               0.000000000               0.000000000               0.000000000               0.000000000               0.000083448               0.003566769               0.000121415              -0.000414552               0.001327095               0.000912543               0.000000000               0.000000000               0.000000000               0.000000000               0.000053439               0.003555942               0.000091199              -0.000424452               0.001326786               0.000902334               0.000000000               0.000000000               0.000000000               0.000000000               0.000025291               0.003545065               0.000060098              -0.000433648               0.001326226               0.000892578               0.000000000               0.000000000               0.000000000               0.000000000               0.000002333               0.003528773               0.000030788              -0.000440221               0.001322986               0.000882766               0.000000000               0.000000000               0.000000000               0.000000000              -0.000007866               0.003502782               0.000008719              -0.000440796               0.001314514               0.000873718               0.000000000               0.000000000               0.000000000               0.000000000              -0.000013334               0.003477111              -0.000002761              -0.000439638               0.001305571               0.000865933               0.000000000               0.000000000               0.000000000               0.000000000               0.001210192               0.002772358               0.001530104               0.000107275               0.000888351               0.000995626               0.000000000               0.000000000               0.000000000               0.000000000               0.000714889               0.003032053               0.001208923              -0.000110924               0.001047649               0.000936724               0.000000000               0.000000000               0.000000000               0.000000000               0.000340195               0.003424600               0.000828847              -0.000300502               0.001241689               0.000941187               0.000000000               0.000000000               0.000000000               0.000000000               0.000244338               0.003510298               0.000602805              -0.000347160               0.001285808               0.000938648               0.000000000               0.000000000               0.000000000               0.000000000               0.000215209               0.003528258               0.000456642              -0.000360328               0.001296184               0.000935856               0.000000000               0.000000000               0.000000000               0.000000000               0.000205543               0.003540906               0.000362136              -0.000365534               0.001302135               0.000936601               0.000000000               0.000000000               0.000000000               0.000000000               0.000195478               0.003558718               0.000302596              -0.000371535               0.001310072               0.000938538               0.000000000               0.000000000               0.000000000               0.000000000               0.000178030               0.003570297               0.000260616              -0.000379525               0.001316595               0.000937070               0.000000000               0.000000000               0.000000000               0.000000000               0.000159111               0.003565866               0.000227599              -0.000386066               0.001317299               0.000931233               0.000000000               0.000000000               0.000000000               0.000000000               0.000136247               0.003549324               0.000200568              -0.000392572               0.001313954               0.000921382               0.000000000               0.000000000               0.000000000               0.000000000               0.000108310               0.003534158               0.000171998              -0.000401152               0.001311758               0.000910606               0.000000000               0.000000000               0.000000000               0.000000000               0.000071928               0.003516703               0.000135191              -0.000412614               0.001309761               0.000897147               0.000000000               0.000000000               0.000000000               0.000000000               0.000031159               0.003496720               0.000092936              -0.000425404               0.001307363               0.000881959               0.000000000               0.000000000               0.000000000               0.000000000              -0.000010322               0.003471855               0.000052981              -0.000437852               0.001303224               0.000865372               0.000000000               0.000000000               0.000000000               0.000000000              -0.000044373               0.003436966               0.000021717              -0.000446260               0.001294397               0.000848137               0.000000000               0.000000000               0.000000000               0.000000000              -0.000062312               0.003391304               0.000002142              -0.000447279               0.001279516               0.000832237               0.000000000               0.000000000               0.000000000               0.000000000              -0.000066047               0.003360306              -0.000005280              -0.000444805               0.001268359               0.000823554               0.000000000               0.000000000               0.000000000               0.000000000               0.001142854               0.002161909               0.001331144               0.000158329               0.000667852               0.000826181               0.000000000               0.000000000               0.000000000               0.000000000               0.000722806               0.002543989               0.001170488              -0.000046948               0.000863637               0.000816689               0.000000000               0.000000000               0.000000000               0.000000000               0.000361199               0.003064257               0.000928020              -0.000247583               0.001103936               0.000856353               0.000000000               0.000000000               0.000000000               0.000000000               0.000264358               0.003248884               0.000719936              -0.000306976               0.001185276               0.000878300               0.000000000               0.000000000               0.000000000               0.000000000               0.000238471               0.003334908               0.000569514              -0.000327436               0.001220770               0.000893334               0.000000000               0.000000000               0.000000000               0.000000000               0.000232384               0.003398682               0.000463374              -0.000337691               0.001245446               0.000907756               0.000000000               0.000000000               0.000000000               0.000000000               0.000227638               0.003450417               0.000388172              -0.000345937               0.001265440               0.000919503               0.000000000               0.000000000               0.000000000               0.000000000               0.000211255               0.003484301               0.000332220              -0.000356316               0.001280194               0.000923878               0.000000000               0.000000000               0.000000000               0.000000000               0.000188289               0.003495894               0.000287149              -0.000366378               0.001287412               0.000921034               0.000000000               0.000000000               0.000000000               0.000000000               0.000160259               0.003486725               0.000247544              -0.000375743               0.001287478               0.000911735               0.000000000               0.000000000               0.000000000               0.000000000               0.000126425               0.003464915               0.000208358              -0.000385704               0.001283528               0.000897824               0.000000000               0.000000000               0.000000000               0.000000000               0.000084067               0.003437128               0.000164206              -0.000398115               0.001278403               0.000880288               0.000000000               0.000000000               0.000000000               0.000000000               0.000035614               0.003412677               0.000116262              -0.000413228               0.001275290               0.000862062               0.000000000               0.000000000               0.000000000               0.000000000              -0.000017517               0.003389400               0.000071137              -0.000430243               0.001273203               0.000842960               0.000000000               0.000000000               0.000000000               0.000000000              -0.000069915               0.003363721               0.000035470              -0.000446682               0.001270123               0.000823441               0.000000000               0.000000000               0.000000000               0.000000000              -0.000115082               0.003327721               0.000011519              -0.000459120               0.001262269               0.000803149               0.000000000               0.000000000               0.000000000               0.000000000              -0.000140114               0.003298629              -0.000000085              -0.000464870               0.001254489               0.000789619               0.000000000               0.000000000               0.000000000               0.000000000               0.000996747               0.001592229               0.001106250               0.000174749               0.000472488               0.000647236               0.000000000               0.000000000               0.000000000               0.000000000               0.000721143               0.002058435               0.001098691               0.000013122               0.000681763               0.000694886               0.000000000               0.000000000               0.000000000               0.000000000               0.000421137               0.002660493               0.001000084              -0.000174636               0.000945034               0.000770398               0.000000000               0.000000000               0.000000000               0.000000000               0.000322320               0.002940265               0.000831740              -0.000246663               0.001062299               0.000815636               0.000000000               0.000000000               0.000000000               0.000000000               0.000290287               0.003103275               0.000686150              -0.000279052               0.001127432               0.000848380               0.000000000               0.000000000               0.000000000               0.000000000               0.000279519               0.003219348               0.000574046              -0.000297598               0.001172305               0.000874706               0.000000000               0.000000000               0.000000000               0.000000000               0.000274220               0.003309105               0.000485931              -0.000310805               0.001206625               0.000895821               0.000000000               0.000000000               0.000000000               0.000000000               0.000259640               0.003375587               0.000415356              -0.000324583               0.001233379               0.000908796               0.000000000               0.000000000               0.000000000               0.000000000               0.000233072               0.003415262               0.000357995              -0.000339505               0.001251577               0.000912073               0.000000000               0.000000000               0.000000000               0.000000000               0.000200898               0.003424634               0.000309072              -0.000352742               0.001259114               0.000906372               0.000000000               0.000000000               0.000000000               0.000000000               0.000167834               0.003412806               0.000263616              -0.000363662               0.001258811               0.000895149               0.000000000               0.000000000               0.000000000               0.000000000               0.000130229               0.003390609               0.000215669              -0.000374989               0.001255188               0.000880199               0.000000000               0.000000000               0.000000000               0.000000000               0.000083027               0.003366858               0.000163612              -0.000389721               0.001252182               0.000862461               0.000000000               0.000000000               0.000000000               0.000000000               0.000025298               0.003344641               0.000112281              -0.000408592               0.001251067               0.000842474               0.000000000               0.000000000               0.000000000               0.000000000              -0.000041392               0.003325457               0.000067583              -0.000431203               0.001252209               0.000821006               0.000000000               0.000000000               0.000000000               0.000000000              -0.000115328               0.003306206               0.000029421              -0.000456523               0.001254232               0.000797709               0.000000000               0.000000000               0.000000000               0.000000000              -0.000169392               0.003282524               0.000005231              -0.000473836               0.001252109               0.000778273               0.000000000               0.000000000               0.000000000               0.000000000               0.000784560               0.001095336               0.000859087               0.000157291               0.000312677               0.000469968               0.000000000               0.000000000               0.000000000               0.000000000               0.000680960               0.001592423               0.000976524               0.000056306               0.000512033               0.000568339               0.000000000               0.000000000               0.000000000               0.000000000               0.000492497               0.002218132               0.001005382              -0.000092581               0.000770230               0.000677649               0.000000000               0.000000000               0.000000000               0.000000000               0.000414127               0.002576081               0.000891987              -0.000166713               0.000914256               0.000747543               0.000000000               0.000000000               0.000000000               0.000000000               0.000379471               0.002809400               0.000766712              -0.000208873               0.001006082               0.000797208               0.000000000               0.000000000               0.000000000               0.000000000               0.000358765               0.002978976               0.000659457              -0.000237835               0.001072260               0.000834425               0.000000000               0.000000000               0.000000000               0.000000000               0.000344350               0.003114812               0.000567595              -0.000260220               0.001125000               0.000864780               0.000000000               0.000000000               0.000000000               0.000000000               0.000324521               0.003222032               0.000486518              -0.000281058               0.001167686               0.000886628               0.000000000               0.000000000               0.000000000               0.000000000               0.000291760               0.003293655               0.000419950              -0.000302296               0.001198639               0.000896343               0.000000000               0.000000000               0.000000000               0.000000000               0.000254951               0.003330075               0.000367876              -0.000320652               0.001216898               0.000896246               0.000000000               0.000000000               0.000000000               0.000000000               0.000220021               0.003345196               0.000320707              -0.000335641               0.001226934               0.000891293               0.000000000               0.000000000               0.000000000               0.000000000               0.000185585               0.003344227               0.000268546              -0.000348433               0.001230875               0.000882442               0.000000000               0.000000000               0.000000000               0.000000000               0.000145476               0.003332543               0.000212080              -0.000362013               0.001231508               0.000869494               0.000000000               0.000000000               0.000000000               0.000000000               0.000093870               0.003314672               0.000156023              -0.000379132               0.001231257               0.000852125               0.000000000               0.000000000               0.000000000               0.000000000               0.000027622               0.003301105               0.000101231              -0.000402279               0.001234450               0.000832171               0.000000000               0.000000000               0.000000000               0.000000000              -0.000055949               0.003292806               0.000047515              -0.000432581               0.001241785               0.000809204               0.000000000               0.000000000               0.000000000               0.000000000              -0.000123331               0.003274026               0.000013812              -0.000455501               0.001243165               0.000787664               0.000000000               0.000000000               0.000000000               0.000000000               0.000527402               0.000699292               0.000616415               0.000110363               0.000196307               0.000306670               0.000000000               0.000000000               0.000000000               0.000000000               0.000612404               0.001173821               0.000814032               0.000082922               0.000363628               0.000446551               0.000000000               0.000000000               0.000000000               0.000000000               0.000566893               0.001776320               0.000937523              -0.000009456               0.000595252               0.000585796               0.000000000               0.000000000               0.000000000               0.000000000               0.000530811               0.002182742               0.000882337              -0.000073789               0.000752169               0.000678380               0.000000000               0.000000000               0.000000000               0.000000000               0.000502116               0.002471619               0.000786541              -0.000120659               0.000864084               0.000743425               0.000000000               0.000000000               0.000000000               0.000000000               0.000471640               0.002695828               0.000691716              -0.000160114               0.000951971               0.000791858               0.000000000               0.000000000               0.000000000               0.000000000               0.000439675               0.002877688               0.000604611              -0.000194833               0.001024164               0.000829331               0.000000000               0.000000000               0.000000000               0.000000000               0.000410695               0.003021914               0.000525040              -0.000223728               0.001081870               0.000858142               0.000000000               0.000000000               0.000000000               0.000000000               0.000375986               0.003130533               0.000458594              -0.000250322               0.001126941               0.000876620               0.000000000               0.000000000               0.000000000               0.000000000               0.000333692               0.003210247               0.000405960              -0.000276146               0.001162120               0.000885974               0.000000000               0.000000000               0.000000000               0.000000000               0.000289186               0.003261650               0.000360243              -0.000299261               0.001186959               0.000887698               0.000000000               0.000000000               0.000000000               0.000000000               0.000251382               0.003286239               0.000312614              -0.000316511               0.001200906               0.000884395               0.000000000               0.000000000               0.000000000               0.000000000               0.000218501               0.003295202               0.000257898              -0.000329962               0.001208377               0.000878415               0.000000000               0.000000000               0.000000000               0.000000000               0.000179258               0.003295898               0.000197084              -0.000344765               0.001213543               0.000868779               0.000000000               0.000000000               0.000000000               0.000000000               0.000124041               0.003293011               0.000132079              -0.000365110               0.001219363               0.000854253               0.000000000               0.000000000               0.000000000               0.000000000               0.000051166               0.003289647               0.000065745              -0.000392018               0.001227211               0.000835193               0.000000000               0.000000000               0.000000000               0.000000000              -0.000010539               0.003276116               0.000026103              -0.000413465               0.001229850               0.000816384               0.000000000               0.000000000               0.000000000               0.000000000               0.000255341               0.000407131               0.000403699               0.000044861               0.000120755               0.000165616               0.000000000               0.000000000               0.000000000               0.000000000               0.000528051               0.000827532               0.000625785               0.000094576               0.000244315               0.000338891               0.000000000               0.000000000               0.000000000               0.000000000               0.000637697               0.001373239               0.000793448               0.000067480               0.000435248               0.000502728               0.000000000               0.000000000               0.000000000               0.000000000               0.000652619               0.001795256               0.000784138               0.000020324               0.000591638               0.000611962               0.000000000               0.000000000               0.000000000               0.000000000               0.000632135               0.002120975               0.000719406              -0.000028072               0.000716342               0.000688270               0.000000000               0.000000000               0.000000000               0.000000000               0.000596687               0.002388829               0.000642558              -0.000074847               0.000821217               0.000746370               0.000000000               0.000000000               0.000000000               0.000000000               0.000554728               0.002611538               0.000570352              -0.000118419               0.000909977               0.000791558               0.000000000               0.000000000               0.000000000               0.000000000               0.000520030               0.002793311               0.000505260              -0.000154153               0.000982479               0.000828326               0.000000000               0.000000000               0.000000000               0.000000000               0.000483977               0.002941411               0.000445223              -0.000186185               0.001042522               0.000856337               0.000000000               0.000000000               0.000000000               0.000000000               0.000438863               0.003064780               0.000395673              -0.000218524               0.001094424               0.000875901               0.000000000               0.000000000               0.000000000               0.000000000               0.000392051               0.003153540               0.000358583              -0.000247173               0.001133561               0.000886388               0.000000000               0.000000000               0.000000000               0.000000000               0.000351770               0.003209569               0.000322706              -0.000269282               0.001159606               0.000890324               0.000000000               0.000000000               0.000000000               0.000000000               0.000318482               0.003245987               0.000274475              -0.000286317               0.001177424               0.000891107               0.000000000               0.000000000               0.000000000               0.000000000               0.000284356               0.003267415               0.000213180              -0.000301793               0.001189725               0.000887932               0.000000000               0.000000000               0.000000000               0.000000000               0.000246394               0.003279357               0.000145311              -0.000317521               0.001198948               0.000881427               0.000000000               0.000000000               0.000000000               0.000000000               0.000201189               0.003286206               0.000074571              -0.000335329               0.001207167               0.000871838               0.000000000               0.000000000               0.000000000               0.000000000               0.000163556               0.003281688               0.000034752              -0.000348877               0.001210177               0.000861301               0.000000000               0.000000000               0.000000000               0.000000000               0.000013828               0.000214564               0.000231814              -0.000021635               0.000078732               0.000057097               0.000000000               0.000000000               0.000000000               0.000000000               0.000444108               0.000569192               0.000422292               0.000095390               0.000157932               0.000253322               0.000000000               0.000000000               0.000000000               0.000000000               0.000692536               0.001043966               0.000578438               0.000129204               0.000304917               0.000434121               0.000000000               0.000000000               0.000000000               0.000000000               0.000757201               0.001461461               0.000591540               0.000101266               0.000453393               0.000554660               0.000000000               0.000000000               0.000000000               0.000000000               0.000750939               0.001807593               0.000553719               0.000055652               0.000583974               0.000639626               0.000000000               0.000000000               0.000000000               0.000000000               0.000717565               0.002100711               0.000500834               0.000006498               0.000698064               0.000704562               0.000000000               0.000000000               0.000000000               0.000000000               0.000677638               0.002353794               0.000451853              -0.000040110               0.000797960               0.000757850               0.000000000               0.000000000               0.000000000               0.000000000               0.000637965               0.002571729               0.000405376              -0.000082230               0.000884644               0.000802415               0.000000000               0.000000000               0.000000000               0.000000000               0.000597403               0.002757004               0.000356966              -0.000120599               0.000959192               0.000838593               0.000000000               0.000000000               0.000000000               0.000000000               0.000554320               0.002907673               0.000319180              -0.000155589               0.001021077               0.000865489               0.000000000               0.000000000               0.000000000               0.000000000               0.000510418               0.003025069               0.000294957              -0.000186726               0.001070588               0.000883862               0.000000000               0.000000000               0.000000000               0.000000000               0.000467411               0.003116376               0.000270383              -0.000214268               0.001110204               0.000895937               0.000000000               0.000000000               0.000000000               0.000000000               0.000429536               0.003181522               0.000231945              -0.000236614               0.001139368               0.000902754               0.000000000               0.000000000               0.000000000               0.000000000               0.000400047               0.003224461               0.000181634              -0.000253039               0.001159156               0.000906116               0.000000000               0.000000000               0.000000000               0.000000000               0.000380885               0.003254654               0.000125536              -0.000263999               0.001172874               0.000908874               0.000000000               0.000000000               0.000000000               0.000000000               0.000370557               0.003276321               0.000064605              -0.000270581               0.001182290               0.000911709               0.000000000               0.000000000               0.000000000               0.000000000               0.000366032               0.003283207               0.000031957              -0.000273138               0.001185438               0.000912299               0.000000000               0.000000000               0.000000000               0.000000000              -0.000155361               0.000110809               0.000103244              -0.000072112               0.000060973              -0.000011139               0.000000000               0.000000000               0.000000000               0.000000000               0.000381055               0.000411832               0.000211985               0.000091415               0.000106804               0.000198219               0.000000000               0.000000000               0.000000000               0.000000000               0.000726526               0.000826681               0.000304696               0.000169110               0.000219187               0.000388298               0.000000000               0.000000000               0.000000000               0.000000000               0.000827825               0.001233455               0.000318566               0.000156251               0.000359064               0.000515315               0.000000000               0.000000000               0.000000000               0.000000000               0.000836591               0.001587596               0.000302029               0.000115271               0.000490770               0.000606040               0.000000000               0.000000000               0.000000000               0.000000000               0.000810592               0.001889815               0.000275791               0.000067744               0.000607351               0.000675095               0.000000000               0.000000000               0.000000000               0.000000000               0.000773126               0.002161992               0.000251900               0.000019673               0.000714099               0.000733772               0.000000000               0.000000000               0.000000000               0.000000000               0.000728109               0.002405936               0.000226807              -0.000027701               0.000811204               0.000783503               0.000000000               0.000000000               0.000000000               0.000000000               0.000684560               0.002613427               0.000198610              -0.000069968               0.000894456               0.000824488               0.000000000               0.000000000               0.000000000               0.000000000               0.000643883               0.002782484               0.000178907              -0.000106354               0.000962937               0.000856582               0.000000000               0.000000000               0.000000000               0.000000000               0.000598891               0.002919815               0.000167725              -0.000140392               0.001020059               0.000879667               0.000000000               0.000000000               0.000000000               0.000000000               0.000550562               0.003034140               0.000154681              -0.000172806               0.001068972               0.000896166               0.000000000               0.000000000               0.000000000               0.000000000               0.000508623               0.003124552               0.000133815              -0.000199835               0.001108119               0.000908284               0.000000000               0.000000000               0.000000000               0.000000000               0.000484261               0.003192046               0.000105202              -0.000217407               0.001136474               0.000919066               0.000000000               0.000000000               0.000000000               0.000000000               0.000481404               0.003239867               0.000073054              -0.000224456               0.001154764               0.000930307               0.000000000               0.000000000               0.000000000               0.000000000               0.000501457               0.003270512               0.000038591              -0.000220767               0.001163749               0.000942982               0.000000000               0.000000000               0.000000000               0.000000000               0.000526308               0.003284123               0.000020614              -0.000213149               0.001165746               0.000952597               0.000000000               0.000000000               0.000000000               0.000000000               0.000000000               0.000000000               0.000000000               0.000000000               0.000000000               0.000000000               0.000000000               0.000000000               0.000000000               0.000000000               0.000000000               0.000000000               0.000000000               0.000000000               0.000000000               0.000000000               0.000000000               0.000000000               0.000000000               0.000000000               0.000000000               0.000000000               0.000000000               0.000000000               0.000000000               0.000000000               0.000000000               0.000000000               0.000000000               0.000000000               0.000000000               0.000000000               0.000000000               0.000000000               0.000000000               0.000000000               0.000000000               0.000000000               0.000000000               0.000000000               0.000000000               0.000000000               0.000000000               0.000000000               0.000000000               0.000000000               0.000000000               0.000000000               0.000000000               0.000000000               0.000000000               0.000000000               0.000000000               0.000000000               0.000000000               0.000000000               0.000000000               0.000000000               0.000000000               0.000000000               0.000000000               0.000000000               0.000000000               0.000000000               0.000000000               0.000000000               0.000000000               0.000000000               0.000000000               0.000000000               0.000000000               0.000000000               0.000000000               0.000000000               0.000000000               0.000000000               0.000000000               0.000000000               0.000000000               0.000000000               0.000000000               0.000000000               0.000000000               0.000000000               0.000000000               0.000000000               0.000000000               0.000000000               0.000000000               0.000000000               0.000000000               0.000000000               0.000000000               0.000000000               0.000000000               0.000000000               0.000000000               0.000000000               0.000000000               0.000000000               0.000000000               0.000000000               0.000000000               0.000000000               0.000000000               0.000000000               0.000000000               0.000000000               0.000000000               0.000000000               0.000000000               0.000000000               0.000000000               0.000000000               0.000000000               0.000000000               0.000000000               0.000000000               0.000000000               0.000000000               0.000000000               0.000000000               0.000000000               0.000000000               0.000000000               0.000000000               0.000000000               0.000000000               0.000000000               0.000000000               0.000000000               0.000000000               0.000000000               0.000000000               0.000000000               0.000000000               0.000000000               0.000000000               0.000000000               0.000000000               0.000000000               0.000000000               0.000000000               0.000000000               0.000000000               0.000000000               0.000000000               0.000000000               0.000000000               0.000000000               0.000000000               0.000000000               0.000000000               0.000000000               0.000000000               0.000000000               0.000000000               0.000000000               0.000000000               0.000000000               0.000000000               0.000000000               0.000000000               0.000000000               0.000000000               0.000000000               0.000000000               0.000000000               0.000000000               0.000000000 </DataArray>
</PointData>
</Piece>
</UnstructuredGrid> </VTKFile>
