<?xml version="1.0"?>
<VTKFile type="UnstructuredGrid" version="0.1">
<UnstructuredGrid>
<Piece NumberOfPoints="      1156" NumberOfCells="      1024">
<Points>
<DataArray type="Float64"                                    Name="coordinates"                                                      NumberOfComponents=" 3" format="ascii">
              0.133000000               0.000000000               0.000000000               0.155937500               0.000000000               0.000000000               0.178875000               0.000000000               0.000000000               0.201812500               0.000000000               0.000000000               0.224750000               0.000000000               0.000000000               0.247687500               0.000000000               0.000000000               0.270625000               0.000000000               0.000000000               0.293562500               0.000000000               0.000000000               0.316500000               0.000000000               0.000000000               0.339437500               0.000000000               0.000000000               0.362375000               0.000000000               0.000000000               0.385312500               0.000000000               0.000000000               0.408250000               0.000000000               0.000000000               0.431187500               0.000000000               0.000000000               0.454125000               0.000000000               0.000000000               0.477062500               0.000000000               0.000000000               0.500000000               0.000000000               0.000000000               0.132359569               0.013036280               0.000000000               0.155337096               0.016127762               0.000000000               0.178314623               0.019219245               0.000000000               0.201292150               0.022310727               0.000000000               0.224269676               0.025402210               0.000000000               0.247247203               0.028493692               0.000000000               0.270224730               0.031585175               0.000000000               0.293202257               0.034676657               0.000000000               0.316179784               0.037768140               0.000000000               0.339157311               0.040859622               0.000000000               0.362134838               0.043951105               0.000000000               0.385112365               0.047042587               0.000000000               0.408089892               0.050134070               0.000000000               0.431067419               0.053225552               0.000000000               0.454044946               0.056317035               0.000000000               0.477022473               0.059408517               0.000000000               0.500000000               0.062500000               0.000000000               0.130444442               0.025947013               0.000000000               0.153541665               0.032137825               0.000000000               0.176638887               0.038328636               0.000000000               0.199736109               0.044519448               0.000000000               0.222833332               0.050710260               0.000000000               0.245930554               0.056901071               0.000000000               0.269027776               0.063091883               0.000000000               0.292124999               0.069282695               0.000000000               0.315222221               0.075473506               0.000000000               0.338319444               0.081664318               0.000000000               0.361416666               0.087855130               0.000000000               0.384513888               0.094045942               0.000000000               0.407611111               0.100236753               0.000000000               0.430708333               0.106427565               0.000000000               0.453805555               0.112618377               0.000000000               0.476902778               0.118809188               0.000000000               0.500000000               0.125000000               0.000000000               0.127273065               0.038607862               0.000000000               0.150568498               0.047913621               0.000000000               0.173863932               0.057219379               0.000000000               0.197159365               0.066525138               0.000000000               0.220454798               0.075830897               0.000000000               0.243750232               0.085136655               0.000000000               0.267045665               0.094442414               0.000000000               0.290341099               0.103748172               0.000000000               0.313636532               0.113053931               0.000000000               0.336931966               0.122359690               0.000000000               0.360227399               0.131665448               0.000000000               0.383522833               0.140971207               0.000000000               0.406818266               0.150276966               0.000000000               0.430113700               0.159582724               0.000000000               0.453409133               0.168888483               0.000000000               0.476704567               0.178194241               0.000000000               0.500000000               0.187500000               0.000000000               0.122875978               0.050896897               0.000000000               0.146446229               0.063340840               0.000000000               0.170016481               0.075784784               0.000000000               0.193586732               0.088228728               0.000000000               0.217156983               0.100672672               0.000000000               0.240727235               0.113116616               0.000000000               0.264297486               0.125560560               0.000000000               0.287867738               0.138004504               0.000000000               0.311437989               0.150448448               0.000000000               0.335008240               0.162892392               0.000000000               0.358578492               0.175336336               0.000000000               0.382148743               0.187780280               0.000000000               0.405718994               0.200224224               0.000000000               0.429289246               0.212668168               0.000000000               0.452859497               0.225112112               0.000000000               0.476429749               0.237556056               0.000000000               0.500000000               0.250000000               0.000000000               0.117295528               0.062695766               0.000000000               0.141214558               0.078308531               0.000000000               0.165133587               0.093921295               0.000000000               0.189052617               0.109534060               0.000000000               0.212971646               0.125146824               0.000000000               0.236890676               0.140759589               0.000000000               0.260809705               0.156372354               0.000000000               0.284728735               0.171985118               0.000000000               0.308647764               0.187597883               0.000000000               0.332566794               0.203210648               0.000000000               0.356485823               0.218823412               0.000000000               0.380404853               0.234436177               0.000000000               0.404323882               0.250048941               0.000000000               0.428242912               0.265661706               0.000000000               0.452161941               0.281274471               0.000000000               0.476080971               0.296887235               0.000000000               0.500000000               0.312500000               0.000000000               0.110585458               0.073890841               0.000000000               0.134923867               0.092710163               0.000000000               0.159262276               0.111529486               0.000000000               0.183600685               0.130348808               0.000000000               0.207939094               0.149168131               0.000000000               0.232277503               0.167987453               0.000000000               0.256615912               0.186806776               0.000000000               0.280954320               0.205626098               0.000000000               0.305292729               0.224445420               0.000000000               0.329631138               0.243264743               0.000000000               0.353969547               0.262084065               0.000000000               0.378307956               0.280903388               0.000000000               0.402646365               0.299722710               0.000000000               0.426984773               0.318542033               0.000000000               0.451323182               0.337361355               0.000000000               0.475661591               0.356180678               0.000000000               0.500000000               0.375000000               0.000000000               0.102810390               0.084374307               0.000000000               0.127634741               0.106444663               0.000000000               0.152459092               0.128515018               0.000000000               0.177283442               0.150585374               0.000000000               0.202107793               0.172655730               0.000000000               0.226932143               0.194726086               0.000000000               0.251756494               0.216796442               0.000000000               0.276580845               0.238866798               0.000000000               0.301405195               0.260937153               0.000000000               0.326229546               0.283007509               0.000000000               0.351053896               0.305077865               0.000000000               0.375878247               0.327148221               0.000000000               0.400702598               0.349218577               0.000000000               0.425526948               0.371288933               0.000000000               0.450351299               0.393359288               0.000000000               0.475175649               0.415429644               0.000000000               0.500000000               0.437500000               0.000000000               0.094045202               0.094045202               0.000000000               0.119417377               0.119417377               0.000000000               0.144789552               0.144789552               0.000000000               0.170161727               0.170161727               0.000000000               0.195533901               0.195533901               0.000000000               0.220906076               0.220906076               0.000000000               0.246278251               0.246278251               0.000000000               0.271650426               0.271650426               0.000000000               0.297022601               0.297022601               0.000000000               0.322394776               0.322394776               0.000000000               0.347766951               0.347766951               0.000000000               0.373139126               0.373139126               0.000000000               0.398511300               0.398511300               0.000000000               0.423883475               0.423883475               0.000000000               0.449255650               0.449255650               0.000000000               0.474627825               0.474627825               0.000000000               0.500000000               0.500000000               0.000000000               0.084374307               0.102810390               0.000000000               0.106444663               0.127634741               0.000000000               0.128515018               0.152459092               0.000000000               0.150585374               0.177283442               0.000000000               0.172655730               0.202107793               0.000000000               0.194726086               0.226932143               0.000000000               0.216796442               0.251756494               0.000000000               0.238866798               0.276580845               0.000000000               0.260937153               0.301405195               0.000000000               0.283007509               0.326229546               0.000000000               0.305077865               0.351053896               0.000000000               0.327148221               0.375878247               0.000000000               0.349218577               0.400702598               0.000000000               0.371288933               0.425526948               0.000000000               0.393359288               0.450351299               0.000000000               0.415429644               0.475175649               0.000000000               0.437500000               0.500000000               0.000000000               0.073890841               0.110585458               0.000000000               0.092710163               0.134923867               0.000000000               0.111529486               0.159262276               0.000000000               0.130348808               0.183600685               0.000000000               0.149168131               0.207939094               0.000000000               0.167987453               0.232277503               0.000000000               0.186806776               0.256615912               0.000000000               0.205626098               0.280954320               0.000000000               0.224445420               0.305292729               0.000000000               0.243264743               0.329631138               0.000000000               0.262084065               0.353969547               0.000000000               0.280903388               0.378307956               0.000000000               0.299722710               0.402646365               0.000000000               0.318542033               0.426984773               0.000000000               0.337361355               0.451323182               0.000000000               0.356180678               0.475661591               0.000000000               0.375000000               0.500000000               0.000000000               0.062695766               0.117295528               0.000000000               0.078308531               0.141214558               0.000000000               0.093921295               0.165133587               0.000000000               0.109534060               0.189052617               0.000000000               0.125146824               0.212971646               0.000000000               0.140759589               0.236890676               0.000000000               0.156372354               0.260809705               0.000000000               0.171985118               0.284728735               0.000000000               0.187597883               0.308647764               0.000000000               0.203210648               0.332566794               0.000000000               0.218823412               0.356485823               0.000000000               0.234436177               0.380404853               0.000000000               0.250048941               0.404323882               0.000000000               0.265661706               0.428242912               0.000000000               0.281274471               0.452161941               0.000000000               0.296887235               0.476080971               0.000000000               0.312500000               0.500000000               0.000000000               0.050896897               0.122875978               0.000000000               0.063340840               0.146446229               0.000000000               0.075784784               0.170016481               0.000000000               0.088228728               0.193586732               0.000000000               0.100672672               0.217156983               0.000000000               0.113116616               0.240727235               0.000000000               0.125560560               0.264297486               0.000000000               0.138004504               0.287867738               0.000000000               0.150448448               0.311437989               0.000000000               0.162892392               0.335008240               0.000000000               0.175336336               0.358578492               0.000000000               0.187780280               0.382148743               0.000000000               0.200224224               0.405718994               0.000000000               0.212668168               0.429289246               0.000000000               0.225112112               0.452859497               0.000000000               0.237556056               0.476429749               0.000000000               0.250000000               0.500000000               0.000000000               0.038607862               0.127273065               0.000000000               0.047913621               0.150568498               0.000000000               0.057219379               0.173863932               0.000000000               0.066525138               0.197159365               0.000000000               0.075830897               0.220454798               0.000000000               0.085136655               0.243750232               0.000000000               0.094442414               0.267045665               0.000000000               0.103748172               0.290341099               0.000000000               0.113053931               0.313636532               0.000000000               0.122359690               0.336931966               0.000000000               0.131665448               0.360227399               0.000000000               0.140971207               0.383522833               0.000000000               0.150276966               0.406818266               0.000000000               0.159582724               0.430113700               0.000000000               0.168888483               0.453409133               0.000000000               0.178194241               0.476704567               0.000000000               0.187500000               0.500000000               0.000000000               0.025947013               0.130444442               0.000000000               0.032137825               0.153541665               0.000000000               0.038328636               0.176638887               0.000000000               0.044519448               0.199736109               0.000000000               0.050710260               0.222833332               0.000000000               0.056901071               0.245930554               0.000000000               0.063091883               0.269027776               0.000000000               0.069282695               0.292124999               0.000000000               0.075473506               0.315222221               0.000000000               0.081664318               0.338319444               0.000000000               0.087855130               0.361416666               0.000000000               0.094045942               0.384513888               0.000000000               0.100236753               0.407611111               0.000000000               0.106427565               0.430708333               0.000000000               0.112618377               0.453805555               0.000000000               0.118809188               0.476902778               0.000000000               0.125000000               0.500000000               0.000000000               0.013036280               0.132359569               0.000000000               0.016127762               0.155337096               0.000000000               0.019219245               0.178314623               0.000000000               0.022310727               0.201292150               0.000000000               0.025402210               0.224269676               0.000000000               0.028493692               0.247247203               0.000000000               0.031585175               0.270224730               0.000000000               0.034676657               0.293202257               0.000000000               0.037768140               0.316179784               0.000000000               0.040859622               0.339157311               0.000000000               0.043951105               0.362134838               0.000000000               0.047042587               0.385112365               0.000000000               0.050134070               0.408089892               0.000000000               0.053225552               0.431067419               0.000000000               0.056317035               0.454044946               0.000000000               0.059408517               0.477022473               0.000000000               0.062500000               0.500000000               0.000000000               0.000000000               0.133000000               0.000000000               0.000000000               0.155937500               0.000000000               0.000000000               0.178875000               0.000000000               0.000000000               0.201812500               0.000000000               0.000000000               0.224750000               0.000000000               0.000000000               0.247687500               0.000000000               0.000000000               0.270625000               0.000000000               0.000000000               0.293562500               0.000000000               0.000000000               0.316500000               0.000000000               0.000000000               0.339437500               0.000000000               0.000000000               0.362375000               0.000000000               0.000000000               0.385312500               0.000000000               0.000000000               0.408250000               0.000000000               0.000000000               0.431187500               0.000000000               0.000000000               0.454125000               0.000000000               0.000000000               0.477062500               0.000000000               0.000000000               0.500000000               0.000000000               0.133000000               0.000000000               0.000000000               0.155937500               0.000000000               0.000000000               0.178875000               0.000000000               0.000000000               0.201812500               0.000000000               0.000000000               0.224750000               0.000000000               0.000000000               0.247687500               0.000000000               0.000000000               0.270625000               0.000000000               0.000000000               0.293562500               0.000000000               0.000000000               0.316500000               0.000000000               0.000000000               0.339437500               0.000000000               0.000000000               0.362375000               0.000000000               0.000000000               0.385312500               0.000000000               0.000000000               0.408250000               0.000000000               0.000000000               0.431187500               0.000000000               0.000000000               0.454125000               0.000000000               0.000000000               0.477062500               0.000000000               0.000000000               0.500000000               0.000000000               0.000000000               0.132359569              -0.013036280               0.000000000               0.155337096              -0.016127762               0.000000000               0.178314623              -0.019219245               0.000000000               0.201292150              -0.022310727               0.000000000               0.224269676              -0.025402210               0.000000000               0.247247203              -0.028493692               0.000000000               0.270224730              -0.031585175               0.000000000               0.293202257              -0.034676657               0.000000000               0.316179784              -0.037768140               0.000000000               0.339157311              -0.040859622               0.000000000               0.362134838              -0.043951105               0.000000000               0.385112365              -0.047042587               0.000000000               0.408089892              -0.050134070               0.000000000               0.431067419              -0.053225552               0.000000000               0.454044946              -0.056317035               0.000000000               0.477022473              -0.059408517               0.000000000               0.500000000              -0.062500000               0.000000000               0.130444442              -0.025947013               0.000000000               0.153541665              -0.032137825               0.000000000               0.176638887              -0.038328636               0.000000000               0.199736109              -0.044519448               0.000000000               0.222833332              -0.050710260               0.000000000               0.245930554              -0.056901071               0.000000000               0.269027776              -0.063091883               0.000000000               0.292124999              -0.069282695               0.000000000               0.315222221              -0.075473506               0.000000000               0.338319444              -0.081664318               0.000000000               0.361416666              -0.087855130               0.000000000               0.384513888              -0.094045942               0.000000000               0.407611111              -0.100236753               0.000000000               0.430708333              -0.106427565               0.000000000               0.453805555              -0.112618377               0.000000000               0.476902778              -0.118809188               0.000000000               0.500000000              -0.125000000               0.000000000               0.127273065              -0.038607862               0.000000000               0.150568498              -0.047913621               0.000000000               0.173863932              -0.057219379               0.000000000               0.197159365              -0.066525138               0.000000000               0.220454798              -0.075830897               0.000000000               0.243750232              -0.085136655               0.000000000               0.267045665              -0.094442414               0.000000000               0.290341099              -0.103748172               0.000000000               0.313636532              -0.113053931               0.000000000               0.336931966              -0.122359690               0.000000000               0.360227399              -0.131665448               0.000000000               0.383522833              -0.140971207               0.000000000               0.406818266              -0.150276966               0.000000000               0.430113700              -0.159582724               0.000000000               0.453409133              -0.168888483               0.000000000               0.476704567              -0.178194241               0.000000000               0.500000000              -0.187500000               0.000000000               0.122875978              -0.050896897               0.000000000               0.146446229              -0.063340840               0.000000000               0.170016481              -0.075784784               0.000000000               0.193586732              -0.088228728               0.000000000               0.217156983              -0.100672672               0.000000000               0.240727235              -0.113116616               0.000000000               0.264297486              -0.125560560               0.000000000               0.287867738              -0.138004504               0.000000000               0.311437989              -0.150448448               0.000000000               0.335008240              -0.162892392               0.000000000               0.358578492              -0.175336336               0.000000000               0.382148743              -0.187780280               0.000000000               0.405718994              -0.200224224               0.000000000               0.429289246              -0.212668168               0.000000000               0.452859497              -0.225112112               0.000000000               0.476429749              -0.237556056               0.000000000               0.500000000              -0.250000000               0.000000000               0.117295528              -0.062695766               0.000000000               0.141214558              -0.078308531               0.000000000               0.165133587              -0.093921295               0.000000000               0.189052617              -0.109534060               0.000000000               0.212971646              -0.125146824               0.000000000               0.236890676              -0.140759589               0.000000000               0.260809705              -0.156372354               0.000000000               0.284728735              -0.171985118               0.000000000               0.308647764              -0.187597883               0.000000000               0.332566794              -0.203210648               0.000000000               0.356485823              -0.218823412               0.000000000               0.380404853              -0.234436177               0.000000000               0.404323882              -0.250048941               0.000000000               0.428242912              -0.265661706               0.000000000               0.452161941              -0.281274471               0.000000000               0.476080971              -0.296887235               0.000000000               0.500000000              -0.312500000               0.000000000               0.110585458              -0.073890841               0.000000000               0.134923867              -0.092710163               0.000000000               0.159262276              -0.111529486               0.000000000               0.183600685              -0.130348808               0.000000000               0.207939094              -0.149168131               0.000000000               0.232277503              -0.167987453               0.000000000               0.256615912              -0.186806776               0.000000000               0.280954320              -0.205626098               0.000000000               0.305292729              -0.224445420               0.000000000               0.329631138              -0.243264743               0.000000000               0.353969547              -0.262084065               0.000000000               0.378307956              -0.280903388               0.000000000               0.402646365              -0.299722710               0.000000000               0.426984773              -0.318542033               0.000000000               0.451323182              -0.337361355               0.000000000               0.475661591              -0.356180678               0.000000000               0.500000000              -0.375000000               0.000000000               0.102810390              -0.084374307               0.000000000               0.127634741              -0.106444663               0.000000000               0.152459092              -0.128515018               0.000000000               0.177283442              -0.150585374               0.000000000               0.202107793              -0.172655730               0.000000000               0.226932143              -0.194726086               0.000000000               0.251756494              -0.216796442               0.000000000               0.276580845              -0.238866798               0.000000000               0.301405195              -0.260937153               0.000000000               0.326229546              -0.283007509               0.000000000               0.351053896              -0.305077865               0.000000000               0.375878247              -0.327148221               0.000000000               0.400702598              -0.349218577               0.000000000               0.425526948              -0.371288933               0.000000000               0.450351299              -0.393359288               0.000000000               0.475175649              -0.415429644               0.000000000               0.500000000              -0.437500000               0.000000000               0.094045202              -0.094045202               0.000000000               0.119417377              -0.119417377               0.000000000               0.144789552              -0.144789552               0.000000000               0.170161727              -0.170161727               0.000000000               0.195533901              -0.195533901               0.000000000               0.220906076              -0.220906076               0.000000000               0.246278251              -0.246278251               0.000000000               0.271650426              -0.271650426               0.000000000               0.297022601              -0.297022601               0.000000000               0.322394776              -0.322394776               0.000000000               0.347766951              -0.347766951               0.000000000               0.373139126              -0.373139126               0.000000000               0.398511300              -0.398511300               0.000000000               0.423883475              -0.423883475               0.000000000               0.449255650              -0.449255650               0.000000000               0.474627825              -0.474627825               0.000000000               0.500000000              -0.500000000               0.000000000               0.084374307              -0.102810390               0.000000000               0.106444663              -0.127634741               0.000000000               0.128515018              -0.152459092               0.000000000               0.150585374              -0.177283442               0.000000000               0.172655730              -0.202107793               0.000000000               0.194726086              -0.226932143               0.000000000               0.216796442              -0.251756494               0.000000000               0.238866798              -0.276580845               0.000000000               0.260937153              -0.301405195               0.000000000               0.283007509              -0.326229546               0.000000000               0.305077865              -0.351053896               0.000000000               0.327148221              -0.375878247               0.000000000               0.349218577              -0.400702598               0.000000000               0.371288933              -0.425526948               0.000000000               0.393359288              -0.450351299               0.000000000               0.415429644              -0.475175649               0.000000000               0.437500000              -0.500000000               0.000000000               0.073890841              -0.110585458               0.000000000               0.092710163              -0.134923867               0.000000000               0.111529486              -0.159262276               0.000000000               0.130348808              -0.183600685               0.000000000               0.149168131              -0.207939094               0.000000000               0.167987453              -0.232277503               0.000000000               0.186806776              -0.256615912               0.000000000               0.205626098              -0.280954320               0.000000000               0.224445420              -0.305292729               0.000000000               0.243264743              -0.329631138               0.000000000               0.262084065              -0.353969547               0.000000000               0.280903388              -0.378307956               0.000000000               0.299722710              -0.402646365               0.000000000               0.318542033              -0.426984773               0.000000000               0.337361355              -0.451323182               0.000000000               0.356180678              -0.475661591               0.000000000               0.375000000              -0.500000000               0.000000000               0.062695766              -0.117295528               0.000000000               0.078308531              -0.141214558               0.000000000               0.093921295              -0.165133587               0.000000000               0.109534060              -0.189052617               0.000000000               0.125146824              -0.212971646               0.000000000               0.140759589              -0.236890676               0.000000000               0.156372354              -0.260809705               0.000000000               0.171985118              -0.284728735               0.000000000               0.187597883              -0.308647764               0.000000000               0.203210648              -0.332566794               0.000000000               0.218823412              -0.356485823               0.000000000               0.234436177              -0.380404853               0.000000000               0.250048941              -0.404323882               0.000000000               0.265661706              -0.428242912               0.000000000               0.281274471              -0.452161941               0.000000000               0.296887235              -0.476080971               0.000000000               0.312500000              -0.500000000               0.000000000               0.050896897              -0.122875978               0.000000000               0.063340840              -0.146446229               0.000000000               0.075784784              -0.170016481               0.000000000               0.088228728              -0.193586732               0.000000000               0.100672672              -0.217156983               0.000000000               0.113116616              -0.240727235               0.000000000               0.125560560              -0.264297486               0.000000000               0.138004504              -0.287867738               0.000000000               0.150448448              -0.311437989               0.000000000               0.162892392              -0.335008240               0.000000000               0.175336336              -0.358578492               0.000000000               0.187780280              -0.382148743               0.000000000               0.200224224              -0.405718994               0.000000000               0.212668168              -0.429289246               0.000000000               0.225112112              -0.452859497               0.000000000               0.237556056              -0.476429749               0.000000000               0.250000000              -0.500000000               0.000000000               0.038607862              -0.127273065               0.000000000               0.047913621              -0.150568498               0.000000000               0.057219379              -0.173863932               0.000000000               0.066525138              -0.197159365               0.000000000               0.075830897              -0.220454798               0.000000000               0.085136655              -0.243750232               0.000000000               0.094442414              -0.267045665               0.000000000               0.103748172              -0.290341099               0.000000000               0.113053931              -0.313636532               0.000000000               0.122359690              -0.336931966               0.000000000               0.131665448              -0.360227399               0.000000000               0.140971207              -0.383522833               0.000000000               0.150276966              -0.406818266               0.000000000               0.159582724              -0.430113700               0.000000000               0.168888483              -0.453409133               0.000000000               0.178194241              -0.476704567               0.000000000               0.187500000              -0.500000000               0.000000000               0.025947013              -0.130444442               0.000000000               0.032137825              -0.153541665               0.000000000               0.038328636              -0.176638887               0.000000000               0.044519448              -0.199736109               0.000000000               0.050710260              -0.222833332               0.000000000               0.056901071              -0.245930554               0.000000000               0.063091883              -0.269027776               0.000000000               0.069282695              -0.292124999               0.000000000               0.075473506              -0.315222221               0.000000000               0.081664318              -0.338319444               0.000000000               0.087855130              -0.361416666               0.000000000               0.094045942              -0.384513888               0.000000000               0.100236753              -0.407611111               0.000000000               0.106427565              -0.430708333               0.000000000               0.112618377              -0.453805555               0.000000000               0.118809188              -0.476902778               0.000000000               0.125000000              -0.500000000               0.000000000               0.013036280              -0.132359569               0.000000000               0.016127762              -0.155337096               0.000000000               0.019219245              -0.178314623               0.000000000               0.022310727              -0.201292150               0.000000000               0.025402210              -0.224269676               0.000000000               0.028493692              -0.247247203               0.000000000               0.031585175              -0.270224730               0.000000000               0.034676657              -0.293202257               0.000000000               0.037768140              -0.316179784               0.000000000               0.040859622              -0.339157311               0.000000000               0.043951105              -0.362134838               0.000000000               0.047042587              -0.385112365               0.000000000               0.050134070              -0.408089892               0.000000000               0.053225552              -0.431067419               0.000000000               0.056317035              -0.454044946               0.000000000               0.059408517              -0.477022473               0.000000000               0.062500000              -0.500000000               0.000000000               0.000000000              -0.133000000               0.000000000               0.000000000              -0.155937500               0.000000000               0.000000000              -0.178875000               0.000000000               0.000000000              -0.201812500               0.000000000               0.000000000              -0.224750000               0.000000000               0.000000000              -0.247687500               0.000000000               0.000000000              -0.270625000               0.000000000               0.000000000              -0.293562500               0.000000000               0.000000000              -0.316500000               0.000000000               0.000000000              -0.339437500               0.000000000               0.000000000              -0.362375000               0.000000000               0.000000000              -0.385312500               0.000000000               0.000000000              -0.408250000               0.000000000               0.000000000              -0.431187500               0.000000000               0.000000000              -0.454125000               0.000000000               0.000000000              -0.477062500               0.000000000               0.000000000              -0.500000000               0.000000000              -0.133000000               0.000000000               0.000000000              -0.155937500               0.000000000               0.000000000              -0.178875000               0.000000000               0.000000000              -0.201812500               0.000000000               0.000000000              -0.224750000               0.000000000               0.000000000              -0.247687500               0.000000000               0.000000000              -0.270625000               0.000000000               0.000000000              -0.293562500               0.000000000               0.000000000              -0.316500000               0.000000000               0.000000000              -0.339437500               0.000000000               0.000000000              -0.362375000               0.000000000               0.000000000              -0.385312500               0.000000000               0.000000000              -0.408250000               0.000000000               0.000000000              -0.431187500               0.000000000               0.000000000              -0.454125000               0.000000000               0.000000000              -0.477062500               0.000000000               0.000000000              -0.500000000               0.000000000               0.000000000              -0.132359569              -0.013036280               0.000000000              -0.155337096              -0.016127762               0.000000000              -0.178314623              -0.019219245               0.000000000              -0.201292150              -0.022310727               0.000000000              -0.224269676              -0.025402210               0.000000000              -0.247247203              -0.028493692               0.000000000              -0.270224730              -0.031585175               0.000000000              -0.293202257              -0.034676657               0.000000000              -0.316179784              -0.037768140               0.000000000              -0.339157311              -0.040859622               0.000000000              -0.362134838              -0.043951105               0.000000000              -0.385112365              -0.047042587               0.000000000              -0.408089892              -0.050134070               0.000000000              -0.431067419              -0.053225552               0.000000000              -0.454044946              -0.056317035               0.000000000              -0.477022473              -0.059408517               0.000000000              -0.500000000              -0.062500000               0.000000000              -0.130444442              -0.025947013               0.000000000              -0.153541665              -0.032137825               0.000000000              -0.176638887              -0.038328636               0.000000000              -0.199736109              -0.044519448               0.000000000              -0.222833332              -0.050710260               0.000000000              -0.245930554              -0.056901071               0.000000000              -0.269027776              -0.063091883               0.000000000              -0.292124999              -0.069282695               0.000000000              -0.315222221              -0.075473506               0.000000000              -0.338319444              -0.081664318               0.000000000              -0.361416666              -0.087855130               0.000000000              -0.384513888              -0.094045942               0.000000000              -0.407611111              -0.100236753               0.000000000              -0.430708333              -0.106427565               0.000000000              -0.453805555              -0.112618377               0.000000000              -0.476902778              -0.118809188               0.000000000              -0.500000000              -0.125000000               0.000000000              -0.127273065              -0.038607862               0.000000000              -0.150568498              -0.047913621               0.000000000              -0.173863932              -0.057219379               0.000000000              -0.197159365              -0.066525138               0.000000000              -0.220454798              -0.075830897               0.000000000              -0.243750232              -0.085136655               0.000000000              -0.267045665              -0.094442414               0.000000000              -0.290341099              -0.103748172               0.000000000              -0.313636532              -0.113053931               0.000000000              -0.336931966              -0.122359690               0.000000000              -0.360227399              -0.131665448               0.000000000              -0.383522833              -0.140971207               0.000000000              -0.406818266              -0.150276966               0.000000000              -0.430113700              -0.159582724               0.000000000              -0.453409133              -0.168888483               0.000000000              -0.476704567              -0.178194241               0.000000000              -0.500000000              -0.187500000               0.000000000              -0.122875978              -0.050896897               0.000000000              -0.146446229              -0.063340840               0.000000000              -0.170016481              -0.075784784               0.000000000              -0.193586732              -0.088228728               0.000000000              -0.217156983              -0.100672672               0.000000000              -0.240727235              -0.113116616               0.000000000              -0.264297486              -0.125560560               0.000000000              -0.287867738              -0.138004504               0.000000000              -0.311437989              -0.150448448               0.000000000              -0.335008240              -0.162892392               0.000000000              -0.358578492              -0.175336336               0.000000000              -0.382148743              -0.187780280               0.000000000              -0.405718994              -0.200224224               0.000000000              -0.429289246              -0.212668168               0.000000000              -0.452859497              -0.225112112               0.000000000              -0.476429749              -0.237556056               0.000000000              -0.500000000              -0.250000000               0.000000000              -0.117295528              -0.062695766               0.000000000              -0.141214558              -0.078308531               0.000000000              -0.165133587              -0.093921295               0.000000000              -0.189052617              -0.109534060               0.000000000              -0.212971646              -0.125146824               0.000000000              -0.236890676              -0.140759589               0.000000000              -0.260809705              -0.156372354               0.000000000              -0.284728735              -0.171985118               0.000000000              -0.308647764              -0.187597883               0.000000000              -0.332566794              -0.203210648               0.000000000              -0.356485823              -0.218823412               0.000000000              -0.380404853              -0.234436177               0.000000000              -0.404323882              -0.250048941               0.000000000              -0.428242912              -0.265661706               0.000000000              -0.452161941              -0.281274471               0.000000000              -0.476080971              -0.296887235               0.000000000              -0.500000000              -0.312500000               0.000000000              -0.110585458              -0.073890841               0.000000000              -0.134923867              -0.092710163               0.000000000              -0.159262276              -0.111529486               0.000000000              -0.183600685              -0.130348808               0.000000000              -0.207939094              -0.149168131               0.000000000              -0.232277503              -0.167987453               0.000000000              -0.256615912              -0.186806776               0.000000000              -0.280954320              -0.205626098               0.000000000              -0.305292729              -0.224445420               0.000000000              -0.329631138              -0.243264743               0.000000000              -0.353969547              -0.262084065               0.000000000              -0.378307956              -0.280903388               0.000000000              -0.402646365              -0.299722710               0.000000000              -0.426984773              -0.318542033               0.000000000              -0.451323182              -0.337361355               0.000000000              -0.475661591              -0.356180678               0.000000000              -0.500000000              -0.375000000               0.000000000              -0.102810390              -0.084374307               0.000000000              -0.127634741              -0.106444663               0.000000000              -0.152459092              -0.128515018               0.000000000              -0.177283442              -0.150585374               0.000000000              -0.202107793              -0.172655730               0.000000000              -0.226932143              -0.194726086               0.000000000              -0.251756494              -0.216796442               0.000000000              -0.276580845              -0.238866798               0.000000000              -0.301405195              -0.260937153               0.000000000              -0.326229546              -0.283007509               0.000000000              -0.351053896              -0.305077865               0.000000000              -0.375878247              -0.327148221               0.000000000              -0.400702598              -0.349218577               0.000000000              -0.425526948              -0.371288933               0.000000000              -0.450351299              -0.393359288               0.000000000              -0.475175649              -0.415429644               0.000000000              -0.500000000              -0.437500000               0.000000000              -0.094045202              -0.094045202               0.000000000              -0.119417377              -0.119417377               0.000000000              -0.144789552              -0.144789552               0.000000000              -0.170161727              -0.170161727               0.000000000              -0.195533901              -0.195533901               0.000000000              -0.220906076              -0.220906076               0.000000000              -0.246278251              -0.246278251               0.000000000              -0.271650426              -0.271650426               0.000000000              -0.297022601              -0.297022601               0.000000000              -0.322394776              -0.322394776               0.000000000              -0.347766951              -0.347766951               0.000000000              -0.373139126              -0.373139126               0.000000000              -0.398511300              -0.398511300               0.000000000              -0.423883475              -0.423883475               0.000000000              -0.449255650              -0.449255650               0.000000000              -0.474627825              -0.474627825               0.000000000              -0.500000000              -0.500000000               0.000000000              -0.084374307              -0.102810390               0.000000000              -0.106444663              -0.127634741               0.000000000              -0.128515018              -0.152459092               0.000000000              -0.150585374              -0.177283442               0.000000000              -0.172655730              -0.202107793               0.000000000              -0.194726086              -0.226932143               0.000000000              -0.216796442              -0.251756494               0.000000000              -0.238866798              -0.276580845               0.000000000              -0.260937153              -0.301405195               0.000000000              -0.283007509              -0.326229546               0.000000000              -0.305077865              -0.351053896               0.000000000              -0.327148221              -0.375878247               0.000000000              -0.349218577              -0.400702598               0.000000000              -0.371288933              -0.425526948               0.000000000              -0.393359288              -0.450351299               0.000000000              -0.415429644              -0.475175649               0.000000000              -0.437500000              -0.500000000               0.000000000              -0.073890841              -0.110585458               0.000000000              -0.092710163              -0.134923867               0.000000000              -0.111529486              -0.159262276               0.000000000              -0.130348808              -0.183600685               0.000000000              -0.149168131              -0.207939094               0.000000000              -0.167987453              -0.232277503               0.000000000              -0.186806776              -0.256615912               0.000000000              -0.205626098              -0.280954320               0.000000000              -0.224445420              -0.305292729               0.000000000              -0.243264743              -0.329631138               0.000000000              -0.262084065              -0.353969547               0.000000000              -0.280903388              -0.378307956               0.000000000              -0.299722710              -0.402646365               0.000000000              -0.318542033              -0.426984773               0.000000000              -0.337361355              -0.451323182               0.000000000              -0.356180678              -0.475661591               0.000000000              -0.375000000              -0.500000000               0.000000000              -0.062695766              -0.117295528               0.000000000              -0.078308531              -0.141214558               0.000000000              -0.093921295              -0.165133587               0.000000000              -0.109534060              -0.189052617               0.000000000              -0.125146824              -0.212971646               0.000000000              -0.140759589              -0.236890676               0.000000000              -0.156372354              -0.260809705               0.000000000              -0.171985118              -0.284728735               0.000000000              -0.187597883              -0.308647764               0.000000000              -0.203210648              -0.332566794               0.000000000              -0.218823412              -0.356485823               0.000000000              -0.234436177              -0.380404853               0.000000000              -0.250048941              -0.404323882               0.000000000              -0.265661706              -0.428242912               0.000000000              -0.281274471              -0.452161941               0.000000000              -0.296887235              -0.476080971               0.000000000              -0.312500000              -0.500000000               0.000000000              -0.050896897              -0.122875978               0.000000000              -0.063340840              -0.146446229               0.000000000              -0.075784784              -0.170016481               0.000000000              -0.088228728              -0.193586732               0.000000000              -0.100672672              -0.217156983               0.000000000              -0.113116616              -0.240727235               0.000000000              -0.125560560              -0.264297486               0.000000000              -0.138004504              -0.287867738               0.000000000              -0.150448448              -0.311437989               0.000000000              -0.162892392              -0.335008240               0.000000000              -0.175336336              -0.358578492               0.000000000              -0.187780280              -0.382148743               0.000000000              -0.200224224              -0.405718994               0.000000000              -0.212668168              -0.429289246               0.000000000              -0.225112112              -0.452859497               0.000000000              -0.237556056              -0.476429749               0.000000000              -0.250000000              -0.500000000               0.000000000              -0.038607862              -0.127273065               0.000000000              -0.047913621              -0.150568498               0.000000000              -0.057219379              -0.173863932               0.000000000              -0.066525138              -0.197159365               0.000000000              -0.075830897              -0.220454798               0.000000000              -0.085136655              -0.243750232               0.000000000              -0.094442414              -0.267045665               0.000000000              -0.103748172              -0.290341099               0.000000000              -0.113053931              -0.313636532               0.000000000              -0.122359690              -0.336931966               0.000000000              -0.131665448              -0.360227399               0.000000000              -0.140971207              -0.383522833               0.000000000              -0.150276966              -0.406818266               0.000000000              -0.159582724              -0.430113700               0.000000000              -0.168888483              -0.453409133               0.000000000              -0.178194241              -0.476704567               0.000000000              -0.187500000              -0.500000000               0.000000000              -0.025947013              -0.130444442               0.000000000              -0.032137825              -0.153541665               0.000000000              -0.038328636              -0.176638887               0.000000000              -0.044519448              -0.199736109               0.000000000              -0.050710260              -0.222833332               0.000000000              -0.056901071              -0.245930554               0.000000000              -0.063091883              -0.269027776               0.000000000              -0.069282695              -0.292124999               0.000000000              -0.075473506              -0.315222221               0.000000000              -0.081664318              -0.338319444               0.000000000              -0.087855130              -0.361416666               0.000000000              -0.094045942              -0.384513888               0.000000000              -0.100236753              -0.407611111               0.000000000              -0.106427565              -0.430708333               0.000000000              -0.112618377              -0.453805555               0.000000000              -0.118809188              -0.476902778               0.000000000              -0.125000000              -0.500000000               0.000000000              -0.013036280              -0.132359569               0.000000000              -0.016127762              -0.155337096               0.000000000              -0.019219245              -0.178314623               0.000000000              -0.022310727              -0.201292150               0.000000000              -0.025402210              -0.224269676               0.000000000              -0.028493692              -0.247247203               0.000000000              -0.031585175              -0.270224730               0.000000000              -0.034676657              -0.293202257               0.000000000              -0.037768140              -0.316179784               0.000000000              -0.040859622              -0.339157311               0.000000000              -0.043951105              -0.362134838               0.000000000              -0.047042587              -0.385112365               0.000000000              -0.050134070              -0.408089892               0.000000000              -0.053225552              -0.431067419               0.000000000              -0.056317035              -0.454044946               0.000000000              -0.059408517              -0.477022473               0.000000000              -0.062500000              -0.500000000               0.000000000               0.000000000              -0.133000000               0.000000000               0.000000000              -0.155937500               0.000000000               0.000000000              -0.178875000               0.000000000               0.000000000              -0.201812500               0.000000000               0.000000000              -0.224750000               0.000000000               0.000000000              -0.247687500               0.000000000               0.000000000              -0.270625000               0.000000000               0.000000000              -0.293562500               0.000000000               0.000000000              -0.316500000               0.000000000               0.000000000              -0.339437500               0.000000000               0.000000000              -0.362375000               0.000000000               0.000000000              -0.385312500               0.000000000               0.000000000              -0.408250000               0.000000000               0.000000000              -0.431187500               0.000000000               0.000000000              -0.454125000               0.000000000               0.000000000              -0.477062500               0.000000000               0.000000000              -0.500000000               0.000000000              -0.133000000               0.000000000               0.000000000              -0.155937500               0.000000000               0.000000000              -0.178875000               0.000000000               0.000000000              -0.201812500               0.000000000               0.000000000              -0.224750000               0.000000000               0.000000000              -0.247687500               0.000000000               0.000000000              -0.270625000               0.000000000               0.000000000              -0.293562500               0.000000000               0.000000000              -0.316500000               0.000000000               0.000000000              -0.339437500               0.000000000               0.000000000              -0.362375000               0.000000000               0.000000000              -0.385312500               0.000000000               0.000000000              -0.408250000               0.000000000               0.000000000              -0.431187500               0.000000000               0.000000000              -0.454125000               0.000000000               0.000000000              -0.477062500               0.000000000               0.000000000              -0.500000000               0.000000000               0.000000000              -0.132359569               0.013036280               0.000000000              -0.155337096               0.016127762               0.000000000              -0.178314623               0.019219245               0.000000000              -0.201292150               0.022310727               0.000000000              -0.224269676               0.025402210               0.000000000              -0.247247203               0.028493692               0.000000000              -0.270224730               0.031585175               0.000000000              -0.293202257               0.034676657               0.000000000              -0.316179784               0.037768140               0.000000000              -0.339157311               0.040859622               0.000000000              -0.362134838               0.043951105               0.000000000              -0.385112365               0.047042587               0.000000000              -0.408089892               0.050134070               0.000000000              -0.431067419               0.053225552               0.000000000              -0.454044946               0.056317035               0.000000000              -0.477022473               0.059408517               0.000000000              -0.500000000               0.062500000               0.000000000              -0.130444442               0.025947013               0.000000000              -0.153541665               0.032137825               0.000000000              -0.176638887               0.038328636               0.000000000              -0.199736109               0.044519448               0.000000000              -0.222833332               0.050710260               0.000000000              -0.245930554               0.056901071               0.000000000              -0.269027776               0.063091883               0.000000000              -0.292124999               0.069282695               0.000000000              -0.315222221               0.075473506               0.000000000              -0.338319444               0.081664318               0.000000000              -0.361416666               0.087855130               0.000000000              -0.384513888               0.094045942               0.000000000              -0.407611111               0.100236753               0.000000000              -0.430708333               0.106427565               0.000000000              -0.453805555               0.112618377               0.000000000              -0.476902778               0.118809188               0.000000000              -0.500000000               0.125000000               0.000000000              -0.127273065               0.038607862               0.000000000              -0.150568498               0.047913621               0.000000000              -0.173863932               0.057219379               0.000000000              -0.197159365               0.066525138               0.000000000              -0.220454798               0.075830897               0.000000000              -0.243750232               0.085136655               0.000000000              -0.267045665               0.094442414               0.000000000              -0.290341099               0.103748172               0.000000000              -0.313636532               0.113053931               0.000000000              -0.336931966               0.122359690               0.000000000              -0.360227399               0.131665448               0.000000000              -0.383522833               0.140971207               0.000000000              -0.406818266               0.150276966               0.000000000              -0.430113700               0.159582724               0.000000000              -0.453409133               0.168888483               0.000000000              -0.476704567               0.178194241               0.000000000              -0.500000000               0.187500000               0.000000000              -0.122875978               0.050896897               0.000000000              -0.146446229               0.063340840               0.000000000              -0.170016481               0.075784784               0.000000000              -0.193586732               0.088228728               0.000000000              -0.217156983               0.100672672               0.000000000              -0.240727235               0.113116616               0.000000000              -0.264297486               0.125560560               0.000000000              -0.287867738               0.138004504               0.000000000              -0.311437989               0.150448448               0.000000000              -0.335008240               0.162892392               0.000000000              -0.358578492               0.175336336               0.000000000              -0.382148743               0.187780280               0.000000000              -0.405718994               0.200224224               0.000000000              -0.429289246               0.212668168               0.000000000              -0.452859497               0.225112112               0.000000000              -0.476429749               0.237556056               0.000000000              -0.500000000               0.250000000               0.000000000              -0.117295528               0.062695766               0.000000000              -0.141214558               0.078308531               0.000000000              -0.165133587               0.093921295               0.000000000              -0.189052617               0.109534060               0.000000000              -0.212971646               0.125146824               0.000000000              -0.236890676               0.140759589               0.000000000              -0.260809705               0.156372354               0.000000000              -0.284728735               0.171985118               0.000000000              -0.308647764               0.187597883               0.000000000              -0.332566794               0.203210648               0.000000000              -0.356485823               0.218823412               0.000000000              -0.380404853               0.234436177               0.000000000              -0.404323882               0.250048941               0.000000000              -0.428242912               0.265661706               0.000000000              -0.452161941               0.281274471               0.000000000              -0.476080971               0.296887235               0.000000000              -0.500000000               0.312500000               0.000000000              -0.110585458               0.073890841               0.000000000              -0.134923867               0.092710163               0.000000000              -0.159262276               0.111529486               0.000000000              -0.183600685               0.130348808               0.000000000              -0.207939094               0.149168131               0.000000000              -0.232277503               0.167987453               0.000000000              -0.256615912               0.186806776               0.000000000              -0.280954320               0.205626098               0.000000000              -0.305292729               0.224445420               0.000000000              -0.329631138               0.243264743               0.000000000              -0.353969547               0.262084065               0.000000000              -0.378307956               0.280903388               0.000000000              -0.402646365               0.299722710               0.000000000              -0.426984773               0.318542033               0.000000000              -0.451323182               0.337361355               0.000000000              -0.475661591               0.356180678               0.000000000              -0.500000000               0.375000000               0.000000000              -0.102810390               0.084374307               0.000000000              -0.127634741               0.106444663               0.000000000              -0.152459092               0.128515018               0.000000000              -0.177283442               0.150585374               0.000000000              -0.202107793               0.172655730               0.000000000              -0.226932143               0.194726086               0.000000000              -0.251756494               0.216796442               0.000000000              -0.276580845               0.238866798               0.000000000              -0.301405195               0.260937153               0.000000000              -0.326229546               0.283007509               0.000000000              -0.351053896               0.305077865               0.000000000              -0.375878247               0.327148221               0.000000000              -0.400702598               0.349218577               0.000000000              -0.425526948               0.371288933               0.000000000              -0.450351299               0.393359288               0.000000000              -0.475175649               0.415429644               0.000000000              -0.500000000               0.437500000               0.000000000              -0.094045202               0.094045202               0.000000000              -0.119417377               0.119417377               0.000000000              -0.144789552               0.144789552               0.000000000              -0.170161727               0.170161727               0.000000000              -0.195533901               0.195533901               0.000000000              -0.220906076               0.220906076               0.000000000              -0.246278251               0.246278251               0.000000000              -0.271650426               0.271650426               0.000000000              -0.297022601               0.297022601               0.000000000              -0.322394776               0.322394776               0.000000000              -0.347766951               0.347766951               0.000000000              -0.373139126               0.373139126               0.000000000              -0.398511300               0.398511300               0.000000000              -0.423883475               0.423883475               0.000000000              -0.449255650               0.449255650               0.000000000              -0.474627825               0.474627825               0.000000000              -0.500000000               0.500000000               0.000000000              -0.084374307               0.102810390               0.000000000              -0.106444663               0.127634741               0.000000000              -0.128515018               0.152459092               0.000000000              -0.150585374               0.177283442               0.000000000              -0.172655730               0.202107793               0.000000000              -0.194726086               0.226932143               0.000000000              -0.216796442               0.251756494               0.000000000              -0.238866798               0.276580845               0.000000000              -0.260937153               0.301405195               0.000000000              -0.283007509               0.326229546               0.000000000              -0.305077865               0.351053896               0.000000000              -0.327148221               0.375878247               0.000000000              -0.349218577               0.400702598               0.000000000              -0.371288933               0.425526948               0.000000000              -0.393359288               0.450351299               0.000000000              -0.415429644               0.475175649               0.000000000              -0.437500000               0.500000000               0.000000000              -0.073890841               0.110585458               0.000000000              -0.092710163               0.134923867               0.000000000              -0.111529486               0.159262276               0.000000000              -0.130348808               0.183600685               0.000000000              -0.149168131               0.207939094               0.000000000              -0.167987453               0.232277503               0.000000000              -0.186806776               0.256615912               0.000000000              -0.205626098               0.280954320               0.000000000              -0.224445420               0.305292729               0.000000000              -0.243264743               0.329631138               0.000000000              -0.262084065               0.353969547               0.000000000              -0.280903388               0.378307956               0.000000000              -0.299722710               0.402646365               0.000000000              -0.318542033               0.426984773               0.000000000              -0.337361355               0.451323182               0.000000000              -0.356180678               0.475661591               0.000000000              -0.375000000               0.500000000               0.000000000              -0.062695766               0.117295528               0.000000000              -0.078308531               0.141214558               0.000000000              -0.093921295               0.165133587               0.000000000              -0.109534060               0.189052617               0.000000000              -0.125146824               0.212971646               0.000000000              -0.140759589               0.236890676               0.000000000              -0.156372354               0.260809705               0.000000000              -0.171985118               0.284728735               0.000000000              -0.187597883               0.308647764               0.000000000              -0.203210648               0.332566794               0.000000000              -0.218823412               0.356485823               0.000000000              -0.234436177               0.380404853               0.000000000              -0.250048941               0.404323882               0.000000000              -0.265661706               0.428242912               0.000000000              -0.281274471               0.452161941               0.000000000              -0.296887235               0.476080971               0.000000000              -0.312500000               0.500000000               0.000000000              -0.050896897               0.122875978               0.000000000              -0.063340840               0.146446229               0.000000000              -0.075784784               0.170016481               0.000000000              -0.088228728               0.193586732               0.000000000              -0.100672672               0.217156983               0.000000000              -0.113116616               0.240727235               0.000000000              -0.125560560               0.264297486               0.000000000              -0.138004504               0.287867738               0.000000000              -0.150448448               0.311437989               0.000000000              -0.162892392               0.335008240               0.000000000              -0.175336336               0.358578492               0.000000000              -0.187780280               0.382148743               0.000000000              -0.200224224               0.405718994               0.000000000              -0.212668168               0.429289246               0.000000000              -0.225112112               0.452859497               0.000000000              -0.237556056               0.476429749               0.000000000              -0.250000000               0.500000000               0.000000000              -0.038607862               0.127273065               0.000000000              -0.047913621               0.150568498               0.000000000              -0.057219379               0.173863932               0.000000000              -0.066525138               0.197159365               0.000000000              -0.075830897               0.220454798               0.000000000              -0.085136655               0.243750232               0.000000000              -0.094442414               0.267045665               0.000000000              -0.103748172               0.290341099               0.000000000              -0.113053931               0.313636532               0.000000000              -0.122359690               0.336931966               0.000000000              -0.131665448               0.360227399               0.000000000              -0.140971207               0.383522833               0.000000000              -0.150276966               0.406818266               0.000000000              -0.159582724               0.430113700               0.000000000              -0.168888483               0.453409133               0.000000000              -0.178194241               0.476704567               0.000000000              -0.187500000               0.500000000               0.000000000              -0.025947013               0.130444442               0.000000000              -0.032137825               0.153541665               0.000000000              -0.038328636               0.176638887               0.000000000              -0.044519448               0.199736109               0.000000000              -0.050710260               0.222833332               0.000000000              -0.056901071               0.245930554               0.000000000              -0.063091883               0.269027776               0.000000000              -0.069282695               0.292124999               0.000000000              -0.075473506               0.315222221               0.000000000              -0.081664318               0.338319444               0.000000000              -0.087855130               0.361416666               0.000000000              -0.094045942               0.384513888               0.000000000              -0.100236753               0.407611111               0.000000000              -0.106427565               0.430708333               0.000000000              -0.112618377               0.453805555               0.000000000              -0.118809188               0.476902778               0.000000000              -0.125000000               0.500000000               0.000000000              -0.013036280               0.132359569               0.000000000              -0.016127762               0.155337096               0.000000000              -0.019219245               0.178314623               0.000000000              -0.022310727               0.201292150               0.000000000              -0.025402210               0.224269676               0.000000000              -0.028493692               0.247247203               0.000000000              -0.031585175               0.270224730               0.000000000              -0.034676657               0.293202257               0.000000000              -0.037768140               0.316179784               0.000000000              -0.040859622               0.339157311               0.000000000              -0.043951105               0.362134838               0.000000000              -0.047042587               0.385112365               0.000000000              -0.050134070               0.408089892               0.000000000              -0.053225552               0.431067419               0.000000000              -0.056317035               0.454044946               0.000000000              -0.059408517               0.477022473               0.000000000              -0.062500000               0.500000000               0.000000000               0.000000000               0.133000000               0.000000000               0.000000000               0.155937500               0.000000000               0.000000000               0.178875000               0.000000000               0.000000000               0.201812500               0.000000000               0.000000000               0.224750000               0.000000000               0.000000000               0.247687500               0.000000000               0.000000000               0.270625000               0.000000000               0.000000000               0.293562500               0.000000000               0.000000000               0.316500000               0.000000000               0.000000000               0.339437500               0.000000000               0.000000000               0.362375000               0.000000000               0.000000000               0.385312500               0.000000000               0.000000000               0.408250000               0.000000000               0.000000000               0.431187500               0.000000000               0.000000000               0.454125000               0.000000000               0.000000000               0.477062500               0.000000000               0.000000000               0.500000000               0.000000000 </DataArray>
</Points>
<Cells>
<DataArray type="Int32"                                    Name="connectivity"                                                      NumberOfComponents=" 1" format="ascii">
         0          1         18         17          1          2         19         18          2          3         20         19          3          4         21         20          4          5         22         21          5          6         23         22          6          7         24         23          7          8         25         24          8          9         26         25          9         10         27         26         10         11         28         27         11         12         29         28         12         13         30         29         13         14         31         30         14         15         32         31         15         16         33         32         17         18         35         34         18         19         36         35         19         20         37         36         20         21         38         37         21         22         39         38         22         23         40         39         23         24         41         40         24         25         42         41         25         26         43         42         26         27         44         43         27         28         45         44         28         29         46         45         29         30         47         46         30         31         48         47         31         32         49         48         32         33         50         49         34         35         52         51         35         36         53         52         36         37         54         53         37         38         55         54         38         39         56         55         39         40         57         56         40         41         58         57         41         42         59         58         42         43         60         59         43         44         61         60         44         45         62         61         45         46         63         62         46         47         64         63         47         48         65         64         48         49         66         65         49         50         67         66         51         52         69         68         52         53         70         69         53         54         71         70         54         55         72         71         55         56         73         72         56         57         74         73         57         58         75         74         58         59         76         75         59         60         77         76         60         61         78         77         61         62         79         78         62         63         80         79         63         64         81         80         64         65         82         81         65         66         83         82         66         67         84         83         68         69         86         85         69         70         87         86         70         71         88         87         71         72         89         88         72         73         90         89         73         74         91         90         74         75         92         91         75         76         93         92         76         77         94         93         77         78         95         94         78         79         96         95         79         80         97         96         80         81         98         97         81         82         99         98         82         83        100         99         83         84        101        100         85         86        103        102         86         87        104        103         87         88        105        104         88         89        106        105         89         90        107        106         90         91        108        107         91         92        109        108         92         93        110        109         93         94        111        110         94         95        112        111         95         96        113        112         96         97        114        113         97         98        115        114         98         99        116        115         99        100        117        116        100        101        118        117        102        103        120        119        103        104        121        120        104        105        122        121        105        106        123        122        106        107        124        123        107        108        125        124        108        109        126        125        109        110        127        126        110        111        128        127        111        112        129        128        112        113        130        129        113        114        131        130        114        115        132        131        115        116        133        132        116        117        134        133        117        118        135        134        119        120        137        136        120        121        138        137        121        122        139        138        122        123        140        139        123        124        141        140        124        125        142        141        125        126        143        142        126        127        144        143        127        128        145        144        128        129        146        145        129        130        147        146        130        131        148        147        131        132        149        148        132        133        150        149        133        134        151        150        134        135        152        151        136        137        154        153        137        138        155        154        138        139        156        155        139        140        157        156        140        141        158        157        141        142        159        158        142        143        160        159        143        144        161        160        144        145        162        161        145        146        163        162        146        147        164        163        147        148        165        164        148        149        166        165        149        150        167        166        150        151        168        167        151        152        169        168        153        154        171        170        154        155        172        171        155        156        173        172        156        157        174        173        157        158        175        174        158        159        176        175        159        160        177        176        160        161        178        177        161        162        179        178        162        163        180        179        163        164        181        180        164        165        182        181        165        166        183        182        166        167        184        183        167        168        185        184        168        169        186        185        170        171        188        187        171        172        189        188        172        173        190        189        173        174        191        190        174        175        192        191        175        176        193        192        176        177        194        193        177        178        195        194        178        179        196        195        179        180        197        196        180        181        198        197        181        182        199        198        182        183        200        199        183        184        201        200        184        185        202        201        185        186        203        202        187        188        205        204        188        189        206        205        189        190        207        206        190        191        208        207        191        192        209        208        192        193        210        209        193        194        211        210        194        195        212        211        195        196        213        212        196        197        214        213        197        198        215        214        198        199        216        215        199        200        217        216        200        201        218        217        201        202        219        218        202        203        220        219        204        205        222        221        205        206        223        222        206        207        224        223        207        208        225        224        208        209        226        225        209        210        227        226        210        211        228        227        211        212        229        228        212        213        230        229        213        214        231        230        214        215        232        231        215        216        233        232        216        217        234        233        217        218        235        234        218        219        236        235        219        220        237        236        221        222        239        238        222        223        240        239        223        224        241        240        224        225        242        241        225        226        243        242        226        227        244        243        227        228        245        244        228        229        246        245        229        230        247        246        230        231        248        247        231        232        249        248        232        233        250        249        233        234        251        250        234        235        252        251        235        236        253        252        236        237        254        253        238        239        256        255        239        240        257        256        240        241        258        257        241        242        259        258        242        243        260        259        243        244        261        260        244        245        262        261        245        246        263        262        246        247        264        263        247        248        265        264        248        249        266        265        249        250        267        266        250        251        268        267        251        252        269        268        252        253        270        269        253        254        271        270        255        256        273        272        256        257        274        273        257        258        275        274        258        259        276        275        259        260        277        276        260        261        278        277        261        262        279        278        262        263        280        279        263        264        281        280        264        265        282        281        265        266        283        282        266        267        284        283        267        268        285        284        268        269        286        285        269        270        287        286        270        271        288        287        306        307          1          0        307        308          2          1        308        309          3          2        309        310          4          3        310        311          5          4        311        312          6          5        312        313          7          6        313        314          8          7        314        315          9          8        315        316         10          9        316        317         11         10        317        318         12         11        318        319         13         12        319        320         14         13        320        321         15         14        321        322         16         15        323        324        307        306        324        325        308        307        325        326        309        308        326        327        310        309        327        328        311        310        328        329        312        311        329        330        313        312        330        331        314        313        331        332        315        314        332        333        316        315        333        334        317        316        334        335        318        317        335        336        319        318        336        337        320        319        337        338        321        320        338        339        322        321        340        341        324        323        341        342        325        324        342        343        326        325        343        344        327        326        344        345        328        327        345        346        329        328        346        347        330        329        347        348        331        330        348        349        332        331        349        350        333        332        350        351        334        333        351        352        335        334        352        353        336        335        353        354        337        336        354        355        338        337        355        356        339        338        357        358        341        340        358        359        342        341        359        360        343        342        360        361        344        343        361        362        345        344        362        363        346        345        363        364        347        346        364        365        348        347        365        366        349        348        366        367        350        349        367        368        351        350        368        369        352        351        369        370        353        352        370        371        354        353        371        372        355        354        372        373        356        355        374        375        358        357        375        376        359        358        376        377        360        359        377        378        361        360        378        379        362        361        379        380        363        362        380        381        364        363        381        382        365        364        382        383        366        365        383        384        367        366        384        385        368        367        385        386        369        368        386        387        370        369        387        388        371        370        388        389        372        371        389        390        373        372        391        392        375        374        392        393        376        375        393        394        377        376        394        395        378        377        395        396        379        378        396        397        380        379        397        398        381        380        398        399        382        381        399        400        383        382        400        401        384        383        401        402        385        384        402        403        386        385        403        404        387        386        404        405        388        387        405        406        389        388        406        407        390        389        408        409        392        391        409        410        393        392        410        411        394        393        411        412        395        394        412        413        396        395        413        414        397        396        414        415        398        397        415        416        399        398        416        417        400        399        417        418        401        400        418        419        402        401        419        420        403        402        420        421        404        403        421        422        405        404        422        423        406        405        423        424        407        406        425        426        409        408        426        427        410        409        427        428        411        410        428        429        412        411        429        430        413        412        430        431        414        413        431        432        415        414        432        433        416        415        433        434        417        416        434        435        418        417        435        436        419        418        436        437        420        419        437        438        421        420        438        439        422        421        439        440        423        422        440        441        424        423        442        443        426        425        443        444        427        426        444        445        428        427        445        446        429        428        446        447        430        429        447        448        431        430        448        449        432        431        449        450        433        432        450        451        434        433        451        452        435        434        452        453        436        435        453        454        437        436        454        455        438        437        455        456        439        438        456        457        440        439        457        458        441        440        459        460        443        442        460        461        444        443        461        462        445        444        462        463        446        445        463        464        447        446        464        465        448        447        465        466        449        448        466        467        450        449        467        468        451        450        468        469        452        451        469        470        453        452        470        471        454        453        471        472        455        454        472        473        456        455        473        474        457        456        474        475        458        457        476        477        460        459        477        478        461        460        478        479        462        461        479        480        463        462        480        481        464        463        481        482        465        464        482        483        466        465        483        484        467        466        484        485        468        467        485        486        469        468        486        487        470        469        487        488        471        470        488        489        472        471        489        490        473        472        490        491        474        473        491        492        475        474        493        494        477        476        494        495        478        477        495        496        479        478        496        497        480        479        497        498        481        480        498        499        482        481        499        500        483        482        500        501        484        483        501        502        485        484        502        503        486        485        503        504        487        486        504        505        488        487        505        506        489        488        506        507        490        489        507        508        491        490        508        509        492        491        510        511        494        493        511        512        495        494        512        513        496        495        513        514        497        496        514        515        498        497        515        516        499        498        516        517        500        499        517        518        501        500        518        519        502        501        519        520        503        502        520        521        504        503        521        522        505        504        522        523        506        505        523        524        507        506        524        525        508        507        525        526        509        508        527        528        511        510        528        529        512        511        529        530        513        512        530        531        514        513        531        532        515        514        532        533        516        515        533        534        517        516        534        535        518        517        535        536        519        518        536        537        520        519        537        538        521        520        538        539        522        521        539        540        523        522        540        541        524        523        541        542        525        524        542        543        526        525        544        545        528        527        545        546        529        528        546        547        530        529        547        548        531        530        548        549        532        531        549        550        533        532        550        551        534        533        551        552        535        534        552        553        536        535        553        554        537        536        554        555        538        537        555        556        539        538        556        557        540        539        557        558        541        540        558        559        542        541        559        560        543        542        561        562        545        544        562        563        546        545        563        564        547        546        564        565        548        547        565        566        549        548        566        567        550        549        567        568        551        550        568        569        552        551        569        570        553        552        570        571        554        553        571        572        555        554        572        573        556        555        573        574        557        556        574        575        558        557        575        576        559        558        576        577        560        559        578        579        596        595        579        580        597        596        580        581        598        597        581        582        599        598        582        583        600        599        583        584        601        600        584        585        602        601        585        586        603        602        586        587        604        603        587        588        605        604        588        589        606        605        589        590        607        606        590        591        608        607        591        592        609        608        592        593        610        609        593        594        611        610        595        596        613        612        596        597        614        613        597        598        615        614        598        599        616        615        599        600        617        616        600        601        618        617        601        602        619        618        602        603        620        619        603        604        621        620        604        605        622        621        605        606        623        622        606        607        624        623        607        608        625        624        608        609        626        625        609        610        627        626        610        611        628        627        612        613        630        629        613        614        631        630        614        615        632        631        615        616        633        632        616        617        634        633        617        618        635        634        618        619        636        635        619        620        637        636        620        621        638        637        621        622        639        638        622        623        640        639        623        624        641        640        624        625        642        641        625        626        643        642        626        627        644        643        627        628        645        644        629        630        647        646        630        631        648        647        631        632        649        648        632        633        650        649        633        634        651        650        634        635        652        651        635        636        653        652        636        637        654        653        637        638        655        654        638        639        656        655        639        640        657        656        640        641        658        657        641        642        659        658        642        643        660        659        643        644        661        660        644        645        662        661        646        647        664        663        647        648        665        664        648        649        666        665        649        650        667        666        650        651        668        667        651        652        669        668        652        653        670        669        653        654        671        670        654        655        672        671        655        656        673        672        656        657        674        673        657        658        675        674        658        659        676        675        659        660        677        676        660        661        678        677        661        662        679        678        663        664        681        680        664        665        682        681        665        666        683        682        666        667        684        683        667        668        685        684        668        669        686        685        669        670        687        686        670        671        688        687        671        672        689        688        672        673        690        689        673        674        691        690        674        675        692        691        675        676        693        692        676        677        694        693        677        678        695        694        678        679        696        695        680        681        698        697        681        682        699        698        682        683        700        699        683        684        701        700        684        685        702        701        685        686        703        702        686        687        704        703        687        688        705        704        688        689        706        705        689        690        707        706        690        691        708        707        691        692        709        708        692        693        710        709        693        694        711        710        694        695        712        711        695        696        713        712        697        698        715        714        698        699        716        715        699        700        717        716        700        701        718        717        701        702        719        718        702        703        720        719        703        704        721        720        704        705        722        721        705        706        723        722        706        707        724        723        707        708        725        724        708        709        726        725        709        710        727        726        710        711        728        727        711        712        729        728        712        713        730        729        714        715        732        731        715        716        733        732        716        717        734        733        717        718        735        734        718        719        736        735        719        720        737        736        720        721        738        737        721        722        739        738        722        723        740        739        723        724        741        740        724        725        742        741        725        726        743        742        726        727        744        743        727        728        745        744        728        729        746        745        729        730        747        746        731        732        749        748        732        733        750        749        733        734        751        750        734        735        752        751        735        736        753        752        736        737        754        753        737        738        755        754        738        739        756        755        739        740        757        756        740        741        758        757        741        742        759        758        742        743        760        759        743        744        761        760        744        745        762        761        745        746        763        762        746        747        764        763        748        749        766        765        749        750        767        766        750        751        768        767        751        752        769        768        752        753        770        769        753        754        771        770        754        755        772        771        755        756        773        772        756        757        774        773        757        758        775        774        758        759        776        775        759        760        777        776        760        761        778        777        761        762        779        778        762        763        780        779        763        764        781        780        765        766        783        782        766        767        784        783        767        768        785        784        768        769        786        785        769        770        787        786        770        771        788        787        771        772        789        788        772        773        790        789        773        774        791        790        774        775        792        791        775        776        793        792        776        777        794        793        777        778        795        794        778        779        796        795        779        780        797        796        780        781        798        797        782        783        800        799        783        784        801        800        784        785        802        801        785        786        803        802        786        787        804        803        787        788        805        804        788        789        806        805        789        790        807        806        790        791        808        807        791        792        809        808        792        793        810        809        793        794        811        810        794        795        812        811        795        796        813        812        796        797        814        813        797        798        815        814        799        800        817        816        800        801        818        817        801        802        819        818        802        803        820        819        803        804        821        820        804        805        822        821        805        806        823        822        806        807        824        823        807        808        825        824        808        809        826        825        809        810        827        826        810        811        828        827        811        812        829        828        812        813        830        829        813        814        831        830        814        815        832        831        816        817        834        833        817        818        835        834        818        819        836        835        819        820        837        836        820        821        838        837        821        822        839        838        822        823        840        839        823        824        841        840        824        825        842        841        825        826        843        842        826        827        844        843        827        828        845        844        828        829        846        845        829        830        847        846        830        831        848        847        831        832        849        848        833        834        562        561        834        835        563        562        835        836        564        563        836        837        565        564        837        838        566        565        838        839        567        566        839        840        568        567        840        841        569        568        841        842        570        569        842        843        571        570        843        844        572        571        844        845        573        572        845        846        574        573        846        847        575        574        847        848        576        575        848        849        577        576        884        885        579        578        885        886        580        579        886        887        581        580        887        888        582        581        888        889        583        582        889        890        584        583        890        891        585        584        891        892        586        585        892        893        587        586        893        894        588        587        894        895        589        588        895        896        590        589        896        897        591        590        897        898        592        591        898        899        593        592        899        900        594        593        901        902        885        884        902        903        886        885        903        904        887        886        904        905        888        887        905        906        889        888        906        907        890        889        907        908        891        890        908        909        892        891        909        910        893        892        910        911        894        893        911        912        895        894        912        913        896        895        913        914        897        896        914        915        898        897        915        916        899        898        916        917        900        899        918        919        902        901        919        920        903        902        920        921        904        903        921        922        905        904        922        923        906        905        923        924        907        906        924        925        908        907        925        926        909        908        926        927        910        909        927        928        911        910        928        929        912        911        929        930        913        912        930        931        914        913        931        932        915        914        932        933        916        915        933        934        917        916        935        936        919        918        936        937        920        919        937        938        921        920        938        939        922        921        939        940        923        922        940        941        924        923        941        942        925        924        942        943        926        925        943        944        927        926        944        945        928        927        945        946        929        928        946        947        930        929        947        948        931        930        948        949        932        931        949        950        933        932        950        951        934        933        952        953        936        935        953        954        937        936        954        955        938        937        955        956        939        938        956        957        940        939        957        958        941        940        958        959        942        941        959        960        943        942        960        961        944        943        961        962        945        944        962        963        946        945        963        964        947        946        964        965        948        947        965        966        949        948        966        967        950        949        967        968        951        950        969        970        953        952        970        971        954        953        971        972        955        954        972        973        956        955        973        974        957        956        974        975        958        957        975        976        959        958        976        977        960        959        977        978        961        960        978        979        962        961        979        980        963        962        980        981        964        963        981        982        965        964        982        983        966        965        983        984        967        966        984        985        968        967        986        987        970        969        987        988        971        970        988        989        972        971        989        990        973        972        990        991        974        973        991        992        975        974        992        993        976        975        993        994        977        976        994        995        978        977        995        996        979        978        996        997        980        979        997        998        981        980        998        999        982        981        999       1000        983        982       1000       1001        984        983       1001       1002        985        984       1003       1004        987        986       1004       1005        988        987       1005       1006        989        988       1006       1007        990        989       1007       1008        991        990       1008       1009        992        991       1009       1010        993        992       1010       1011        994        993       1011       1012        995        994       1012       1013        996        995       1013       1014        997        996       1014       1015        998        997       1015       1016        999        998       1016       1017       1000        999       1017       1018       1001       1000       1018       1019       1002       1001       1020       1021       1004       1003       1021       1022       1005       1004       1022       1023       1006       1005       1023       1024       1007       1006       1024       1025       1008       1007       1025       1026       1009       1008       1026       1027       1010       1009       1027       1028       1011       1010       1028       1029       1012       1011       1029       1030       1013       1012       1030       1031       1014       1013       1031       1032       1015       1014       1032       1033       1016       1015       1033       1034       1017       1016       1034       1035       1018       1017       1035       1036       1019       1018       1037       1038       1021       1020       1038       1039       1022       1021       1039       1040       1023       1022       1040       1041       1024       1023       1041       1042       1025       1024       1042       1043       1026       1025       1043       1044       1027       1026       1044       1045       1028       1027       1045       1046       1029       1028       1046       1047       1030       1029       1047       1048       1031       1030       1048       1049       1032       1031       1049       1050       1033       1032       1050       1051       1034       1033       1051       1052       1035       1034       1052       1053       1036       1035       1054       1055       1038       1037       1055       1056       1039       1038       1056       1057       1040       1039       1057       1058       1041       1040       1058       1059       1042       1041       1059       1060       1043       1042       1060       1061       1044       1043       1061       1062       1045       1044       1062       1063       1046       1045       1063       1064       1047       1046       1064       1065       1048       1047       1065       1066       1049       1048       1066       1067       1050       1049       1067       1068       1051       1050       1068       1069       1052       1051       1069       1070       1053       1052       1071       1072       1055       1054       1072       1073       1056       1055       1073       1074       1057       1056       1074       1075       1058       1057       1075       1076       1059       1058       1076       1077       1060       1059       1077       1078       1061       1060       1078       1079       1062       1061       1079       1080       1063       1062       1080       1081       1064       1063       1081       1082       1065       1064       1082       1083       1066       1065       1083       1084       1067       1066       1084       1085       1068       1067       1085       1086       1069       1068       1086       1087       1070       1069       1088       1089       1072       1071       1089       1090       1073       1072       1090       1091       1074       1073       1091       1092       1075       1074       1092       1093       1076       1075       1093       1094       1077       1076       1094       1095       1078       1077       1095       1096       1079       1078       1096       1097       1080       1079       1097       1098       1081       1080       1098       1099       1082       1081       1099       1100       1083       1082       1100       1101       1084       1083       1101       1102       1085       1084       1102       1103       1086       1085       1103       1104       1087       1086       1105       1106       1089       1088       1106       1107       1090       1089       1107       1108       1091       1090       1108       1109       1092       1091       1109       1110       1093       1092       1110       1111       1094       1093       1111       1112       1095       1094       1112       1113       1096       1095       1113       1114       1097       1096       1114       1115       1098       1097       1115       1116       1099       1098       1116       1117       1100       1099       1117       1118       1101       1100       1118       1119       1102       1101       1119       1120       1103       1102       1120       1121       1104       1103       1122       1123       1106       1105       1123       1124       1107       1106       1124       1125       1108       1107       1125       1126       1109       1108       1126       1127       1110       1109       1127       1128       1111       1110       1128       1129       1112       1111       1129       1130       1113       1112       1130       1131       1114       1113       1131       1132       1115       1114       1132       1133       1116       1115       1133       1134       1117       1116       1134       1135       1118       1117       1135       1136       1119       1118       1136       1137       1120       1119       1137       1138       1121       1120        272        273       1123       1122        273        274       1124       1123        274        275       1125       1124        275        276       1126       1125        276        277       1127       1126        277        278       1128       1127        278        279       1129       1128        279        280       1130       1129        280        281       1131       1130        281        282       1132       1131        282        283       1133       1132        283        284       1134       1133        284        285       1135       1134        285        286       1136       1135        286        287       1137       1136        287        288       1138       1137 </DataArray>
<DataArray type="Int32"                                    Name="offsets"                                                      NumberOfComponents=" 1" format="ascii">
         4          8         12         16         20         24         28         32         36         40         44         48         52         56         60         64         68         72         76         80         84         88         92         96        100        104        108        112        116        120        124        128        132        136        140        144        148        152        156        160        164        168        172        176        180        184        188        192        196        200        204        208        212        216        220        224        228        232        236        240        244        248        252        256        260        264        268        272        276        280        284        288        292        296        300        304        308        312        316        320        324        328        332        336        340        344        348        352        356        360        364        368        372        376        380        384        388        392        396        400        404        408        412        416        420        424        428        432        436        440        444        448        452        456        460        464        468        472        476        480        484        488        492        496        500        504        508        512        516        520        524        528        532        536        540        544        548        552        556        560        564        568        572        576        580        584        588        592        596        600        604        608        612        616        620        624        628        632        636        640        644        648        652        656        660        664        668        672        676        680        684        688        692        696        700        704        708        712        716        720        724        728        732        736        740        744        748        752        756        760        764        768        772        776        780        784        788        792        796        800        804        808        812        816        820        824        828        832        836        840        844        848        852        856        860        864        868        872        876        880        884        888        892        896        900        904        908        912        916        920        924        928        932        936        940        944        948        952        956        960        964        968        972        976        980        984        988        992        996       1000       1004       1008       1012       1016       1020       1024       1028       1032       1036       1040       1044       1048       1052       1056       1060       1064       1068       1072       1076       1080       1084       1088       1092       1096       1100       1104       1108       1112       1116       1120       1124       1128       1132       1136       1140       1144       1148       1152       1156       1160       1164       1168       1172       1176       1180       1184       1188       1192       1196       1200       1204       1208       1212       1216       1220       1224       1228       1232       1236       1240       1244       1248       1252       1256       1260       1264       1268       1272       1276       1280       1284       1288       1292       1296       1300       1304       1308       1312       1316       1320       1324       1328       1332       1336       1340       1344       1348       1352       1356       1360       1364       1368       1372       1376       1380       1384       1388       1392       1396       1400       1404       1408       1412       1416       1420       1424       1428       1432       1436       1440       1444       1448       1452       1456       1460       1464       1468       1472       1476       1480       1484       1488       1492       1496       1500       1504       1508       1512       1516       1520       1524       1528       1532       1536       1540       1544       1548       1552       1556       1560       1564       1568       1572       1576       1580       1584       1588       1592       1596       1600       1604       1608       1612       1616       1620       1624       1628       1632       1636       1640       1644       1648       1652       1656       1660       1664       1668       1672       1676       1680       1684       1688       1692       1696       1700       1704       1708       1712       1716       1720       1724       1728       1732       1736       1740       1744       1748       1752       1756       1760       1764       1768       1772       1776       1780       1784       1788       1792       1796       1800       1804       1808       1812       1816       1820       1824       1828       1832       1836       1840       1844       1848       1852       1856       1860       1864       1868       1872       1876       1880       1884       1888       1892       1896       1900       1904       1908       1912       1916       1920       1924       1928       1932       1936       1940       1944       1948       1952       1956       1960       1964       1968       1972       1976       1980       1984       1988       1992       1996       2000       2004       2008       2012       2016       2020       2024       2028       2032       2036       2040       2044       2048       2052       2056       2060       2064       2068       2072       2076       2080       2084       2088       2092       2096       2100       2104       2108       2112       2116       2120       2124       2128       2132       2136       2140       2144       2148       2152       2156       2160       2164       2168       2172       2176       2180       2184       2188       2192       2196       2200       2204       2208       2212       2216       2220       2224       2228       2232       2236       2240       2244       2248       2252       2256       2260       2264       2268       2272       2276       2280       2284       2288       2292       2296       2300       2304       2308       2312       2316       2320       2324       2328       2332       2336       2340       2344       2348       2352       2356       2360       2364       2368       2372       2376       2380       2384       2388       2392       2396       2400       2404       2408       2412       2416       2420       2424       2428       2432       2436       2440       2444       2448       2452       2456       2460       2464       2468       2472       2476       2480       2484       2488       2492       2496       2500       2504       2508       2512       2516       2520       2524       2528       2532       2536       2540       2544       2548       2552       2556       2560       2564       2568       2572       2576       2580       2584       2588       2592       2596       2600       2604       2608       2612       2616       2620       2624       2628       2632       2636       2640       2644       2648       2652       2656       2660       2664       2668       2672       2676       2680       2684       2688       2692       2696       2700       2704       2708       2712       2716       2720       2724       2728       2732       2736       2740       2744       2748       2752       2756       2760       2764       2768       2772       2776       2780       2784       2788       2792       2796       2800       2804       2808       2812       2816       2820       2824       2828       2832       2836       2840       2844       2848       2852       2856       2860       2864       2868       2872       2876       2880       2884       2888       2892       2896       2900       2904       2908       2912       2916       2920       2924       2928       2932       2936       2940       2944       2948       2952       2956       2960       2964       2968       2972       2976       2980       2984       2988       2992       2996       3000       3004       3008       3012       3016       3020       3024       3028       3032       3036       3040       3044       3048       3052       3056       3060       3064       3068       3072       3076       3080       3084       3088       3092       3096       3100       3104       3108       3112       3116       3120       3124       3128       3132       3136       3140       3144       3148       3152       3156       3160       3164       3168       3172       3176       3180       3184       3188       3192       3196       3200       3204       3208       3212       3216       3220       3224       3228       3232       3236       3240       3244       3248       3252       3256       3260       3264       3268       3272       3276       3280       3284       3288       3292       3296       3300       3304       3308       3312       3316       3320       3324       3328       3332       3336       3340       3344       3348       3352       3356       3360       3364       3368       3372       3376       3380       3384       3388       3392       3396       3400       3404       3408       3412       3416       3420       3424       3428       3432       3436       3440       3444       3448       3452       3456       3460       3464       3468       3472       3476       3480       3484       3488       3492       3496       3500       3504       3508       3512       3516       3520       3524       3528       3532       3536       3540       3544       3548       3552       3556       3560       3564       3568       3572       3576       3580       3584       3588       3592       3596       3600       3604       3608       3612       3616       3620       3624       3628       3632       3636       3640       3644       3648       3652       3656       3660       3664       3668       3672       3676       3680       3684       3688       3692       3696       3700       3704       3708       3712       3716       3720       3724       3728       3732       3736       3740       3744       3748       3752       3756       3760       3764       3768       3772       3776       3780       3784       3788       3792       3796       3800       3804       3808       3812       3816       3820       3824       3828       3832       3836       3840       3844       3848       3852       3856       3860       3864       3868       3872       3876       3880       3884       3888       3892       3896       3900       3904       3908       3912       3916       3920       3924       3928       3932       3936       3940       3944       3948       3952       3956       3960       3964       3968       3972       3976       3980       3984       3988       3992       3996       4000       4004       4008       4012       4016       4020       4024       4028       4032       4036       4040       4044       4048       4052       4056       4060       4064       4068       4072       4076       4080       4084       4088       4092       4096 </DataArray>
<DataArray type="UInt8"                                    Name="types"                                                      NumberOfComponents=" 1" format="ascii">
         9          9          9          9          9          9          9          9          9          9          9          9          9          9          9          9          9          9          9          9          9          9          9          9          9          9          9          9          9          9          9          9          9          9          9          9          9          9          9          9          9          9          9          9          9          9          9          9          9          9          9          9          9          9          9          9          9          9          9          9          9          9          9          9          9          9          9          9          9          9          9          9          9          9          9          9          9          9          9          9          9          9          9          9          9          9          9          9          9          9          9          9          9          9          9          9          9          9          9          9          9          9          9          9          9          9          9          9          9          9          9          9          9          9          9          9          9          9          9          9          9          9          9          9          9          9          9          9          9          9          9          9          9          9          9          9          9          9          9          9          9          9          9          9          9          9          9          9          9          9          9          9          9          9          9          9          9          9          9          9          9          9          9          9          9          9          9          9          9          9          9          9          9          9          9          9          9          9          9          9          9          9          9          9          9          9          9          9          9          9          9          9          9          9          9          9          9          9          9          9          9          9          9          9          9          9          9          9          9          9          9          9          9          9          9          9          9          9          9          9          9          9          9          9          9          9          9          9          9          9          9          9          9          9          9          9          9          9          9          9          9          9          9          9          9          9          9          9          9          9          9          9          9          9          9          9          9          9          9          9          9          9          9          9          9          9          9          9          9          9          9          9          9          9          9          9          9          9          9          9          9          9          9          9          9          9          9          9          9          9          9          9          9          9          9          9          9          9          9          9          9          9          9          9          9          9          9          9          9          9          9          9          9          9          9          9          9          9          9          9          9          9          9          9          9          9          9          9          9          9          9          9          9          9          9          9          9          9          9          9          9          9          9          9          9          9          9          9          9          9          9          9          9          9          9          9          9          9          9          9          9          9          9          9          9          9          9          9          9          9          9          9          9          9          9          9          9          9          9          9          9          9          9          9          9          9          9          9          9          9          9          9          9          9          9          9          9          9          9          9          9          9          9          9          9          9          9          9          9          9          9          9          9          9          9          9          9          9          9          9          9          9          9          9          9          9          9          9          9          9          9          9          9          9          9          9          9          9          9          9          9          9          9          9          9          9          9          9          9          9          9          9          9          9          9          9          9          9          9          9          9          9          9          9          9          9          9          9          9          9          9          9          9          9          9          9          9          9          9          9          9          9          9          9          9          9          9          9          9          9          9          9          9          9          9          9          9          9          9          9          9          9          9          9          9          9          9          9          9          9          9          9          9          9          9          9          9          9          9          9          9          9          9          9          9          9          9          9          9          9          9          9          9          9          9          9          9          9          9          9          9          9          9          9          9          9          9          9          9          9          9          9          9          9          9          9          9          9          9          9          9          9          9          9          9          9          9          9          9          9          9          9          9          9          9          9          9          9          9          9          9          9          9          9          9          9          9          9          9          9          9          9          9          9          9          9          9          9          9          9          9          9          9          9          9          9          9          9          9          9          9          9          9          9          9          9          9          9          9          9          9          9          9          9          9          9          9          9          9          9          9          9          9          9          9          9          9          9          9          9          9          9          9          9          9          9          9          9          9          9          9          9          9          9          9          9          9          9          9          9          9          9          9          9          9          9          9          9          9          9          9          9          9          9          9          9          9          9          9          9          9          9          9          9          9          9          9          9          9          9          9          9          9          9          9          9          9          9          9          9          9          9          9          9          9          9          9          9          9          9          9          9          9          9          9          9          9          9          9          9          9          9          9          9          9          9          9          9          9          9          9          9          9          9          9          9          9          9          9          9          9          9          9          9          9          9          9          9          9          9          9          9          9          9          9          9          9          9          9          9          9          9          9          9          9          9          9          9          9          9          9          9          9          9          9          9          9          9          9          9          9          9          9          9          9          9          9          9          9          9          9          9          9          9          9          9          9          9          9          9          9          9          9          9          9          9          9          9          9          9          9          9          9          9          9          9          9          9          9          9          9          9          9          9          9          9          9          9          9          9          9          9          9          9          9          9          9          9          9          9          9          9          9          9          9          9          9          9          9          9          9          9          9          9          9          9          9          9          9          9          9          9          9          9          9          9          9          9          9          9          9          9          9          9          9          9          9          9          9          9          9          9          9          9          9          9          9          9          9          9          9          9          9          9          9          9          9          9          9          9          9          9          9          9          9          9          9          9          9          9          9          9          9          9          9          9          9          9          9          9          9          9          9          9          9          9          9          9          9          9          9          9          9          9          9          9          9          9          9          9          9          9          9          9          9          9          9          9          9          9          9          9          9          9          9          9          9          9          9          9          9          9          9          9          9          9          9          9          9          9          9          9          9          9          9          9          9          9          9          9          9          9          9          9          9          9          9          9          9          9          9          9          9          9          9          9          9          9          9          9          9          9          9          9          9          9          9          9          9          9          9          9          9          9          9          9          9          9          9          9          9          9          9          9 </DataArray>
</Cells>
<CellData>
<DataArray type="Int32"                                    Name="material"                                                      NumberOfComponents=" 1" format="ascii">
         1          1          1          1          1          1          1          1          1          1          1          1          1          1          1          1          1          1          1          1          1          1          1          1          1          1          1          1          1          1          1          1          1          1          1          1          1          1          1          1          1          1          1          1          1          1          1          1          1          1          1          1          1          1          1          1          1          1          1          1          1          1          1          1          1          1          1          1          1          1          1          1          1          1          1          1          1          1          1          1          1          1          1          1          1          1          1          1          1          1          1          1          1          1          1          1          1          1          1          1          1          1          1          1          1          1          1          1          1          1          1          1          1          1          1          1          1          1          1          1          1          1          1          1          1          1          1          1          1          1          1          1          1          1          1          1          1          1          1          1          1          1          1          1          1          1          1          1          1          1          1          1          1          1          1          1          1          1          1          1          1          1          1          1          1          1          1          1          1          1          1          1          1          1          1          1          1          1          1          1          1          1          1          1          1          1          1          1          1          1          1          1          1          1          1          1          1          1          1          1          1          1          1          1          1          1          1          1          1          1          1          1          1          1          1          1          1          1          1          1          1          1          1          1          1          1          1          1          1          1          1          1          1          1          1          1          1          1          1          1          1          1          1          1          1          1          1          1          1          1          1          1          1          1          1          1          1          1          1          1          1          1          1          1          1          1          1          1          1          1          1          1          1          1          1          1          1          1          1          1          1          1          1          1          1          1          1          1          1          1          1          1          1          1          1          1          1          1          1          1          1          1          1          1          1          1          1          1          1          1          1          1          1          1          1          1          1          1          1          1          1          1          1          1          1          1          1          1          1          1          1          1          1          1          1          1          1          1          1          1          1          1          1          1          1          1          1          1          1          1          1          1          1          1          1          1          1          1          1          1          1          1          1          1          1          1          1          1          1          1          1          1          1          1          1          1          1          1          1          1          1          1          1          1          1          1          1          1          1          1          1          1          1          1          1          1          1          1          1          1          1          1          1          1          1          1          1          1          1          1          1          1          1          1          1          1          1          1          1          1          1          1          1          1          1          1          1          1          1          1          1          1          1          1          1          1          1          1          1          1          1          1          1          1          1          1          1          1          1          1          1          1          1          1          1          1          1          1          1          1          1          1          1          1          1          1          1          1          1          1          1          1          1          1          1          1          1          1          1          1          1          1          1          1          1          1          1          1          1          1          1          1          1          1          1          1          1          1          1          1          1          1          1          1          1          1          1          1          1          1          1          1          1          1          1          1          1          1          1          1          1          1          1          1          1          1          1          1          1          1          1          1          1          1          1          1          1          1          1          1          1          1          1          1          1          1          1          1          1          1          1          1          1          1          1          1          1          1          1          1          1          1          1          1          1          1          1          1          1          1          1          1          1          1          1          1          1          1          1          1          1          1          1          1          1          1          1          1          1          1          1          1          1          1          1          1          1          1          1          1          1          1          1          1          1          1          1          1          1          1          1          1          1          1          1          1          1          1          1          1          1          1          1          1          1          1          1          1          1          1          1          1          1          1          1          1          1          1          1          1          1          1          1          1          1          1          1          1          1          1          1          1          1          1          1          1          1          1          1          1          1          1          1          1          1          1          1          1          1          1          1          1          1          1          1          1          1          1          1          1          1          1          1          1          1          1          1          1          1          1          1          1          1          1          1          1          1          1          1          1          1          1          1          1          1          1          1          1          1          1          1          1          1          1          1          1          1          1          1          1          1          1          1          1          1          1          1          1          1          1          1          1          1          1          1          1          1          1          1          1          1          1          1          1          1          1          1          1          1          1          1          1          1          1          1          1          1          1          1          1          1          1          1          1          1          1          1          1          1          1          1          1          1          1          1          1          1          1          1          1          1          1          1          1          1          1          1          1          1          1          1          1          1          1          1          1          1          1          1          1          1          1          1          1          1          1          1          1          1          1          1          1          1          1          1          1          1          1          1          1          1          1          1          1          1          1          1          1          1          1          1          1          1          1          1          1          1          1          1          1          1          1          1          1          1          1          1          1          1          1          1          1          1          1          1          1          1          1          1          1          1          1          1          1          1          1          1          1          1          1          1          1          1          1          1          1          1          1          1          1          1          1          1          1          1          1          1          1          1          1          1          1          1          1          1          1          1          1          1          1          1          1          1          1          1          1          1          1          1          1          1          1          1          1          1          1          1          1          1          1          1          1          1          1          1          1          1          1          1          1          1          1          1          1          1          1          1          1          1          1          1          1          1          1          1          1          1          1          1          1          1          1          1          1          1          1          1          1          1          1          1          1          1          1          1          1          1          1          1          1          1          1          1          1          1          1          1          1          1          1          1          1          1          1          1          1          1          1          1          1          1          1          1          1          1          1          1          1          1          1          1          1          1          1          1          1          1          1          1          1          1          1          1          1          1          1          1          1          1          1          1          1          1          1 </DataArray>
</CellData>
<PointData>
<DataArray type="Float64"                                    Name="u"                                                      NumberOfComponents=" 3" format="ascii">
              0.000004527              -0.000000000               0.999999998              -0.000006091               0.000000000               0.999999998              -0.000011381              -0.000000000               0.999999998              -0.000014512               0.000000000               0.999999998              -0.000016970               0.000000000               0.999999998              -0.000019329               0.000000000               0.999999998              -0.000021877               0.000000000               0.999999998              -0.000024869               0.000000000               0.999999998              -0.000028347              -0.000000000               0.999999998              -0.000032276               0.000000000               0.999999998              -0.000036730              -0.000000000               0.999999998              -0.000041683              -0.000000000               0.999999998              -0.000047113               0.000000000               0.999999998              -0.000053030               0.000000000               0.999999998              -0.000059425               0.000000000               0.999999998              -0.000066365               0.000000000               0.999999998              -0.000073817               0.000000000               0.999999998               0.000004432               0.000025967               0.999999998              -0.000005816               0.000023431               0.999999998              -0.000010871               0.000022901               0.999999998              -0.000013921               0.000023560               0.999999998              -0.000016387               0.000024982               0.999999998              -0.000018774               0.000026878               0.999999998              -0.000021428               0.000029127               0.999999998              -0.000024509               0.000031737               0.999999998              -0.000028081               0.000034541               0.999999998              -0.000032201               0.000037545               0.999999998              -0.000036819               0.000040675               0.999999998              -0.000041933               0.000043968               0.999999998              -0.000047555               0.000047439               0.999999998              -0.000053670               0.000051040               0.999999998              -0.000060259               0.000054827               0.999999998              -0.000067330               0.000058901               0.999999998              -0.000074892               0.000062850               0.999999998               0.000004157               0.000051708               0.999999998              -0.000005007               0.000046596               0.999999998              -0.000009470               0.000045618               0.999999998              -0.000012282               0.000047043               0.999999998              -0.000014716               0.000049922               0.999999998              -0.000017287               0.000053794               0.999999998              -0.000020229               0.000058441               0.999999998              -0.000023671               0.000063574               0.999999998              -0.000027681               0.000069203               0.999999998              -0.000032242               0.000075184               0.999999998              -0.000037293               0.000081494               0.999999998              -0.000042888               0.000088047               0.999999998              -0.000048999               0.000094975               0.999999998              -0.000055599               0.000102128               0.999999998              -0.000062675               0.000109688               0.999999998              -0.000070201               0.000117672               0.999999998              -0.000078177               0.000125724               0.999999998               0.000003779               0.000076994               0.999999998              -0.000003651               0.000069229               0.999999998              -0.000007271               0.000067955               0.999999998              -0.000009818               0.000070276               0.999999998              -0.000012356               0.000074761               0.999999998              -0.000015273               0.000080720               0.999999998              -0.000018752               0.000087718               0.999999998              -0.000022860               0.000095518               0.999999998              -0.000027551               0.000103942               0.999999998              -0.000032859               0.000112911               0.999999998              -0.000038741               0.000122288               0.999999998              -0.000045137               0.000132088               0.999999998              -0.000052041               0.000142442               0.999999998              -0.000059429               0.000153259               0.999999998              -0.000067335               0.000164544               0.999999998              -0.000075680               0.000176383               0.999999998              -0.000084367               0.000188417               0.999999998               0.000003307               0.000101568               0.999999998              -0.000001797               0.000091121               0.999999998              -0.000004451               0.000089774               0.999999998              -0.000006880               0.000093169               0.999999998              -0.000009795               0.000099389               0.999999998              -0.000013351               0.000107523               0.999999998              -0.000017631               0.000116919               0.999999998              -0.000022608               0.000127326               0.999999998              -0.000028278               0.000138577               0.999999998              -0.000034603               0.000150528               0.999999998              -0.000041494               0.000163040               0.999999998              -0.000048897               0.000176090               0.999999998              -0.000056809               0.000189865               0.999999998              -0.000065286               0.000204337               0.999999998              -0.000074233               0.000219274               0.999999998              -0.000083470               0.000234551               0.999999998              -0.000092907               0.000250166               0.999999998               0.000002785               0.000125160               0.999999998               0.000000542               0.000112220               0.999999998              -0.000001285               0.000111043               0.999999998              -0.000003881               0.000115641               0.999999998              -0.000007403               0.000123710               0.999999998              -0.000011875               0.000133977               0.999999998              -0.000017203               0.000145786               0.999999998              -0.000023390               0.000158872               0.999999998              -0.000030254               0.000172941               0.999999998              -0.000037692               0.000187854               0.999999998              -0.000045680               0.000203498               0.999999998              -0.000054236               0.000219899               0.999999998              -0.000063365               0.000237149               0.999999998              -0.000072916               0.000255149               0.999999998              -0.000082766               0.000273374               0.999999998              -0.000092784               0.000291695               0.999999998              -0.000102930               0.000310451               0.999999998               0.000002311               0.000147537               0.999999998               0.000003177               0.000132482               0.999999998               0.000001883               0.000131655               0.999999998              -0.000001153               0.000137592               0.999999998              -0.000005589               0.000147530               0.999999998              -0.000011218               0.000160007               0.999999998              -0.000017861               0.000174259               0.999999998              -0.000025289               0.000190012               0.999999998              -0.000033312               0.000206900               0.999999998              -0.000041873               0.000224756               0.999999998              -0.000051052               0.000243590               0.999999998              -0.000060790               0.000263371               0.999999998              -0.000070996               0.000283926               0.999999998              -0.000081482               0.000305245               0.999999998              -0.000092062               0.000326605               0.999999998              -0.000102795               0.000348083               0.999999998              -0.000113811               0.000370200               0.999999998               0.000001911               0.000168467               0.999999998               0.000005879               0.000151838               0.999999998               0.000004841               0.000151526               0.999999998               0.000001046               0.000158901               0.999999998              -0.000004530               0.000170713               0.999999998              -0.000011470               0.000185386               0.999999998              -0.000019365               0.000202125               0.999999998              -0.000027943               0.000220522               0.999999998              -0.000037117               0.000240237               0.999999998              -0.000046814               0.000261087               0.999999998              -0.000057104               0.000283205               0.999999998              -0.000067806               0.000306416               0.999999998              -0.000078884               0.000330547               0.999999998              -0.000090112               0.000355186               0.999999998              -0.000101501               0.000379892               0.999999998              -0.000113210               0.000405038               0.999999998              -0.000125359               0.000430988               0.999999998               0.000001477               0.000187583               0.999999998               0.000008529               0.000170278               0.999999998               0.000007297               0.000170578               0.999999998               0.000002524               0.000179349               0.999999998              -0.000004247               0.000193063               0.999999998              -0.000012467               0.000209970               0.999999998              -0.000021519               0.000229244               0.999999998              -0.000031184               0.000250332               0.999999998              -0.000041370               0.000272958               0.999999998              -0.000052094               0.000297068               0.999999998              -0.000063327               0.000322645               0.999999998              -0.000074976               0.000349467               0.999999998              -0.000086929               0.000377134               0.999999998              -0.000099009               0.000405279               0.999999998              -0.000111322               0.000434017               0.999999998              -0.000124061               0.000463462               0.999999998              -0.000137122               0.000493639               0.999999998               0.000000813               0.000205484               0.999999998               0.000010152               0.000189465               0.999999998               0.000010091               0.000187930               0.999999998               0.000006165               0.000194457               0.999999998               0.000000193               0.000205927               0.999999998              -0.000007129               0.000220678               0.999999998              -0.000015264               0.000237874               0.999999998              -0.000023967               0.000256889               0.999999998              -0.000032984               0.000277420               0.999999998              -0.000042257               0.000299350               0.999999998              -0.000052063               0.000322648               0.999999998              -0.000062293               0.000347261               0.999999998              -0.000072989               0.000372913               0.999999998              -0.000083708               0.000399484               0.999999998              -0.000094358               0.000426711               0.999999998              -0.000105167               0.000454691               0.999999998              -0.000116138               0.000483464               0.999999998               0.000000357               0.000221657               0.999999998               0.000010892               0.000207816               0.999999998               0.000012030               0.000205456               0.999999998               0.000009147               0.000210190               0.999999998               0.000004125               0.000219657               0.999999998              -0.000002128               0.000232469               0.999999998              -0.000009317               0.000247691               0.999999998              -0.000016997               0.000264820               0.999999998              -0.000024819               0.000283467               0.999999998              -0.000032902               0.000303453               0.999999998              -0.000041317               0.000324667               0.999999998              -0.000050197               0.000347125               0.999999998              -0.000059403               0.000370735               0.999999998              -0.000068695               0.000395428               0.999999998              -0.000077779               0.000421021               0.999999998              -0.000086761               0.000447380               0.999999998              -0.000095826               0.000474496               0.999999998               0.000000020               0.000235766               0.999999998               0.000010788               0.000224845               0.999999998               0.000012854               0.000222417               0.999999998               0.000011032               0.000225999               0.999999998               0.000007129               0.000233859               0.999999998               0.000001978               0.000244922               0.999999998              -0.000004068               0.000258455               0.999999998              -0.000010661               0.000273898               0.999999998              -0.000017362               0.000290899               0.999999998              -0.000024183               0.000309175               0.999999998              -0.000031414               0.000328630               0.999999998              -0.000038910               0.000349207               0.999999998              -0.000046545               0.000370947               0.999999998              -0.000054089               0.000393892               0.999999998              -0.000061577               0.000417870               0.999999998              -0.000068726               0.000442754               0.999999998              -0.000075566               0.000468312               0.999999998              -0.000000190               0.000247601               0.999999998               0.000009828               0.000239884               0.999999998               0.000012395               0.000238048               0.999999998               0.000011522               0.000241022               0.999999998               0.000008740               0.000247771               0.999999998               0.000004708               0.000257405               0.999999998              -0.000000110               0.000269513               0.999999998              -0.000005489               0.000283492               0.999999998              -0.000011052               0.000299080               0.999999998              -0.000016688               0.000315988               0.999999998              -0.000022612               0.000334005               0.999999998              -0.000028773               0.000353096               0.999999998              -0.000034851               0.000373344               0.999999998              -0.000040649               0.000394727               0.999999998              -0.000046090               0.000417249               0.999999998              -0.000051401               0.000440744               0.999999998              -0.000056240               0.000464957               0.999999998              -0.000000262               0.000256997               0.999999998               0.000008079               0.000252309               0.999999998               0.000010651               0.000251453               0.999999998               0.000010496               0.000254306               0.999999998               0.000008652               0.000260326               0.999999998               0.000005792               0.000269042               0.999999998               0.000002163               0.000280006               0.999999998              -0.000001901               0.000292857               0.999999998              -0.000006264               0.000307306               0.999999998              -0.000010607               0.000323179               0.999999998              -0.000015052               0.000340297               0.999999998              -0.000019692               0.000358394               0.999999998              -0.000024253               0.000377572               0.999999998              -0.000028359               0.000397830               0.999999998              -0.000032111               0.000419161               0.999999998              -0.000035501               0.000441449               0.999999998              -0.000038149               0.000464595               0.999999998              -0.000000216               0.000263779               0.999999998               0.000005731               0.000261630               0.999999998               0.000007786               0.000261769               0.999999998               0.000007968               0.000264792               0.999999998               0.000006940               0.000270511               0.999999998               0.000005127               0.000278612               0.999999998               0.000002739               0.000288840               0.999999998              -0.000000000               0.000300964               0.999999998              -0.000002968               0.000314690               0.999999998              -0.000005956               0.000329892               0.999999998              -0.000008924               0.000346353               0.999999998              -0.000011923               0.000363868               0.999999998              -0.000014983               0.000382420               0.999999998              -0.000017762               0.000401934               0.999999998              -0.000020112               0.000422484               0.999999998              -0.000021764               0.000444106               0.999999998              -0.000022636               0.000466623               0.999999998              -0.000000120               0.000267852               0.999999998               0.000002974               0.000267358               0.999999998               0.000004103               0.000268287               0.999999998               0.000004279               0.000271554               0.999999998               0.000003835               0.000277173               0.999999998               0.000002982               0.000285016               0.999999998               0.000001831               0.000294880               0.999999998               0.000000498               0.000306575               0.999999998              -0.000001013               0.000319842               0.999999998              -0.000002618               0.000334605               0.999999998              -0.000004087               0.000350684               0.999999998              -0.000005435               0.000367913               0.999999998              -0.000007060               0.000386157               0.999999998              -0.000008722               0.000405370               0.999999998              -0.000009577               0.000425571               0.999999998              -0.000010108               0.000446752               0.999999998              -0.000010342               0.000468894               0.999999998              -0.000000000               0.000269270               0.999999998              -0.000000000               0.000269329               0.999999998               0.000000000               0.000270510               0.999999998              -0.000000000               0.000273893               0.999999998               0.000000000               0.000279525               0.999999998               0.000000000               0.000287265               0.999999998               0.000000000               0.000296955               0.999999998               0.000000000               0.000308535               0.999999998               0.000000000               0.000321702               0.999999998              -0.000000000               0.000336251               0.999999998              -0.000000000               0.000352202               0.999999998               0.000000000               0.000369407               0.999999998               0.000000000               0.000387598               0.999999998              -0.000000000               0.000406820               0.999999998              -0.000000000               0.000426895               0.999999998              -0.000000000               0.000447810               0.999999998               0.000000000               0.000469794               0.999999998               0.000004527              -0.000000000               0.999999998              -0.000006091               0.000000000               0.999999998              -0.000011381              -0.000000000               0.999999998              -0.000014512               0.000000000               0.999999998              -0.000016970               0.000000000               0.999999998              -0.000019329               0.000000000               0.999999998              -0.000021877               0.000000000               0.999999998              -0.000024869               0.000000000               0.999999998              -0.000028347              -0.000000000               0.999999998              -0.000032276               0.000000000               0.999999998              -0.000036730              -0.000000000               0.999999998              -0.000041683              -0.000000000               0.999999998              -0.000047113               0.000000000               0.999999998              -0.000053030               0.000000000               0.999999998              -0.000059425               0.000000000               0.999999998              -0.000066365               0.000000000               0.999999998              -0.000073817               0.000000000               0.999999998               0.000004432              -0.000025967               0.999999998              -0.000005816              -0.000023431               0.999999998              -0.000010871              -0.000022901               0.999999998              -0.000013921              -0.000023560               0.999999998              -0.000016387              -0.000024982               0.999999998              -0.000018774              -0.000026878               0.999999998              -0.000021428              -0.000029127               0.999999998              -0.000024509              -0.000031737               0.999999998              -0.000028081              -0.000034541               0.999999998              -0.000032201              -0.000037545               0.999999998              -0.000036819              -0.000040675               0.999999998              -0.000041933              -0.000043968               0.999999998              -0.000047555              -0.000047439               0.999999998              -0.000053670              -0.000051040               0.999999998              -0.000060259              -0.000054827               0.999999998              -0.000067330              -0.000058901               0.999999998              -0.000074892              -0.000062850               0.999999998               0.000004157              -0.000051708               0.999999998              -0.000005007              -0.000046596               0.999999998              -0.000009470              -0.000045618               0.999999998              -0.000012282              -0.000047043               0.999999998              -0.000014716              -0.000049922               0.999999998              -0.000017287              -0.000053794               0.999999998              -0.000020229              -0.000058441               0.999999998              -0.000023671              -0.000063574               0.999999998              -0.000027681              -0.000069203               0.999999998              -0.000032242              -0.000075184               0.999999998              -0.000037293              -0.000081494               0.999999998              -0.000042888              -0.000088047               0.999999998              -0.000048999              -0.000094975               0.999999998              -0.000055599              -0.000102128               0.999999998              -0.000062675              -0.000109688               0.999999998              -0.000070201              -0.000117672               0.999999998              -0.000078177              -0.000125724               0.999999998               0.000003779              -0.000076994               0.999999998              -0.000003651              -0.000069229               0.999999998              -0.000007271              -0.000067955               0.999999998              -0.000009818              -0.000070276               0.999999998              -0.000012356              -0.000074761               0.999999998              -0.000015273              -0.000080720               0.999999998              -0.000018752              -0.000087718               0.999999998              -0.000022860              -0.000095518               0.999999998              -0.000027551              -0.000103942               0.999999998              -0.000032859              -0.000112911               0.999999998              -0.000038741              -0.000122288               0.999999998              -0.000045137              -0.000132088               0.999999998              -0.000052041              -0.000142442               0.999999998              -0.000059429              -0.000153259               0.999999998              -0.000067335              -0.000164544               0.999999998              -0.000075680              -0.000176383               0.999999998              -0.000084367              -0.000188417               0.999999998               0.000003307              -0.000101568               0.999999998              -0.000001797              -0.000091121               0.999999998              -0.000004451              -0.000089774               0.999999998              -0.000006880              -0.000093169               0.999999998              -0.000009795              -0.000099389               0.999999998              -0.000013351              -0.000107523               0.999999998              -0.000017631              -0.000116919               0.999999998              -0.000022608              -0.000127326               0.999999998              -0.000028278              -0.000138577               0.999999998              -0.000034603              -0.000150528               0.999999998              -0.000041494              -0.000163040               0.999999998              -0.000048897              -0.000176090               0.999999998              -0.000056809              -0.000189865               0.999999998              -0.000065286              -0.000204337               0.999999998              -0.000074233              -0.000219274               0.999999998              -0.000083470              -0.000234551               0.999999998              -0.000092907              -0.000250166               0.999999998               0.000002785              -0.000125160               0.999999998               0.000000542              -0.000112220               0.999999998              -0.000001285              -0.000111043               0.999999998              -0.000003881              -0.000115641               0.999999998              -0.000007403              -0.000123710               0.999999998              -0.000011875              -0.000133977               0.999999998              -0.000017203              -0.000145786               0.999999998              -0.000023390              -0.000158872               0.999999998              -0.000030254              -0.000172941               0.999999998              -0.000037692              -0.000187854               0.999999998              -0.000045680              -0.000203498               0.999999998              -0.000054236              -0.000219899               0.999999998              -0.000063365              -0.000237149               0.999999998              -0.000072916              -0.000255149               0.999999998              -0.000082766              -0.000273374               0.999999998              -0.000092784              -0.000291695               0.999999998              -0.000102930              -0.000310451               0.999999998               0.000002311              -0.000147537               0.999999998               0.000003177              -0.000132482               0.999999998               0.000001883              -0.000131655               0.999999998              -0.000001153              -0.000137592               0.999999998              -0.000005589              -0.000147530               0.999999998              -0.000011218              -0.000160007               0.999999998              -0.000017861              -0.000174259               0.999999998              -0.000025289              -0.000190012               0.999999998              -0.000033312              -0.000206900               0.999999998              -0.000041873              -0.000224756               0.999999998              -0.000051052              -0.000243590               0.999999998              -0.000060790              -0.000263371               0.999999998              -0.000070996              -0.000283926               0.999999998              -0.000081482              -0.000305245               0.999999998              -0.000092062              -0.000326605               0.999999998              -0.000102795              -0.000348083               0.999999998              -0.000113811              -0.000370200               0.999999998               0.000001911              -0.000168467               0.999999998               0.000005879              -0.000151838               0.999999998               0.000004841              -0.000151526               0.999999998               0.000001046              -0.000158901               0.999999998              -0.000004530              -0.000170713               0.999999998              -0.000011470              -0.000185386               0.999999998              -0.000019365              -0.000202125               0.999999998              -0.000027943              -0.000220522               0.999999998              -0.000037117              -0.000240237               0.999999998              -0.000046814              -0.000261087               0.999999998              -0.000057104              -0.000283205               0.999999998              -0.000067806              -0.000306416               0.999999998              -0.000078884              -0.000330547               0.999999998              -0.000090112              -0.000355186               0.999999998              -0.000101501              -0.000379892               0.999999998              -0.000113210              -0.000405038               0.999999998              -0.000125359              -0.000430988               0.999999998               0.000001477              -0.000187583               0.999999998               0.000008529              -0.000170278               0.999999998               0.000007297              -0.000170578               0.999999998               0.000002524              -0.000179349               0.999999998              -0.000004247              -0.000193063               0.999999998              -0.000012467              -0.000209970               0.999999998              -0.000021519              -0.000229244               0.999999998              -0.000031184              -0.000250332               0.999999998              -0.000041370              -0.000272958               0.999999998              -0.000052094              -0.000297068               0.999999998              -0.000063327              -0.000322645               0.999999998              -0.000074976              -0.000349467               0.999999998              -0.000086929              -0.000377134               0.999999998              -0.000099009              -0.000405279               0.999999998              -0.000111322              -0.000434017               0.999999998              -0.000124061              -0.000463462               0.999999998              -0.000137122              -0.000493639               0.999999998               0.000000813              -0.000205484               0.999999998               0.000010152              -0.000189465               0.999999998               0.000010091              -0.000187930               0.999999998               0.000006165              -0.000194457               0.999999998               0.000000193              -0.000205927               0.999999998              -0.000007129              -0.000220678               0.999999998              -0.000015264              -0.000237874               0.999999998              -0.000023967              -0.000256889               0.999999998              -0.000032984              -0.000277420               0.999999998              -0.000042257              -0.000299350               0.999999998              -0.000052063              -0.000322648               0.999999998              -0.000062293              -0.000347261               0.999999998              -0.000072989              -0.000372913               0.999999998              -0.000083708              -0.000399484               0.999999998              -0.000094358              -0.000426711               0.999999998              -0.000105167              -0.000454691               0.999999998              -0.000116138              -0.000483464               0.999999998               0.000000357              -0.000221657               0.999999998               0.000010892              -0.000207816               0.999999998               0.000012030              -0.000205456               0.999999998               0.000009147              -0.000210190               0.999999998               0.000004125              -0.000219657               0.999999998              -0.000002128              -0.000232469               0.999999998              -0.000009317              -0.000247691               0.999999998              -0.000016997              -0.000264820               0.999999998              -0.000024819              -0.000283467               0.999999998              -0.000032902              -0.000303453               0.999999998              -0.000041317              -0.000324667               0.999999998              -0.000050197              -0.000347125               0.999999998              -0.000059403              -0.000370735               0.999999998              -0.000068695              -0.000395428               0.999999998              -0.000077779              -0.000421021               0.999999998              -0.000086761              -0.000447380               0.999999998              -0.000095826              -0.000474496               0.999999998               0.000000020              -0.000235766               0.999999998               0.000010788              -0.000224845               0.999999998               0.000012854              -0.000222417               0.999999998               0.000011032              -0.000225999               0.999999998               0.000007129              -0.000233859               0.999999998               0.000001978              -0.000244922               0.999999998              -0.000004068              -0.000258455               0.999999998              -0.000010661              -0.000273898               0.999999998              -0.000017362              -0.000290899               0.999999998              -0.000024183              -0.000309175               0.999999998              -0.000031414              -0.000328630               0.999999998              -0.000038910              -0.000349207               0.999999998              -0.000046545              -0.000370947               0.999999998              -0.000054089              -0.000393892               0.999999998              -0.000061577              -0.000417870               0.999999998              -0.000068726              -0.000442754               0.999999998              -0.000075566              -0.000468312               0.999999998              -0.000000190              -0.000247601               0.999999998               0.000009828              -0.000239884               0.999999998               0.000012395              -0.000238048               0.999999998               0.000011522              -0.000241022               0.999999998               0.000008740              -0.000247771               0.999999998               0.000004708              -0.000257405               0.999999998              -0.000000110              -0.000269513               0.999999998              -0.000005489              -0.000283492               0.999999998              -0.000011052              -0.000299080               0.999999998              -0.000016688              -0.000315988               0.999999998              -0.000022612              -0.000334005               0.999999998              -0.000028773              -0.000353096               0.999999998              -0.000034851              -0.000373344               0.999999998              -0.000040649              -0.000394727               0.999999998              -0.000046090              -0.000417249               0.999999998              -0.000051401              -0.000440744               0.999999998              -0.000056240              -0.000464957               0.999999998              -0.000000262              -0.000256997               0.999999998               0.000008079              -0.000252309               0.999999998               0.000010651              -0.000251453               0.999999998               0.000010496              -0.000254306               0.999999998               0.000008652              -0.000260326               0.999999998               0.000005792              -0.000269042               0.999999998               0.000002163              -0.000280006               0.999999998              -0.000001901              -0.000292857               0.999999998              -0.000006264              -0.000307306               0.999999998              -0.000010607              -0.000323179               0.999999998              -0.000015052              -0.000340297               0.999999998              -0.000019692              -0.000358394               0.999999998              -0.000024253              -0.000377572               0.999999998              -0.000028359              -0.000397830               0.999999998              -0.000032111              -0.000419161               0.999999998              -0.000035501              -0.000441449               0.999999998              -0.000038149              -0.000464595               0.999999998              -0.000000216              -0.000263779               0.999999998               0.000005731              -0.000261630               0.999999998               0.000007786              -0.000261769               0.999999998               0.000007968              -0.000264792               0.999999998               0.000006940              -0.000270511               0.999999998               0.000005127              -0.000278612               0.999999998               0.000002739              -0.000288840               0.999999998              -0.000000000              -0.000300964               0.999999998              -0.000002968              -0.000314690               0.999999998              -0.000005956              -0.000329892               0.999999998              -0.000008924              -0.000346353               0.999999998              -0.000011923              -0.000363868               0.999999998              -0.000014983              -0.000382420               0.999999998              -0.000017762              -0.000401934               0.999999998              -0.000020112              -0.000422484               0.999999998              -0.000021764              -0.000444106               0.999999998              -0.000022636              -0.000466623               0.999999998              -0.000000120              -0.000267852               0.999999998               0.000002974              -0.000267358               0.999999998               0.000004103              -0.000268287               0.999999998               0.000004279              -0.000271554               0.999999998               0.000003835              -0.000277173               0.999999998               0.000002982              -0.000285016               0.999999998               0.000001831              -0.000294880               0.999999998               0.000000498              -0.000306575               0.999999998              -0.000001013              -0.000319842               0.999999998              -0.000002618              -0.000334605               0.999999998              -0.000004087              -0.000350684               0.999999998              -0.000005435              -0.000367913               0.999999998              -0.000007060              -0.000386157               0.999999998              -0.000008722              -0.000405370               0.999999998              -0.000009577              -0.000425571               0.999999998              -0.000010108              -0.000446752               0.999999998              -0.000010342              -0.000468894               0.999999998              -0.000000000              -0.000269270               0.999999998              -0.000000000              -0.000269329               0.999999998              -0.000000000              -0.000270510               0.999999998               0.000000000              -0.000273893               0.999999998              -0.000000000              -0.000279525               0.999999998              -0.000000000              -0.000287265               0.999999998              -0.000000000              -0.000296955               0.999999998              -0.000000000              -0.000308535               0.999999998              -0.000000000              -0.000321702               0.999999998              -0.000000000              -0.000336251               0.999999998              -0.000000000              -0.000352202               0.999999998              -0.000000000              -0.000369407               0.999999998              -0.000000000              -0.000387598               0.999999998               0.000000000              -0.000406820               0.999999998               0.000000000              -0.000426895               0.999999998               0.000000000              -0.000447810               0.999999998               0.000000000              -0.000469794               0.999999998              -0.000004527              -0.000000000               0.999999998               0.000006091              -0.000000000               0.999999998               0.000011381               0.000000000               0.999999998               0.000014512               0.000000000               0.999999998               0.000016970               0.000000000               0.999999998               0.000019329               0.000000000               0.999999998               0.000021877               0.000000000               0.999999998               0.000024869               0.000000000               0.999999998               0.000028347               0.000000000               0.999999998               0.000032276               0.000000000               0.999999998               0.000036730               0.000000000               0.999999998               0.000041683               0.000000000               0.999999998               0.000047113               0.000000000               0.999999998               0.000053030              -0.000000000               0.999999998               0.000059425               0.000000000               0.999999998               0.000066365              -0.000000000               0.999999998               0.000073817               0.000000000               0.999999998              -0.000004432              -0.000025967               0.999999998               0.000005816              -0.000023431               0.999999998               0.000010871              -0.000022901               0.999999998               0.000013921              -0.000023560               0.999999998               0.000016387              -0.000024982               0.999999998               0.000018774              -0.000026878               0.999999998               0.000021428              -0.000029127               0.999999998               0.000024509              -0.000031737               0.999999998               0.000028081              -0.000034541               0.999999998               0.000032201              -0.000037545               0.999999998               0.000036819              -0.000040675               0.999999998               0.000041933              -0.000043968               0.999999998               0.000047555              -0.000047439               0.999999998               0.000053670              -0.000051040               0.999999998               0.000060259              -0.000054827               0.999999998               0.000067330              -0.000058901               0.999999998               0.000074892              -0.000062850               0.999999998              -0.000004157              -0.000051708               0.999999998               0.000005007              -0.000046596               0.999999998               0.000009470              -0.000045618               0.999999998               0.000012282              -0.000047043               0.999999998               0.000014716              -0.000049922               0.999999998               0.000017287              -0.000053794               0.999999998               0.000020229              -0.000058441               0.999999998               0.000023671              -0.000063574               0.999999998               0.000027681              -0.000069203               0.999999998               0.000032242              -0.000075184               0.999999998               0.000037293              -0.000081494               0.999999998               0.000042888              -0.000088047               0.999999998               0.000048999              -0.000094975               0.999999998               0.000055599              -0.000102128               0.999999998               0.000062675              -0.000109688               0.999999998               0.000070201              -0.000117672               0.999999998               0.000078177              -0.000125724               0.999999998              -0.000003779              -0.000076994               0.999999998               0.000003651              -0.000069229               0.999999998               0.000007271              -0.000067955               0.999999998               0.000009818              -0.000070276               0.999999998               0.000012356              -0.000074761               0.999999998               0.000015273              -0.000080720               0.999999998               0.000018752              -0.000087718               0.999999998               0.000022860              -0.000095518               0.999999998               0.000027551              -0.000103942               0.999999998               0.000032859              -0.000112911               0.999999998               0.000038741              -0.000122288               0.999999998               0.000045137              -0.000132088               0.999999998               0.000052041              -0.000142442               0.999999998               0.000059429              -0.000153259               0.999999998               0.000067335              -0.000164544               0.999999998               0.000075680              -0.000176383               0.999999998               0.000084367              -0.000188417               0.999999998              -0.000003307              -0.000101568               0.999999998               0.000001797              -0.000091121               0.999999998               0.000004451              -0.000089774               0.999999998               0.000006880              -0.000093169               0.999999998               0.000009795              -0.000099389               0.999999998               0.000013351              -0.000107523               0.999999998               0.000017631              -0.000116919               0.999999998               0.000022608              -0.000127326               0.999999998               0.000028278              -0.000138577               0.999999998               0.000034603              -0.000150528               0.999999998               0.000041494              -0.000163040               0.999999998               0.000048897              -0.000176090               0.999999998               0.000056809              -0.000189865               0.999999998               0.000065286              -0.000204337               0.999999998               0.000074233              -0.000219274               0.999999998               0.000083470              -0.000234551               0.999999998               0.000092907              -0.000250166               0.999999998              -0.000002785              -0.000125160               0.999999998              -0.000000542              -0.000112220               0.999999998               0.000001285              -0.000111043               0.999999998               0.000003881              -0.000115641               0.999999998               0.000007403              -0.000123710               0.999999998               0.000011875              -0.000133977               0.999999998               0.000017203              -0.000145786               0.999999998               0.000023390              -0.000158872               0.999999998               0.000030254              -0.000172941               0.999999998               0.000037692              -0.000187854               0.999999998               0.000045680              -0.000203498               0.999999998               0.000054236              -0.000219899               0.999999998               0.000063365              -0.000237149               0.999999998               0.000072916              -0.000255149               0.999999998               0.000082766              -0.000273374               0.999999998               0.000092784              -0.000291695               0.999999998               0.000102930              -0.000310451               0.999999998              -0.000002311              -0.000147537               0.999999998              -0.000003177              -0.000132482               0.999999998              -0.000001883              -0.000131655               0.999999998               0.000001153              -0.000137592               0.999999998               0.000005589              -0.000147530               0.999999998               0.000011218              -0.000160007               0.999999998               0.000017861              -0.000174259               0.999999998               0.000025289              -0.000190012               0.999999998               0.000033312              -0.000206900               0.999999998               0.000041873              -0.000224756               0.999999998               0.000051052              -0.000243590               0.999999998               0.000060790              -0.000263371               0.999999998               0.000070996              -0.000283926               0.999999998               0.000081482              -0.000305245               0.999999998               0.000092062              -0.000326605               0.999999998               0.000102795              -0.000348083               0.999999998               0.000113811              -0.000370200               0.999999998              -0.000001911              -0.000168467               0.999999998              -0.000005879              -0.000151838               0.999999998              -0.000004841              -0.000151526               0.999999998              -0.000001046              -0.000158901               0.999999998               0.000004530              -0.000170713               0.999999998               0.000011470              -0.000185386               0.999999998               0.000019365              -0.000202125               0.999999998               0.000027943              -0.000220522               0.999999998               0.000037117              -0.000240237               0.999999998               0.000046814              -0.000261087               0.999999998               0.000057104              -0.000283205               0.999999998               0.000067806              -0.000306416               0.999999998               0.000078884              -0.000330547               0.999999998               0.000090112              -0.000355186               0.999999998               0.000101501              -0.000379892               0.999999998               0.000113210              -0.000405038               0.999999998               0.000125359              -0.000430988               0.999999998              -0.000001477              -0.000187583               0.999999998              -0.000008529              -0.000170278               0.999999998              -0.000007297              -0.000170578               0.999999998              -0.000002524              -0.000179349               0.999999998               0.000004247              -0.000193063               0.999999998               0.000012467              -0.000209970               0.999999998               0.000021519              -0.000229244               0.999999998               0.000031184              -0.000250332               0.999999998               0.000041370              -0.000272958               0.999999998               0.000052094              -0.000297068               0.999999998               0.000063327              -0.000322645               0.999999998               0.000074976              -0.000349467               0.999999998               0.000086929              -0.000377134               0.999999998               0.000099009              -0.000405279               0.999999998               0.000111322              -0.000434017               0.999999998               0.000124061              -0.000463462               0.999999998               0.000137122              -0.000493639               0.999999998              -0.000000813              -0.000205484               0.999999998              -0.000010152              -0.000189465               0.999999998              -0.000010091              -0.000187930               0.999999998              -0.000006165              -0.000194457               0.999999998              -0.000000193              -0.000205927               0.999999998               0.000007129              -0.000220678               0.999999998               0.000015264              -0.000237874               0.999999998               0.000023967              -0.000256889               0.999999998               0.000032984              -0.000277420               0.999999998               0.000042257              -0.000299350               0.999999998               0.000052063              -0.000322648               0.999999998               0.000062293              -0.000347261               0.999999998               0.000072989              -0.000372913               0.999999998               0.000083708              -0.000399484               0.999999998               0.000094358              -0.000426711               0.999999998               0.000105167              -0.000454691               0.999999998               0.000116138              -0.000483464               0.999999998              -0.000000357              -0.000221657               0.999999998              -0.000010892              -0.000207816               0.999999998              -0.000012030              -0.000205456               0.999999998              -0.000009147              -0.000210190               0.999999998              -0.000004125              -0.000219657               0.999999998               0.000002128              -0.000232469               0.999999998               0.000009317              -0.000247691               0.999999998               0.000016997              -0.000264820               0.999999998               0.000024819              -0.000283467               0.999999998               0.000032902              -0.000303453               0.999999998               0.000041317              -0.000324667               0.999999998               0.000050197              -0.000347125               0.999999998               0.000059403              -0.000370735               0.999999998               0.000068695              -0.000395428               0.999999998               0.000077779              -0.000421021               0.999999998               0.000086761              -0.000447380               0.999999998               0.000095826              -0.000474496               0.999999998              -0.000000020              -0.000235766               0.999999998              -0.000010788              -0.000224845               0.999999998              -0.000012854              -0.000222417               0.999999998              -0.000011032              -0.000225999               0.999999998              -0.000007129              -0.000233859               0.999999998              -0.000001978              -0.000244922               0.999999998               0.000004068              -0.000258455               0.999999998               0.000010661              -0.000273898               0.999999998               0.000017362              -0.000290899               0.999999998               0.000024183              -0.000309175               0.999999998               0.000031414              -0.000328630               0.999999998               0.000038910              -0.000349207               0.999999998               0.000046545              -0.000370947               0.999999998               0.000054089              -0.000393892               0.999999998               0.000061577              -0.000417870               0.999999998               0.000068726              -0.000442754               0.999999998               0.000075566              -0.000468312               0.999999998               0.000000190              -0.000247601               0.999999998              -0.000009828              -0.000239884               0.999999998              -0.000012395              -0.000238048               0.999999998              -0.000011522              -0.000241022               0.999999998              -0.000008740              -0.000247771               0.999999998              -0.000004708              -0.000257405               0.999999998               0.000000110              -0.000269513               0.999999998               0.000005489              -0.000283492               0.999999998               0.000011052              -0.000299080               0.999999998               0.000016688              -0.000315988               0.999999998               0.000022612              -0.000334005               0.999999998               0.000028773              -0.000353096               0.999999998               0.000034851              -0.000373344               0.999999998               0.000040649              -0.000394727               0.999999998               0.000046090              -0.000417249               0.999999998               0.000051401              -0.000440744               0.999999998               0.000056240              -0.000464957               0.999999998               0.000000262              -0.000256997               0.999999998              -0.000008079              -0.000252309               0.999999998              -0.000010651              -0.000251453               0.999999998              -0.000010496              -0.000254306               0.999999998              -0.000008652              -0.000260326               0.999999998              -0.000005792              -0.000269042               0.999999998              -0.000002163              -0.000280006               0.999999998               0.000001901              -0.000292857               0.999999998               0.000006264              -0.000307306               0.999999998               0.000010607              -0.000323179               0.999999998               0.000015052              -0.000340297               0.999999998               0.000019692              -0.000358394               0.999999998               0.000024253              -0.000377572               0.999999998               0.000028359              -0.000397830               0.999999998               0.000032111              -0.000419161               0.999999998               0.000035501              -0.000441449               0.999999998               0.000038149              -0.000464595               0.999999998               0.000000216              -0.000263779               0.999999998              -0.000005731              -0.000261630               0.999999998              -0.000007786              -0.000261769               0.999999998              -0.000007968              -0.000264792               0.999999998              -0.000006940              -0.000270511               0.999999998              -0.000005127              -0.000278612               0.999999998              -0.000002739              -0.000288840               0.999999998               0.000000000              -0.000300964               0.999999998               0.000002968              -0.000314690               0.999999998               0.000005956              -0.000329892               0.999999998               0.000008924              -0.000346353               0.999999998               0.000011923              -0.000363868               0.999999998               0.000014983              -0.000382420               0.999999998               0.000017762              -0.000401934               0.999999998               0.000020112              -0.000422484               0.999999998               0.000021764              -0.000444106               0.999999998               0.000022636              -0.000466623               0.999999998               0.000000120              -0.000267852               0.999999998              -0.000002974              -0.000267358               0.999999998              -0.000004103              -0.000268287               0.999999998              -0.000004279              -0.000271554               0.999999998              -0.000003835              -0.000277173               0.999999998              -0.000002982              -0.000285016               0.999999998              -0.000001831              -0.000294880               0.999999998              -0.000000498              -0.000306575               0.999999998               0.000001013              -0.000319842               0.999999998               0.000002618              -0.000334605               0.999999998               0.000004087              -0.000350684               0.999999998               0.000005435              -0.000367913               0.999999998               0.000007060              -0.000386157               0.999999998               0.000008722              -0.000405370               0.999999998               0.000009577              -0.000425571               0.999999998               0.000010108              -0.000446752               0.999999998               0.000010342              -0.000468894               0.999999998              -0.000000000              -0.000269270               0.999999998              -0.000000000              -0.000269329               0.999999998              -0.000000000              -0.000270510               0.999999998               0.000000000              -0.000273893               0.999999998              -0.000000000              -0.000279525               0.999999998              -0.000000000              -0.000287265               0.999999998              -0.000000000              -0.000296955               0.999999998              -0.000000000              -0.000308535               0.999999998              -0.000000000              -0.000321702               0.999999998              -0.000000000              -0.000336251               0.999999998              -0.000000000              -0.000352202               0.999999998              -0.000000000              -0.000369407               0.999999998              -0.000000000              -0.000387598               0.999999998               0.000000000              -0.000406820               0.999999998               0.000000000              -0.000426895               0.999999998               0.000000000              -0.000447810               0.999999998               0.000000000              -0.000469794               0.999999998              -0.000004527              -0.000000000               0.999999998               0.000006091              -0.000000000               0.999999998               0.000011381               0.000000000               0.999999998               0.000014512               0.000000000               0.999999998               0.000016970               0.000000000               0.999999998               0.000019329               0.000000000               0.999999998               0.000021877               0.000000000               0.999999998               0.000024869               0.000000000               0.999999998               0.000028347               0.000000000               0.999999998               0.000032276               0.000000000               0.999999998               0.000036730               0.000000000               0.999999998               0.000041683               0.000000000               0.999999998               0.000047113               0.000000000               0.999999998               0.000053030              -0.000000000               0.999999998               0.000059425               0.000000000               0.999999998               0.000066365              -0.000000000               0.999999998               0.000073817               0.000000000               0.999999998              -0.000004432               0.000025967               0.999999998               0.000005816               0.000023431               0.999999998               0.000010871               0.000022901               0.999999998               0.000013921               0.000023560               0.999999998               0.000016387               0.000024982               0.999999998               0.000018774               0.000026878               0.999999998               0.000021428               0.000029127               0.999999998               0.000024509               0.000031737               0.999999998               0.000028081               0.000034541               0.999999998               0.000032201               0.000037545               0.999999998               0.000036819               0.000040675               0.999999998               0.000041933               0.000043968               0.999999998               0.000047555               0.000047439               0.999999998               0.000053670               0.000051040               0.999999998               0.000060259               0.000054827               0.999999998               0.000067330               0.000058901               0.999999998               0.000074892               0.000062850               0.999999998              -0.000004157               0.000051708               0.999999998               0.000005007               0.000046596               0.999999998               0.000009470               0.000045618               0.999999998               0.000012282               0.000047043               0.999999998               0.000014716               0.000049922               0.999999998               0.000017287               0.000053794               0.999999998               0.000020229               0.000058441               0.999999998               0.000023671               0.000063574               0.999999998               0.000027681               0.000069203               0.999999998               0.000032242               0.000075184               0.999999998               0.000037293               0.000081494               0.999999998               0.000042888               0.000088047               0.999999998               0.000048999               0.000094975               0.999999998               0.000055599               0.000102128               0.999999998               0.000062675               0.000109688               0.999999998               0.000070201               0.000117672               0.999999998               0.000078177               0.000125724               0.999999998              -0.000003779               0.000076994               0.999999998               0.000003651               0.000069229               0.999999998               0.000007271               0.000067955               0.999999998               0.000009818               0.000070276               0.999999998               0.000012356               0.000074761               0.999999998               0.000015273               0.000080720               0.999999998               0.000018752               0.000087718               0.999999998               0.000022860               0.000095518               0.999999998               0.000027551               0.000103942               0.999999998               0.000032859               0.000112911               0.999999998               0.000038741               0.000122288               0.999999998               0.000045137               0.000132088               0.999999998               0.000052041               0.000142442               0.999999998               0.000059429               0.000153259               0.999999998               0.000067335               0.000164544               0.999999998               0.000075680               0.000176383               0.999999998               0.000084367               0.000188417               0.999999998              -0.000003307               0.000101568               0.999999998               0.000001797               0.000091121               0.999999998               0.000004451               0.000089774               0.999999998               0.000006880               0.000093169               0.999999998               0.000009795               0.000099389               0.999999998               0.000013351               0.000107523               0.999999998               0.000017631               0.000116919               0.999999998               0.000022608               0.000127326               0.999999998               0.000028278               0.000138577               0.999999998               0.000034603               0.000150528               0.999999998               0.000041494               0.000163040               0.999999998               0.000048897               0.000176090               0.999999998               0.000056809               0.000189865               0.999999998               0.000065286               0.000204337               0.999999998               0.000074233               0.000219274               0.999999998               0.000083470               0.000234551               0.999999998               0.000092907               0.000250166               0.999999998              -0.000002785               0.000125160               0.999999998              -0.000000542               0.000112220               0.999999998               0.000001285               0.000111043               0.999999998               0.000003881               0.000115641               0.999999998               0.000007403               0.000123710               0.999999998               0.000011875               0.000133977               0.999999998               0.000017203               0.000145786               0.999999998               0.000023390               0.000158872               0.999999998               0.000030254               0.000172941               0.999999998               0.000037692               0.000187854               0.999999998               0.000045680               0.000203498               0.999999998               0.000054236               0.000219899               0.999999998               0.000063365               0.000237149               0.999999998               0.000072916               0.000255149               0.999999998               0.000082766               0.000273374               0.999999998               0.000092784               0.000291695               0.999999998               0.000102930               0.000310451               0.999999998              -0.000002311               0.000147537               0.999999998              -0.000003177               0.000132482               0.999999998              -0.000001883               0.000131655               0.999999998               0.000001153               0.000137592               0.999999998               0.000005589               0.000147530               0.999999998               0.000011218               0.000160007               0.999999998               0.000017861               0.000174259               0.999999998               0.000025289               0.000190012               0.999999998               0.000033312               0.000206900               0.999999998               0.000041873               0.000224756               0.999999998               0.000051052               0.000243590               0.999999998               0.000060790               0.000263371               0.999999998               0.000070996               0.000283926               0.999999998               0.000081482               0.000305245               0.999999998               0.000092062               0.000326605               0.999999998               0.000102795               0.000348083               0.999999998               0.000113811               0.000370200               0.999999998              -0.000001911               0.000168467               0.999999998              -0.000005879               0.000151838               0.999999998              -0.000004841               0.000151526               0.999999998              -0.000001046               0.000158901               0.999999998               0.000004530               0.000170713               0.999999998               0.000011470               0.000185386               0.999999998               0.000019365               0.000202125               0.999999998               0.000027943               0.000220522               0.999999998               0.000037117               0.000240237               0.999999998               0.000046814               0.000261087               0.999999998               0.000057104               0.000283205               0.999999998               0.000067806               0.000306416               0.999999998               0.000078884               0.000330547               0.999999998               0.000090112               0.000355186               0.999999998               0.000101501               0.000379892               0.999999998               0.000113210               0.000405038               0.999999998               0.000125359               0.000430988               0.999999998              -0.000001477               0.000187583               0.999999998              -0.000008529               0.000170278               0.999999998              -0.000007297               0.000170578               0.999999998              -0.000002524               0.000179349               0.999999998               0.000004247               0.000193063               0.999999998               0.000012467               0.000209970               0.999999998               0.000021519               0.000229244               0.999999998               0.000031184               0.000250332               0.999999998               0.000041370               0.000272958               0.999999998               0.000052094               0.000297068               0.999999998               0.000063327               0.000322645               0.999999998               0.000074976               0.000349467               0.999999998               0.000086929               0.000377134               0.999999998               0.000099009               0.000405279               0.999999998               0.000111322               0.000434017               0.999999998               0.000124061               0.000463462               0.999999998               0.000137122               0.000493639               0.999999998              -0.000000813               0.000205484               0.999999998              -0.000010152               0.000189465               0.999999998              -0.000010091               0.000187930               0.999999998              -0.000006165               0.000194457               0.999999998              -0.000000193               0.000205927               0.999999998               0.000007129               0.000220678               0.999999998               0.000015264               0.000237874               0.999999998               0.000023967               0.000256889               0.999999998               0.000032984               0.000277420               0.999999998               0.000042257               0.000299350               0.999999998               0.000052063               0.000322648               0.999999998               0.000062293               0.000347261               0.999999998               0.000072989               0.000372913               0.999999998               0.000083708               0.000399484               0.999999998               0.000094358               0.000426711               0.999999998               0.000105167               0.000454691               0.999999998               0.000116138               0.000483464               0.999999998              -0.000000357               0.000221657               0.999999998              -0.000010892               0.000207816               0.999999998              -0.000012030               0.000205456               0.999999998              -0.000009147               0.000210190               0.999999998              -0.000004125               0.000219657               0.999999998               0.000002128               0.000232469               0.999999998               0.000009317               0.000247691               0.999999998               0.000016997               0.000264820               0.999999998               0.000024819               0.000283467               0.999999998               0.000032902               0.000303453               0.999999998               0.000041317               0.000324667               0.999999998               0.000050197               0.000347125               0.999999998               0.000059403               0.000370735               0.999999998               0.000068695               0.000395428               0.999999998               0.000077779               0.000421021               0.999999998               0.000086761               0.000447380               0.999999998               0.000095826               0.000474496               0.999999998              -0.000000020               0.000235766               0.999999998              -0.000010788               0.000224845               0.999999998              -0.000012854               0.000222417               0.999999998              -0.000011032               0.000225999               0.999999998              -0.000007129               0.000233859               0.999999998              -0.000001978               0.000244922               0.999999998               0.000004068               0.000258455               0.999999998               0.000010661               0.000273898               0.999999998               0.000017362               0.000290899               0.999999998               0.000024183               0.000309175               0.999999998               0.000031414               0.000328630               0.999999998               0.000038910               0.000349207               0.999999998               0.000046545               0.000370947               0.999999998               0.000054089               0.000393892               0.999999998               0.000061577               0.000417870               0.999999998               0.000068726               0.000442754               0.999999998               0.000075566               0.000468312               0.999999998               0.000000190               0.000247601               0.999999998              -0.000009828               0.000239884               0.999999998              -0.000012395               0.000238048               0.999999998              -0.000011522               0.000241022               0.999999998              -0.000008740               0.000247771               0.999999998              -0.000004708               0.000257405               0.999999998               0.000000110               0.000269513               0.999999998               0.000005489               0.000283492               0.999999998               0.000011052               0.000299080               0.999999998               0.000016688               0.000315988               0.999999998               0.000022612               0.000334005               0.999999998               0.000028773               0.000353096               0.999999998               0.000034851               0.000373344               0.999999998               0.000040649               0.000394727               0.999999998               0.000046090               0.000417249               0.999999998               0.000051401               0.000440744               0.999999998               0.000056240               0.000464957               0.999999998               0.000000262               0.000256997               0.999999998              -0.000008079               0.000252309               0.999999998              -0.000010651               0.000251453               0.999999998              -0.000010496               0.000254306               0.999999998              -0.000008652               0.000260326               0.999999998              -0.000005792               0.000269042               0.999999998              -0.000002163               0.000280006               0.999999998               0.000001901               0.000292857               0.999999998               0.000006264               0.000307306               0.999999998               0.000010607               0.000323179               0.999999998               0.000015052               0.000340297               0.999999998               0.000019692               0.000358394               0.999999998               0.000024253               0.000377572               0.999999998               0.000028359               0.000397830               0.999999998               0.000032111               0.000419161               0.999999998               0.000035501               0.000441449               0.999999998               0.000038149               0.000464595               0.999999998               0.000000216               0.000263779               0.999999998              -0.000005731               0.000261630               0.999999998              -0.000007786               0.000261769               0.999999998              -0.000007968               0.000264792               0.999999998              -0.000006940               0.000270511               0.999999998              -0.000005127               0.000278612               0.999999998              -0.000002739               0.000288840               0.999999998               0.000000000               0.000300964               0.999999998               0.000002968               0.000314690               0.999999998               0.000005956               0.000329892               0.999999998               0.000008924               0.000346353               0.999999998               0.000011923               0.000363868               0.999999998               0.000014983               0.000382420               0.999999998               0.000017762               0.000401934               0.999999998               0.000020112               0.000422484               0.999999998               0.000021764               0.000444106               0.999999998               0.000022636               0.000466623               0.999999998               0.000000120               0.000267852               0.999999998              -0.000002974               0.000267358               0.999999998              -0.000004103               0.000268287               0.999999998              -0.000004279               0.000271554               0.999999998              -0.000003835               0.000277173               0.999999998              -0.000002982               0.000285016               0.999999998              -0.000001831               0.000294880               0.999999998              -0.000000498               0.000306575               0.999999998               0.000001013               0.000319842               0.999999998               0.000002618               0.000334605               0.999999998               0.000004087               0.000350684               0.999999998               0.000005435               0.000367913               0.999999998               0.000007060               0.000386157               0.999999998               0.000008722               0.000405370               0.999999998               0.000009577               0.000425571               0.999999998               0.000010108               0.000446752               0.999999998               0.000010342               0.000468894               0.999999998              -0.000000000               0.000269270               0.999999998              -0.000000000               0.000269329               0.999999998               0.000000000               0.000270510               0.999999998              -0.000000000               0.000273893               0.999999998               0.000000000               0.000279525               0.999999998               0.000000000               0.000287265               0.999999998               0.000000000               0.000296955               0.999999998               0.000000000               0.000308535               0.999999998               0.000000000               0.000321702               0.999999998              -0.000000000               0.000336251               0.999999998              -0.000000000               0.000352202               0.999999998               0.000000000               0.000369407               0.999999998               0.000000000               0.000387598               0.999999998              -0.000000000               0.000406820               0.999999998              -0.000000000               0.000426895               0.999999998              -0.000000000               0.000447810               0.999999998               0.000000000               0.000469794               0.999999998 </DataArray>
<DataArray type="Float64"                                    Name="defo"                                                      NumberOfComponents=" 3" format="ascii">
              0.000004527              -0.000000000               0.999999998              -0.000006091               0.000000000               0.999999998              -0.000011381              -0.000000000               0.999999998              -0.000014512               0.000000000               0.999999998              -0.000016970               0.000000000               0.999999998              -0.000019329               0.000000000               0.999999998              -0.000021877               0.000000000               0.999999998              -0.000024869               0.000000000               0.999999998              -0.000028347              -0.000000000               0.999999998              -0.000032276               0.000000000               0.999999998              -0.000036730              -0.000000000               0.999999998              -0.000041683              -0.000000000               0.999999998              -0.000047113               0.000000000               0.999999998              -0.000053030               0.000000000               0.999999998              -0.000059425               0.000000000               0.999999998              -0.000066365               0.000000000               0.999999998              -0.000073817               0.000000000               0.999999998               0.000004432               0.000025967               0.999999998              -0.000005816               0.000023431               0.999999998              -0.000010871               0.000022901               0.999999998              -0.000013921               0.000023560               0.999999998              -0.000016387               0.000024982               0.999999998              -0.000018774               0.000026878               0.999999998              -0.000021428               0.000029127               0.999999998              -0.000024509               0.000031737               0.999999998              -0.000028081               0.000034541               0.999999998              -0.000032201               0.000037545               0.999999998              -0.000036819               0.000040675               0.999999998              -0.000041933               0.000043968               0.999999998              -0.000047555               0.000047439               0.999999998              -0.000053670               0.000051040               0.999999998              -0.000060259               0.000054827               0.999999998              -0.000067330               0.000058901               0.999999998              -0.000074892               0.000062850               0.999999998               0.000004157               0.000051708               0.999999998              -0.000005007               0.000046596               0.999999998              -0.000009470               0.000045618               0.999999998              -0.000012282               0.000047043               0.999999998              -0.000014716               0.000049922               0.999999998              -0.000017287               0.000053794               0.999999998              -0.000020229               0.000058441               0.999999998              -0.000023671               0.000063574               0.999999998              -0.000027681               0.000069203               0.999999998              -0.000032242               0.000075184               0.999999998              -0.000037293               0.000081494               0.999999998              -0.000042888               0.000088047               0.999999998              -0.000048999               0.000094975               0.999999998              -0.000055599               0.000102128               0.999999998              -0.000062675               0.000109688               0.999999998              -0.000070201               0.000117672               0.999999998              -0.000078177               0.000125724               0.999999998               0.000003779               0.000076994               0.999999998              -0.000003651               0.000069229               0.999999998              -0.000007271               0.000067955               0.999999998              -0.000009818               0.000070276               0.999999998              -0.000012356               0.000074761               0.999999998              -0.000015273               0.000080720               0.999999998              -0.000018752               0.000087718               0.999999998              -0.000022860               0.000095518               0.999999998              -0.000027551               0.000103942               0.999999998              -0.000032859               0.000112911               0.999999998              -0.000038741               0.000122288               0.999999998              -0.000045137               0.000132088               0.999999998              -0.000052041               0.000142442               0.999999998              -0.000059429               0.000153259               0.999999998              -0.000067335               0.000164544               0.999999998              -0.000075680               0.000176383               0.999999998              -0.000084367               0.000188417               0.999999998               0.000003307               0.000101568               0.999999998              -0.000001797               0.000091121               0.999999998              -0.000004451               0.000089774               0.999999998              -0.000006880               0.000093169               0.999999998              -0.000009795               0.000099389               0.999999998              -0.000013351               0.000107523               0.999999998              -0.000017631               0.000116919               0.999999998              -0.000022608               0.000127326               0.999999998              -0.000028278               0.000138577               0.999999998              -0.000034603               0.000150528               0.999999998              -0.000041494               0.000163040               0.999999998              -0.000048897               0.000176090               0.999999998              -0.000056809               0.000189865               0.999999998              -0.000065286               0.000204337               0.999999998              -0.000074233               0.000219274               0.999999998              -0.000083470               0.000234551               0.999999998              -0.000092907               0.000250166               0.999999998               0.000002785               0.000125160               0.999999998               0.000000542               0.000112220               0.999999998              -0.000001285               0.000111043               0.999999998              -0.000003881               0.000115641               0.999999998              -0.000007403               0.000123710               0.999999998              -0.000011875               0.000133977               0.999999998              -0.000017203               0.000145786               0.999999998              -0.000023390               0.000158872               0.999999998              -0.000030254               0.000172941               0.999999998              -0.000037692               0.000187854               0.999999998              -0.000045680               0.000203498               0.999999998              -0.000054236               0.000219899               0.999999998              -0.000063365               0.000237149               0.999999998              -0.000072916               0.000255149               0.999999998              -0.000082766               0.000273374               0.999999998              -0.000092784               0.000291695               0.999999998              -0.000102930               0.000310451               0.999999998               0.000002311               0.000147537               0.999999998               0.000003177               0.000132482               0.999999998               0.000001883               0.000131655               0.999999998              -0.000001153               0.000137592               0.999999998              -0.000005589               0.000147530               0.999999998              -0.000011218               0.000160007               0.999999998              -0.000017861               0.000174259               0.999999998              -0.000025289               0.000190012               0.999999998              -0.000033312               0.000206900               0.999999998              -0.000041873               0.000224756               0.999999998              -0.000051052               0.000243590               0.999999998              -0.000060790               0.000263371               0.999999998              -0.000070996               0.000283926               0.999999998              -0.000081482               0.000305245               0.999999998              -0.000092062               0.000326605               0.999999998              -0.000102795               0.000348083               0.999999998              -0.000113811               0.000370200               0.999999998               0.000001911               0.000168467               0.999999998               0.000005879               0.000151838               0.999999998               0.000004841               0.000151526               0.999999998               0.000001046               0.000158901               0.999999998              -0.000004530               0.000170713               0.999999998              -0.000011470               0.000185386               0.999999998              -0.000019365               0.000202125               0.999999998              -0.000027943               0.000220522               0.999999998              -0.000037117               0.000240237               0.999999998              -0.000046814               0.000261087               0.999999998              -0.000057104               0.000283205               0.999999998              -0.000067806               0.000306416               0.999999998              -0.000078884               0.000330547               0.999999998              -0.000090112               0.000355186               0.999999998              -0.000101501               0.000379892               0.999999998              -0.000113210               0.000405038               0.999999998              -0.000125359               0.000430988               0.999999998               0.000001477               0.000187583               0.999999998               0.000008529               0.000170278               0.999999998               0.000007297               0.000170578               0.999999998               0.000002524               0.000179349               0.999999998              -0.000004247               0.000193063               0.999999998              -0.000012467               0.000209970               0.999999998              -0.000021519               0.000229244               0.999999998              -0.000031184               0.000250332               0.999999998              -0.000041370               0.000272958               0.999999998              -0.000052094               0.000297068               0.999999998              -0.000063327               0.000322645               0.999999998              -0.000074976               0.000349467               0.999999998              -0.000086929               0.000377134               0.999999998              -0.000099009               0.000405279               0.999999998              -0.000111322               0.000434017               0.999999998              -0.000124061               0.000463462               0.999999998              -0.000137122               0.000493639               0.999999998               0.000000813               0.000205484               0.999999998               0.000010152               0.000189465               0.999999998               0.000010091               0.000187930               0.999999998               0.000006165               0.000194457               0.999999998               0.000000193               0.000205927               0.999999998              -0.000007129               0.000220678               0.999999998              -0.000015264               0.000237874               0.999999998              -0.000023967               0.000256889               0.999999998              -0.000032984               0.000277420               0.999999998              -0.000042257               0.000299350               0.999999998              -0.000052063               0.000322648               0.999999998              -0.000062293               0.000347261               0.999999998              -0.000072989               0.000372913               0.999999998              -0.000083708               0.000399484               0.999999998              -0.000094358               0.000426711               0.999999998              -0.000105167               0.000454691               0.999999998              -0.000116138               0.000483464               0.999999998               0.000000357               0.000221657               0.999999998               0.000010892               0.000207816               0.999999998               0.000012030               0.000205456               0.999999998               0.000009147               0.000210190               0.999999998               0.000004125               0.000219657               0.999999998              -0.000002128               0.000232469               0.999999998              -0.000009317               0.000247691               0.999999998              -0.000016997               0.000264820               0.999999998              -0.000024819               0.000283467               0.999999998              -0.000032902               0.000303453               0.999999998              -0.000041317               0.000324667               0.999999998              -0.000050197               0.000347125               0.999999998              -0.000059403               0.000370735               0.999999998              -0.000068695               0.000395428               0.999999998              -0.000077779               0.000421021               0.999999998              -0.000086761               0.000447380               0.999999998              -0.000095826               0.000474496               0.999999998               0.000000020               0.000235766               0.999999998               0.000010788               0.000224845               0.999999998               0.000012854               0.000222417               0.999999998               0.000011032               0.000225999               0.999999998               0.000007129               0.000233859               0.999999998               0.000001978               0.000244922               0.999999998              -0.000004068               0.000258455               0.999999998              -0.000010661               0.000273898               0.999999998              -0.000017362               0.000290899               0.999999998              -0.000024183               0.000309175               0.999999998              -0.000031414               0.000328630               0.999999998              -0.000038910               0.000349207               0.999999998              -0.000046545               0.000370947               0.999999998              -0.000054089               0.000393892               0.999999998              -0.000061577               0.000417870               0.999999998              -0.000068726               0.000442754               0.999999998              -0.000075566               0.000468312               0.999999998              -0.000000190               0.000247601               0.999999998               0.000009828               0.000239884               0.999999998               0.000012395               0.000238048               0.999999998               0.000011522               0.000241022               0.999999998               0.000008740               0.000247771               0.999999998               0.000004708               0.000257405               0.999999998              -0.000000110               0.000269513               0.999999998              -0.000005489               0.000283492               0.999999998              -0.000011052               0.000299080               0.999999998              -0.000016688               0.000315988               0.999999998              -0.000022612               0.000334005               0.999999998              -0.000028773               0.000353096               0.999999998              -0.000034851               0.000373344               0.999999998              -0.000040649               0.000394727               0.999999998              -0.000046090               0.000417249               0.999999998              -0.000051401               0.000440744               0.999999998              -0.000056240               0.000464957               0.999999998              -0.000000262               0.000256997               0.999999998               0.000008079               0.000252309               0.999999998               0.000010651               0.000251453               0.999999998               0.000010496               0.000254306               0.999999998               0.000008652               0.000260326               0.999999998               0.000005792               0.000269042               0.999999998               0.000002163               0.000280006               0.999999998              -0.000001901               0.000292857               0.999999998              -0.000006264               0.000307306               0.999999998              -0.000010607               0.000323179               0.999999998              -0.000015052               0.000340297               0.999999998              -0.000019692               0.000358394               0.999999998              -0.000024253               0.000377572               0.999999998              -0.000028359               0.000397830               0.999999998              -0.000032111               0.000419161               0.999999998              -0.000035501               0.000441449               0.999999998              -0.000038149               0.000464595               0.999999998              -0.000000216               0.000263779               0.999999998               0.000005731               0.000261630               0.999999998               0.000007786               0.000261769               0.999999998               0.000007968               0.000264792               0.999999998               0.000006940               0.000270511               0.999999998               0.000005127               0.000278612               0.999999998               0.000002739               0.000288840               0.999999998              -0.000000000               0.000300964               0.999999998              -0.000002968               0.000314690               0.999999998              -0.000005956               0.000329892               0.999999998              -0.000008924               0.000346353               0.999999998              -0.000011923               0.000363868               0.999999998              -0.000014983               0.000382420               0.999999998              -0.000017762               0.000401934               0.999999998              -0.000020112               0.000422484               0.999999998              -0.000021764               0.000444106               0.999999998              -0.000022636               0.000466623               0.999999998              -0.000000120               0.000267852               0.999999998               0.000002974               0.000267358               0.999999998               0.000004103               0.000268287               0.999999998               0.000004279               0.000271554               0.999999998               0.000003835               0.000277173               0.999999998               0.000002982               0.000285016               0.999999998               0.000001831               0.000294880               0.999999998               0.000000498               0.000306575               0.999999998              -0.000001013               0.000319842               0.999999998              -0.000002618               0.000334605               0.999999998              -0.000004087               0.000350684               0.999999998              -0.000005435               0.000367913               0.999999998              -0.000007060               0.000386157               0.999999998              -0.000008722               0.000405370               0.999999998              -0.000009577               0.000425571               0.999999998              -0.000010108               0.000446752               0.999999998              -0.000010342               0.000468894               0.999999998              -0.000000000               0.000269270               0.999999998              -0.000000000               0.000269329               0.999999998               0.000000000               0.000270510               0.999999998              -0.000000000               0.000273893               0.999999998               0.000000000               0.000279525               0.999999998               0.000000000               0.000287265               0.999999998               0.000000000               0.000296955               0.999999998               0.000000000               0.000308535               0.999999998               0.000000000               0.000321702               0.999999998              -0.000000000               0.000336251               0.999999998              -0.000000000               0.000352202               0.999999998               0.000000000               0.000369407               0.999999998               0.000000000               0.000387598               0.999999998              -0.000000000               0.000406820               0.999999998              -0.000000000               0.000426895               0.999999998              -0.000000000               0.000447810               0.999999998               0.000000000               0.000469794               0.999999998               0.000004527              -0.000000000               0.999999998              -0.000006091               0.000000000               0.999999998              -0.000011381              -0.000000000               0.999999998              -0.000014512               0.000000000               0.999999998              -0.000016970               0.000000000               0.999999998              -0.000019329               0.000000000               0.999999998              -0.000021877               0.000000000               0.999999998              -0.000024869               0.000000000               0.999999998              -0.000028347              -0.000000000               0.999999998              -0.000032276               0.000000000               0.999999998              -0.000036730              -0.000000000               0.999999998              -0.000041683              -0.000000000               0.999999998              -0.000047113               0.000000000               0.999999998              -0.000053030               0.000000000               0.999999998              -0.000059425               0.000000000               0.999999998              -0.000066365               0.000000000               0.999999998              -0.000073817               0.000000000               0.999999998               0.000004432              -0.000025967               0.999999998              -0.000005816              -0.000023431               0.999999998              -0.000010871              -0.000022901               0.999999998              -0.000013921              -0.000023560               0.999999998              -0.000016387              -0.000024982               0.999999998              -0.000018774              -0.000026878               0.999999998              -0.000021428              -0.000029127               0.999999998              -0.000024509              -0.000031737               0.999999998              -0.000028081              -0.000034541               0.999999998              -0.000032201              -0.000037545               0.999999998              -0.000036819              -0.000040675               0.999999998              -0.000041933              -0.000043968               0.999999998              -0.000047555              -0.000047439               0.999999998              -0.000053670              -0.000051040               0.999999998              -0.000060259              -0.000054827               0.999999998              -0.000067330              -0.000058901               0.999999998              -0.000074892              -0.000062850               0.999999998               0.000004157              -0.000051708               0.999999998              -0.000005007              -0.000046596               0.999999998              -0.000009470              -0.000045618               0.999999998              -0.000012282              -0.000047043               0.999999998              -0.000014716              -0.000049922               0.999999998              -0.000017287              -0.000053794               0.999999998              -0.000020229              -0.000058441               0.999999998              -0.000023671              -0.000063574               0.999999998              -0.000027681              -0.000069203               0.999999998              -0.000032242              -0.000075184               0.999999998              -0.000037293              -0.000081494               0.999999998              -0.000042888              -0.000088047               0.999999998              -0.000048999              -0.000094975               0.999999998              -0.000055599              -0.000102128               0.999999998              -0.000062675              -0.000109688               0.999999998              -0.000070201              -0.000117672               0.999999998              -0.000078177              -0.000125724               0.999999998               0.000003779              -0.000076994               0.999999998              -0.000003651              -0.000069229               0.999999998              -0.000007271              -0.000067955               0.999999998              -0.000009818              -0.000070276               0.999999998              -0.000012356              -0.000074761               0.999999998              -0.000015273              -0.000080720               0.999999998              -0.000018752              -0.000087718               0.999999998              -0.000022860              -0.000095518               0.999999998              -0.000027551              -0.000103942               0.999999998              -0.000032859              -0.000112911               0.999999998              -0.000038741              -0.000122288               0.999999998              -0.000045137              -0.000132088               0.999999998              -0.000052041              -0.000142442               0.999999998              -0.000059429              -0.000153259               0.999999998              -0.000067335              -0.000164544               0.999999998              -0.000075680              -0.000176383               0.999999998              -0.000084367              -0.000188417               0.999999998               0.000003307              -0.000101568               0.999999998              -0.000001797              -0.000091121               0.999999998              -0.000004451              -0.000089774               0.999999998              -0.000006880              -0.000093169               0.999999998              -0.000009795              -0.000099389               0.999999998              -0.000013351              -0.000107523               0.999999998              -0.000017631              -0.000116919               0.999999998              -0.000022608              -0.000127326               0.999999998              -0.000028278              -0.000138577               0.999999998              -0.000034603              -0.000150528               0.999999998              -0.000041494              -0.000163040               0.999999998              -0.000048897              -0.000176090               0.999999998              -0.000056809              -0.000189865               0.999999998              -0.000065286              -0.000204337               0.999999998              -0.000074233              -0.000219274               0.999999998              -0.000083470              -0.000234551               0.999999998              -0.000092907              -0.000250166               0.999999998               0.000002785              -0.000125160               0.999999998               0.000000542              -0.000112220               0.999999998              -0.000001285              -0.000111043               0.999999998              -0.000003881              -0.000115641               0.999999998              -0.000007403              -0.000123710               0.999999998              -0.000011875              -0.000133977               0.999999998              -0.000017203              -0.000145786               0.999999998              -0.000023390              -0.000158872               0.999999998              -0.000030254              -0.000172941               0.999999998              -0.000037692              -0.000187854               0.999999998              -0.000045680              -0.000203498               0.999999998              -0.000054236              -0.000219899               0.999999998              -0.000063365              -0.000237149               0.999999998              -0.000072916              -0.000255149               0.999999998              -0.000082766              -0.000273374               0.999999998              -0.000092784              -0.000291695               0.999999998              -0.000102930              -0.000310451               0.999999998               0.000002311              -0.000147537               0.999999998               0.000003177              -0.000132482               0.999999998               0.000001883              -0.000131655               0.999999998              -0.000001153              -0.000137592               0.999999998              -0.000005589              -0.000147530               0.999999998              -0.000011218              -0.000160007               0.999999998              -0.000017861              -0.000174259               0.999999998              -0.000025289              -0.000190012               0.999999998              -0.000033312              -0.000206900               0.999999998              -0.000041873              -0.000224756               0.999999998              -0.000051052              -0.000243590               0.999999998              -0.000060790              -0.000263371               0.999999998              -0.000070996              -0.000283926               0.999999998              -0.000081482              -0.000305245               0.999999998              -0.000092062              -0.000326605               0.999999998              -0.000102795              -0.000348083               0.999999998              -0.000113811              -0.000370200               0.999999998               0.000001911              -0.000168467               0.999999998               0.000005879              -0.000151838               0.999999998               0.000004841              -0.000151526               0.999999998               0.000001046              -0.000158901               0.999999998              -0.000004530              -0.000170713               0.999999998              -0.000011470              -0.000185386               0.999999998              -0.000019365              -0.000202125               0.999999998              -0.000027943              -0.000220522               0.999999998              -0.000037117              -0.000240237               0.999999998              -0.000046814              -0.000261087               0.999999998              -0.000057104              -0.000283205               0.999999998              -0.000067806              -0.000306416               0.999999998              -0.000078884              -0.000330547               0.999999998              -0.000090112              -0.000355186               0.999999998              -0.000101501              -0.000379892               0.999999998              -0.000113210              -0.000405038               0.999999998              -0.000125359              -0.000430988               0.999999998               0.000001477              -0.000187583               0.999999998               0.000008529              -0.000170278               0.999999998               0.000007297              -0.000170578               0.999999998               0.000002524              -0.000179349               0.999999998              -0.000004247              -0.000193063               0.999999998              -0.000012467              -0.000209970               0.999999998              -0.000021519              -0.000229244               0.999999998              -0.000031184              -0.000250332               0.999999998              -0.000041370              -0.000272958               0.999999998              -0.000052094              -0.000297068               0.999999998              -0.000063327              -0.000322645               0.999999998              -0.000074976              -0.000349467               0.999999998              -0.000086929              -0.000377134               0.999999998              -0.000099009              -0.000405279               0.999999998              -0.000111322              -0.000434017               0.999999998              -0.000124061              -0.000463462               0.999999998              -0.000137122              -0.000493639               0.999999998               0.000000813              -0.000205484               0.999999998               0.000010152              -0.000189465               0.999999998               0.000010091              -0.000187930               0.999999998               0.000006165              -0.000194457               0.999999998               0.000000193              -0.000205927               0.999999998              -0.000007129              -0.000220678               0.999999998              -0.000015264              -0.000237874               0.999999998              -0.000023967              -0.000256889               0.999999998              -0.000032984              -0.000277420               0.999999998              -0.000042257              -0.000299350               0.999999998              -0.000052063              -0.000322648               0.999999998              -0.000062293              -0.000347261               0.999999998              -0.000072989              -0.000372913               0.999999998              -0.000083708              -0.000399484               0.999999998              -0.000094358              -0.000426711               0.999999998              -0.000105167              -0.000454691               0.999999998              -0.000116138              -0.000483464               0.999999998               0.000000357              -0.000221657               0.999999998               0.000010892              -0.000207816               0.999999998               0.000012030              -0.000205456               0.999999998               0.000009147              -0.000210190               0.999999998               0.000004125              -0.000219657               0.999999998              -0.000002128              -0.000232469               0.999999998              -0.000009317              -0.000247691               0.999999998              -0.000016997              -0.000264820               0.999999998              -0.000024819              -0.000283467               0.999999998              -0.000032902              -0.000303453               0.999999998              -0.000041317              -0.000324667               0.999999998              -0.000050197              -0.000347125               0.999999998              -0.000059403              -0.000370735               0.999999998              -0.000068695              -0.000395428               0.999999998              -0.000077779              -0.000421021               0.999999998              -0.000086761              -0.000447380               0.999999998              -0.000095826              -0.000474496               0.999999998               0.000000020              -0.000235766               0.999999998               0.000010788              -0.000224845               0.999999998               0.000012854              -0.000222417               0.999999998               0.000011032              -0.000225999               0.999999998               0.000007129              -0.000233859               0.999999998               0.000001978              -0.000244922               0.999999998              -0.000004068              -0.000258455               0.999999998              -0.000010661              -0.000273898               0.999999998              -0.000017362              -0.000290899               0.999999998              -0.000024183              -0.000309175               0.999999998              -0.000031414              -0.000328630               0.999999998              -0.000038910              -0.000349207               0.999999998              -0.000046545              -0.000370947               0.999999998              -0.000054089              -0.000393892               0.999999998              -0.000061577              -0.000417870               0.999999998              -0.000068726              -0.000442754               0.999999998              -0.000075566              -0.000468312               0.999999998              -0.000000190              -0.000247601               0.999999998               0.000009828              -0.000239884               0.999999998               0.000012395              -0.000238048               0.999999998               0.000011522              -0.000241022               0.999999998               0.000008740              -0.000247771               0.999999998               0.000004708              -0.000257405               0.999999998              -0.000000110              -0.000269513               0.999999998              -0.000005489              -0.000283492               0.999999998              -0.000011052              -0.000299080               0.999999998              -0.000016688              -0.000315988               0.999999998              -0.000022612              -0.000334005               0.999999998              -0.000028773              -0.000353096               0.999999998              -0.000034851              -0.000373344               0.999999998              -0.000040649              -0.000394727               0.999999998              -0.000046090              -0.000417249               0.999999998              -0.000051401              -0.000440744               0.999999998              -0.000056240              -0.000464957               0.999999998              -0.000000262              -0.000256997               0.999999998               0.000008079              -0.000252309               0.999999998               0.000010651              -0.000251453               0.999999998               0.000010496              -0.000254306               0.999999998               0.000008652              -0.000260326               0.999999998               0.000005792              -0.000269042               0.999999998               0.000002163              -0.000280006               0.999999998              -0.000001901              -0.000292857               0.999999998              -0.000006264              -0.000307306               0.999999998              -0.000010607              -0.000323179               0.999999998              -0.000015052              -0.000340297               0.999999998              -0.000019692              -0.000358394               0.999999998              -0.000024253              -0.000377572               0.999999998              -0.000028359              -0.000397830               0.999999998              -0.000032111              -0.000419161               0.999999998              -0.000035501              -0.000441449               0.999999998              -0.000038149              -0.000464595               0.999999998              -0.000000216              -0.000263779               0.999999998               0.000005731              -0.000261630               0.999999998               0.000007786              -0.000261769               0.999999998               0.000007968              -0.000264792               0.999999998               0.000006940              -0.000270511               0.999999998               0.000005127              -0.000278612               0.999999998               0.000002739              -0.000288840               0.999999998              -0.000000000              -0.000300964               0.999999998              -0.000002968              -0.000314690               0.999999998              -0.000005956              -0.000329892               0.999999998              -0.000008924              -0.000346353               0.999999998              -0.000011923              -0.000363868               0.999999998              -0.000014983              -0.000382420               0.999999998              -0.000017762              -0.000401934               0.999999998              -0.000020112              -0.000422484               0.999999998              -0.000021764              -0.000444106               0.999999998              -0.000022636              -0.000466623               0.999999998              -0.000000120              -0.000267852               0.999999998               0.000002974              -0.000267358               0.999999998               0.000004103              -0.000268287               0.999999998               0.000004279              -0.000271554               0.999999998               0.000003835              -0.000277173               0.999999998               0.000002982              -0.000285016               0.999999998               0.000001831              -0.000294880               0.999999998               0.000000498              -0.000306575               0.999999998              -0.000001013              -0.000319842               0.999999998              -0.000002618              -0.000334605               0.999999998              -0.000004087              -0.000350684               0.999999998              -0.000005435              -0.000367913               0.999999998              -0.000007060              -0.000386157               0.999999998              -0.000008722              -0.000405370               0.999999998              -0.000009577              -0.000425571               0.999999998              -0.000010108              -0.000446752               0.999999998              -0.000010342              -0.000468894               0.999999998              -0.000000000              -0.000269270               0.999999998              -0.000000000              -0.000269329               0.999999998              -0.000000000              -0.000270510               0.999999998               0.000000000              -0.000273893               0.999999998              -0.000000000              -0.000279525               0.999999998              -0.000000000              -0.000287265               0.999999998              -0.000000000              -0.000296955               0.999999998              -0.000000000              -0.000308535               0.999999998              -0.000000000              -0.000321702               0.999999998              -0.000000000              -0.000336251               0.999999998              -0.000000000              -0.000352202               0.999999998              -0.000000000              -0.000369407               0.999999998              -0.000000000              -0.000387598               0.999999998               0.000000000              -0.000406820               0.999999998               0.000000000              -0.000426895               0.999999998               0.000000000              -0.000447810               0.999999998               0.000000000              -0.000469794               0.999999998              -0.000004527              -0.000000000               0.999999998               0.000006091              -0.000000000               0.999999998               0.000011381               0.000000000               0.999999998               0.000014512               0.000000000               0.999999998               0.000016970               0.000000000               0.999999998               0.000019329               0.000000000               0.999999998               0.000021877               0.000000000               0.999999998               0.000024869               0.000000000               0.999999998               0.000028347               0.000000000               0.999999998               0.000032276               0.000000000               0.999999998               0.000036730               0.000000000               0.999999998               0.000041683               0.000000000               0.999999998               0.000047113               0.000000000               0.999999998               0.000053030              -0.000000000               0.999999998               0.000059425               0.000000000               0.999999998               0.000066365              -0.000000000               0.999999998               0.000073817               0.000000000               0.999999998              -0.000004432              -0.000025967               0.999999998               0.000005816              -0.000023431               0.999999998               0.000010871              -0.000022901               0.999999998               0.000013921              -0.000023560               0.999999998               0.000016387              -0.000024982               0.999999998               0.000018774              -0.000026878               0.999999998               0.000021428              -0.000029127               0.999999998               0.000024509              -0.000031737               0.999999998               0.000028081              -0.000034541               0.999999998               0.000032201              -0.000037545               0.999999998               0.000036819              -0.000040675               0.999999998               0.000041933              -0.000043968               0.999999998               0.000047555              -0.000047439               0.999999998               0.000053670              -0.000051040               0.999999998               0.000060259              -0.000054827               0.999999998               0.000067330              -0.000058901               0.999999998               0.000074892              -0.000062850               0.999999998              -0.000004157              -0.000051708               0.999999998               0.000005007              -0.000046596               0.999999998               0.000009470              -0.000045618               0.999999998               0.000012282              -0.000047043               0.999999998               0.000014716              -0.000049922               0.999999998               0.000017287              -0.000053794               0.999999998               0.000020229              -0.000058441               0.999999998               0.000023671              -0.000063574               0.999999998               0.000027681              -0.000069203               0.999999998               0.000032242              -0.000075184               0.999999998               0.000037293              -0.000081494               0.999999998               0.000042888              -0.000088047               0.999999998               0.000048999              -0.000094975               0.999999998               0.000055599              -0.000102128               0.999999998               0.000062675              -0.000109688               0.999999998               0.000070201              -0.000117672               0.999999998               0.000078177              -0.000125724               0.999999998              -0.000003779              -0.000076994               0.999999998               0.000003651              -0.000069229               0.999999998               0.000007271              -0.000067955               0.999999998               0.000009818              -0.000070276               0.999999998               0.000012356              -0.000074761               0.999999998               0.000015273              -0.000080720               0.999999998               0.000018752              -0.000087718               0.999999998               0.000022860              -0.000095518               0.999999998               0.000027551              -0.000103942               0.999999998               0.000032859              -0.000112911               0.999999998               0.000038741              -0.000122288               0.999999998               0.000045137              -0.000132088               0.999999998               0.000052041              -0.000142442               0.999999998               0.000059429              -0.000153259               0.999999998               0.000067335              -0.000164544               0.999999998               0.000075680              -0.000176383               0.999999998               0.000084367              -0.000188417               0.999999998              -0.000003307              -0.000101568               0.999999998               0.000001797              -0.000091121               0.999999998               0.000004451              -0.000089774               0.999999998               0.000006880              -0.000093169               0.999999998               0.000009795              -0.000099389               0.999999998               0.000013351              -0.000107523               0.999999998               0.000017631              -0.000116919               0.999999998               0.000022608              -0.000127326               0.999999998               0.000028278              -0.000138577               0.999999998               0.000034603              -0.000150528               0.999999998               0.000041494              -0.000163040               0.999999998               0.000048897              -0.000176090               0.999999998               0.000056809              -0.000189865               0.999999998               0.000065286              -0.000204337               0.999999998               0.000074233              -0.000219274               0.999999998               0.000083470              -0.000234551               0.999999998               0.000092907              -0.000250166               0.999999998              -0.000002785              -0.000125160               0.999999998              -0.000000542              -0.000112220               0.999999998               0.000001285              -0.000111043               0.999999998               0.000003881              -0.000115641               0.999999998               0.000007403              -0.000123710               0.999999998               0.000011875              -0.000133977               0.999999998               0.000017203              -0.000145786               0.999999998               0.000023390              -0.000158872               0.999999998               0.000030254              -0.000172941               0.999999998               0.000037692              -0.000187854               0.999999998               0.000045680              -0.000203498               0.999999998               0.000054236              -0.000219899               0.999999998               0.000063365              -0.000237149               0.999999998               0.000072916              -0.000255149               0.999999998               0.000082766              -0.000273374               0.999999998               0.000092784              -0.000291695               0.999999998               0.000102930              -0.000310451               0.999999998              -0.000002311              -0.000147537               0.999999998              -0.000003177              -0.000132482               0.999999998              -0.000001883              -0.000131655               0.999999998               0.000001153              -0.000137592               0.999999998               0.000005589              -0.000147530               0.999999998               0.000011218              -0.000160007               0.999999998               0.000017861              -0.000174259               0.999999998               0.000025289              -0.000190012               0.999999998               0.000033312              -0.000206900               0.999999998               0.000041873              -0.000224756               0.999999998               0.000051052              -0.000243590               0.999999998               0.000060790              -0.000263371               0.999999998               0.000070996              -0.000283926               0.999999998               0.000081482              -0.000305245               0.999999998               0.000092062              -0.000326605               0.999999998               0.000102795              -0.000348083               0.999999998               0.000113811              -0.000370200               0.999999998              -0.000001911              -0.000168467               0.999999998              -0.000005879              -0.000151838               0.999999998              -0.000004841              -0.000151526               0.999999998              -0.000001046              -0.000158901               0.999999998               0.000004530              -0.000170713               0.999999998               0.000011470              -0.000185386               0.999999998               0.000019365              -0.000202125               0.999999998               0.000027943              -0.000220522               0.999999998               0.000037117              -0.000240237               0.999999998               0.000046814              -0.000261087               0.999999998               0.000057104              -0.000283205               0.999999998               0.000067806              -0.000306416               0.999999998               0.000078884              -0.000330547               0.999999998               0.000090112              -0.000355186               0.999999998               0.000101501              -0.000379892               0.999999998               0.000113210              -0.000405038               0.999999998               0.000125359              -0.000430988               0.999999998              -0.000001477              -0.000187583               0.999999998              -0.000008529              -0.000170278               0.999999998              -0.000007297              -0.000170578               0.999999998              -0.000002524              -0.000179349               0.999999998               0.000004247              -0.000193063               0.999999998               0.000012467              -0.000209970               0.999999998               0.000021519              -0.000229244               0.999999998               0.000031184              -0.000250332               0.999999998               0.000041370              -0.000272958               0.999999998               0.000052094              -0.000297068               0.999999998               0.000063327              -0.000322645               0.999999998               0.000074976              -0.000349467               0.999999998               0.000086929              -0.000377134               0.999999998               0.000099009              -0.000405279               0.999999998               0.000111322              -0.000434017               0.999999998               0.000124061              -0.000463462               0.999999998               0.000137122              -0.000493639               0.999999998              -0.000000813              -0.000205484               0.999999998              -0.000010152              -0.000189465               0.999999998              -0.000010091              -0.000187930               0.999999998              -0.000006165              -0.000194457               0.999999998              -0.000000193              -0.000205927               0.999999998               0.000007129              -0.000220678               0.999999998               0.000015264              -0.000237874               0.999999998               0.000023967              -0.000256889               0.999999998               0.000032984              -0.000277420               0.999999998               0.000042257              -0.000299350               0.999999998               0.000052063              -0.000322648               0.999999998               0.000062293              -0.000347261               0.999999998               0.000072989              -0.000372913               0.999999998               0.000083708              -0.000399484               0.999999998               0.000094358              -0.000426711               0.999999998               0.000105167              -0.000454691               0.999999998               0.000116138              -0.000483464               0.999999998              -0.000000357              -0.000221657               0.999999998              -0.000010892              -0.000207816               0.999999998              -0.000012030              -0.000205456               0.999999998              -0.000009147              -0.000210190               0.999999998              -0.000004125              -0.000219657               0.999999998               0.000002128              -0.000232469               0.999999998               0.000009317              -0.000247691               0.999999998               0.000016997              -0.000264820               0.999999998               0.000024819              -0.000283467               0.999999998               0.000032902              -0.000303453               0.999999998               0.000041317              -0.000324667               0.999999998               0.000050197              -0.000347125               0.999999998               0.000059403              -0.000370735               0.999999998               0.000068695              -0.000395428               0.999999998               0.000077779              -0.000421021               0.999999998               0.000086761              -0.000447380               0.999999998               0.000095826              -0.000474496               0.999999998              -0.000000020              -0.000235766               0.999999998              -0.000010788              -0.000224845               0.999999998              -0.000012854              -0.000222417               0.999999998              -0.000011032              -0.000225999               0.999999998              -0.000007129              -0.000233859               0.999999998              -0.000001978              -0.000244922               0.999999998               0.000004068              -0.000258455               0.999999998               0.000010661              -0.000273898               0.999999998               0.000017362              -0.000290899               0.999999998               0.000024183              -0.000309175               0.999999998               0.000031414              -0.000328630               0.999999998               0.000038910              -0.000349207               0.999999998               0.000046545              -0.000370947               0.999999998               0.000054089              -0.000393892               0.999999998               0.000061577              -0.000417870               0.999999998               0.000068726              -0.000442754               0.999999998               0.000075566              -0.000468312               0.999999998               0.000000190              -0.000247601               0.999999998              -0.000009828              -0.000239884               0.999999998              -0.000012395              -0.000238048               0.999999998              -0.000011522              -0.000241022               0.999999998              -0.000008740              -0.000247771               0.999999998              -0.000004708              -0.000257405               0.999999998               0.000000110              -0.000269513               0.999999998               0.000005489              -0.000283492               0.999999998               0.000011052              -0.000299080               0.999999998               0.000016688              -0.000315988               0.999999998               0.000022612              -0.000334005               0.999999998               0.000028773              -0.000353096               0.999999998               0.000034851              -0.000373344               0.999999998               0.000040649              -0.000394727               0.999999998               0.000046090              -0.000417249               0.999999998               0.000051401              -0.000440744               0.999999998               0.000056240              -0.000464957               0.999999998               0.000000262              -0.000256997               0.999999998              -0.000008079              -0.000252309               0.999999998              -0.000010651              -0.000251453               0.999999998              -0.000010496              -0.000254306               0.999999998              -0.000008652              -0.000260326               0.999999998              -0.000005792              -0.000269042               0.999999998              -0.000002163              -0.000280006               0.999999998               0.000001901              -0.000292857               0.999999998               0.000006264              -0.000307306               0.999999998               0.000010607              -0.000323179               0.999999998               0.000015052              -0.000340297               0.999999998               0.000019692              -0.000358394               0.999999998               0.000024253              -0.000377572               0.999999998               0.000028359              -0.000397830               0.999999998               0.000032111              -0.000419161               0.999999998               0.000035501              -0.000441449               0.999999998               0.000038149              -0.000464595               0.999999998               0.000000216              -0.000263779               0.999999998              -0.000005731              -0.000261630               0.999999998              -0.000007786              -0.000261769               0.999999998              -0.000007968              -0.000264792               0.999999998              -0.000006940              -0.000270511               0.999999998              -0.000005127              -0.000278612               0.999999998              -0.000002739              -0.000288840               0.999999998               0.000000000              -0.000300964               0.999999998               0.000002968              -0.000314690               0.999999998               0.000005956              -0.000329892               0.999999998               0.000008924              -0.000346353               0.999999998               0.000011923              -0.000363868               0.999999998               0.000014983              -0.000382420               0.999999998               0.000017762              -0.000401934               0.999999998               0.000020112              -0.000422484               0.999999998               0.000021764              -0.000444106               0.999999998               0.000022636              -0.000466623               0.999999998               0.000000120              -0.000267852               0.999999998              -0.000002974              -0.000267358               0.999999998              -0.000004103              -0.000268287               0.999999998              -0.000004279              -0.000271554               0.999999998              -0.000003835              -0.000277173               0.999999998              -0.000002982              -0.000285016               0.999999998              -0.000001831              -0.000294880               0.999999998              -0.000000498              -0.000306575               0.999999998               0.000001013              -0.000319842               0.999999998               0.000002618              -0.000334605               0.999999998               0.000004087              -0.000350684               0.999999998               0.000005435              -0.000367913               0.999999998               0.000007060              -0.000386157               0.999999998               0.000008722              -0.000405370               0.999999998               0.000009577              -0.000425571               0.999999998               0.000010108              -0.000446752               0.999999998               0.000010342              -0.000468894               0.999999998              -0.000000000              -0.000269270               0.999999998              -0.000000000              -0.000269329               0.999999998              -0.000000000              -0.000270510               0.999999998               0.000000000              -0.000273893               0.999999998              -0.000000000              -0.000279525               0.999999998              -0.000000000              -0.000287265               0.999999998              -0.000000000              -0.000296955               0.999999998              -0.000000000              -0.000308535               0.999999998              -0.000000000              -0.000321702               0.999999998              -0.000000000              -0.000336251               0.999999998              -0.000000000              -0.000352202               0.999999998              -0.000000000              -0.000369407               0.999999998              -0.000000000              -0.000387598               0.999999998               0.000000000              -0.000406820               0.999999998               0.000000000              -0.000426895               0.999999998               0.000000000              -0.000447810               0.999999998               0.000000000              -0.000469794               0.999999998              -0.000004527              -0.000000000               0.999999998               0.000006091              -0.000000000               0.999999998               0.000011381               0.000000000               0.999999998               0.000014512               0.000000000               0.999999998               0.000016970               0.000000000               0.999999998               0.000019329               0.000000000               0.999999998               0.000021877               0.000000000               0.999999998               0.000024869               0.000000000               0.999999998               0.000028347               0.000000000               0.999999998               0.000032276               0.000000000               0.999999998               0.000036730               0.000000000               0.999999998               0.000041683               0.000000000               0.999999998               0.000047113               0.000000000               0.999999998               0.000053030              -0.000000000               0.999999998               0.000059425               0.000000000               0.999999998               0.000066365              -0.000000000               0.999999998               0.000073817               0.000000000               0.999999998              -0.000004432               0.000025967               0.999999998               0.000005816               0.000023431               0.999999998               0.000010871               0.000022901               0.999999998               0.000013921               0.000023560               0.999999998               0.000016387               0.000024982               0.999999998               0.000018774               0.000026878               0.999999998               0.000021428               0.000029127               0.999999998               0.000024509               0.000031737               0.999999998               0.000028081               0.000034541               0.999999998               0.000032201               0.000037545               0.999999998               0.000036819               0.000040675               0.999999998               0.000041933               0.000043968               0.999999998               0.000047555               0.000047439               0.999999998               0.000053670               0.000051040               0.999999998               0.000060259               0.000054827               0.999999998               0.000067330               0.000058901               0.999999998               0.000074892               0.000062850               0.999999998              -0.000004157               0.000051708               0.999999998               0.000005007               0.000046596               0.999999998               0.000009470               0.000045618               0.999999998               0.000012282               0.000047043               0.999999998               0.000014716               0.000049922               0.999999998               0.000017287               0.000053794               0.999999998               0.000020229               0.000058441               0.999999998               0.000023671               0.000063574               0.999999998               0.000027681               0.000069203               0.999999998               0.000032242               0.000075184               0.999999998               0.000037293               0.000081494               0.999999998               0.000042888               0.000088047               0.999999998               0.000048999               0.000094975               0.999999998               0.000055599               0.000102128               0.999999998               0.000062675               0.000109688               0.999999998               0.000070201               0.000117672               0.999999998               0.000078177               0.000125724               0.999999998              -0.000003779               0.000076994               0.999999998               0.000003651               0.000069229               0.999999998               0.000007271               0.000067955               0.999999998               0.000009818               0.000070276               0.999999998               0.000012356               0.000074761               0.999999998               0.000015273               0.000080720               0.999999998               0.000018752               0.000087718               0.999999998               0.000022860               0.000095518               0.999999998               0.000027551               0.000103942               0.999999998               0.000032859               0.000112911               0.999999998               0.000038741               0.000122288               0.999999998               0.000045137               0.000132088               0.999999998               0.000052041               0.000142442               0.999999998               0.000059429               0.000153259               0.999999998               0.000067335               0.000164544               0.999999998               0.000075680               0.000176383               0.999999998               0.000084367               0.000188417               0.999999998              -0.000003307               0.000101568               0.999999998               0.000001797               0.000091121               0.999999998               0.000004451               0.000089774               0.999999998               0.000006880               0.000093169               0.999999998               0.000009795               0.000099389               0.999999998               0.000013351               0.000107523               0.999999998               0.000017631               0.000116919               0.999999998               0.000022608               0.000127326               0.999999998               0.000028278               0.000138577               0.999999998               0.000034603               0.000150528               0.999999998               0.000041494               0.000163040               0.999999998               0.000048897               0.000176090               0.999999998               0.000056809               0.000189865               0.999999998               0.000065286               0.000204337               0.999999998               0.000074233               0.000219274               0.999999998               0.000083470               0.000234551               0.999999998               0.000092907               0.000250166               0.999999998              -0.000002785               0.000125160               0.999999998              -0.000000542               0.000112220               0.999999998               0.000001285               0.000111043               0.999999998               0.000003881               0.000115641               0.999999998               0.000007403               0.000123710               0.999999998               0.000011875               0.000133977               0.999999998               0.000017203               0.000145786               0.999999998               0.000023390               0.000158872               0.999999998               0.000030254               0.000172941               0.999999998               0.000037692               0.000187854               0.999999998               0.000045680               0.000203498               0.999999998               0.000054236               0.000219899               0.999999998               0.000063365               0.000237149               0.999999998               0.000072916               0.000255149               0.999999998               0.000082766               0.000273374               0.999999998               0.000092784               0.000291695               0.999999998               0.000102930               0.000310451               0.999999998              -0.000002311               0.000147537               0.999999998              -0.000003177               0.000132482               0.999999998              -0.000001883               0.000131655               0.999999998               0.000001153               0.000137592               0.999999998               0.000005589               0.000147530               0.999999998               0.000011218               0.000160007               0.999999998               0.000017861               0.000174259               0.999999998               0.000025289               0.000190012               0.999999998               0.000033312               0.000206900               0.999999998               0.000041873               0.000224756               0.999999998               0.000051052               0.000243590               0.999999998               0.000060790               0.000263371               0.999999998               0.000070996               0.000283926               0.999999998               0.000081482               0.000305245               0.999999998               0.000092062               0.000326605               0.999999998               0.000102795               0.000348083               0.999999998               0.000113811               0.000370200               0.999999998              -0.000001911               0.000168467               0.999999998              -0.000005879               0.000151838               0.999999998              -0.000004841               0.000151526               0.999999998              -0.000001046               0.000158901               0.999999998               0.000004530               0.000170713               0.999999998               0.000011470               0.000185386               0.999999998               0.000019365               0.000202125               0.999999998               0.000027943               0.000220522               0.999999998               0.000037117               0.000240237               0.999999998               0.000046814               0.000261087               0.999999998               0.000057104               0.000283205               0.999999998               0.000067806               0.000306416               0.999999998               0.000078884               0.000330547               0.999999998               0.000090112               0.000355186               0.999999998               0.000101501               0.000379892               0.999999998               0.000113210               0.000405038               0.999999998               0.000125359               0.000430988               0.999999998              -0.000001477               0.000187583               0.999999998              -0.000008529               0.000170278               0.999999998              -0.000007297               0.000170578               0.999999998              -0.000002524               0.000179349               0.999999998               0.000004247               0.000193063               0.999999998               0.000012467               0.000209970               0.999999998               0.000021519               0.000229244               0.999999998               0.000031184               0.000250332               0.999999998               0.000041370               0.000272958               0.999999998               0.000052094               0.000297068               0.999999998               0.000063327               0.000322645               0.999999998               0.000074976               0.000349467               0.999999998               0.000086929               0.000377134               0.999999998               0.000099009               0.000405279               0.999999998               0.000111322               0.000434017               0.999999998               0.000124061               0.000463462               0.999999998               0.000137122               0.000493639               0.999999998              -0.000000813               0.000205484               0.999999998              -0.000010152               0.000189465               0.999999998              -0.000010091               0.000187930               0.999999998              -0.000006165               0.000194457               0.999999998              -0.000000193               0.000205927               0.999999998               0.000007129               0.000220678               0.999999998               0.000015264               0.000237874               0.999999998               0.000023967               0.000256889               0.999999998               0.000032984               0.000277420               0.999999998               0.000042257               0.000299350               0.999999998               0.000052063               0.000322648               0.999999998               0.000062293               0.000347261               0.999999998               0.000072989               0.000372913               0.999999998               0.000083708               0.000399484               0.999999998               0.000094358               0.000426711               0.999999998               0.000105167               0.000454691               0.999999998               0.000116138               0.000483464               0.999999998              -0.000000357               0.000221657               0.999999998              -0.000010892               0.000207816               0.999999998              -0.000012030               0.000205456               0.999999998              -0.000009147               0.000210190               0.999999998              -0.000004125               0.000219657               0.999999998               0.000002128               0.000232469               0.999999998               0.000009317               0.000247691               0.999999998               0.000016997               0.000264820               0.999999998               0.000024819               0.000283467               0.999999998               0.000032902               0.000303453               0.999999998               0.000041317               0.000324667               0.999999998               0.000050197               0.000347125               0.999999998               0.000059403               0.000370735               0.999999998               0.000068695               0.000395428               0.999999998               0.000077779               0.000421021               0.999999998               0.000086761               0.000447380               0.999999998               0.000095826               0.000474496               0.999999998              -0.000000020               0.000235766               0.999999998              -0.000010788               0.000224845               0.999999998              -0.000012854               0.000222417               0.999999998              -0.000011032               0.000225999               0.999999998              -0.000007129               0.000233859               0.999999998              -0.000001978               0.000244922               0.999999998               0.000004068               0.000258455               0.999999998               0.000010661               0.000273898               0.999999998               0.000017362               0.000290899               0.999999998               0.000024183               0.000309175               0.999999998               0.000031414               0.000328630               0.999999998               0.000038910               0.000349207               0.999999998               0.000046545               0.000370947               0.999999998               0.000054089               0.000393892               0.999999998               0.000061577               0.000417870               0.999999998               0.000068726               0.000442754               0.999999998               0.000075566               0.000468312               0.999999998               0.000000190               0.000247601               0.999999998              -0.000009828               0.000239884               0.999999998              -0.000012395               0.000238048               0.999999998              -0.000011522               0.000241022               0.999999998              -0.000008740               0.000247771               0.999999998              -0.000004708               0.000257405               0.999999998               0.000000110               0.000269513               0.999999998               0.000005489               0.000283492               0.999999998               0.000011052               0.000299080               0.999999998               0.000016688               0.000315988               0.999999998               0.000022612               0.000334005               0.999999998               0.000028773               0.000353096               0.999999998               0.000034851               0.000373344               0.999999998               0.000040649               0.000394727               0.999999998               0.000046090               0.000417249               0.999999998               0.000051401               0.000440744               0.999999998               0.000056240               0.000464957               0.999999998               0.000000262               0.000256997               0.999999998              -0.000008079               0.000252309               0.999999998              -0.000010651               0.000251453               0.999999998              -0.000010496               0.000254306               0.999999998              -0.000008652               0.000260326               0.999999998              -0.000005792               0.000269042               0.999999998              -0.000002163               0.000280006               0.999999998               0.000001901               0.000292857               0.999999998               0.000006264               0.000307306               0.999999998               0.000010607               0.000323179               0.999999998               0.000015052               0.000340297               0.999999998               0.000019692               0.000358394               0.999999998               0.000024253               0.000377572               0.999999998               0.000028359               0.000397830               0.999999998               0.000032111               0.000419161               0.999999998               0.000035501               0.000441449               0.999999998               0.000038149               0.000464595               0.999999998               0.000000216               0.000263779               0.999999998              -0.000005731               0.000261630               0.999999998              -0.000007786               0.000261769               0.999999998              -0.000007968               0.000264792               0.999999998              -0.000006940               0.000270511               0.999999998              -0.000005127               0.000278612               0.999999998              -0.000002739               0.000288840               0.999999998               0.000000000               0.000300964               0.999999998               0.000002968               0.000314690               0.999999998               0.000005956               0.000329892               0.999999998               0.000008924               0.000346353               0.999999998               0.000011923               0.000363868               0.999999998               0.000014983               0.000382420               0.999999998               0.000017762               0.000401934               0.999999998               0.000020112               0.000422484               0.999999998               0.000021764               0.000444106               0.999999998               0.000022636               0.000466623               0.999999998               0.000000120               0.000267852               0.999999998              -0.000002974               0.000267358               0.999999998              -0.000004103               0.000268287               0.999999998              -0.000004279               0.000271554               0.999999998              -0.000003835               0.000277173               0.999999998              -0.000002982               0.000285016               0.999999998              -0.000001831               0.000294880               0.999999998              -0.000000498               0.000306575               0.999999998               0.000001013               0.000319842               0.999999998               0.000002618               0.000334605               0.999999998               0.000004087               0.000350684               0.999999998               0.000005435               0.000367913               0.999999998               0.000007060               0.000386157               0.999999998               0.000008722               0.000405370               0.999999998               0.000009577               0.000425571               0.999999998               0.000010108               0.000446752               0.999999998               0.000010342               0.000468894               0.999999998              -0.000000000               0.000269270               0.999999998              -0.000000000               0.000269329               0.999999998               0.000000000               0.000270510               0.999999998              -0.000000000               0.000273893               0.999999998               0.000000000               0.000279525               0.999999998               0.000000000               0.000287265               0.999999998               0.000000000               0.000296955               0.999999998               0.000000000               0.000308535               0.999999998               0.000000000               0.000321702               0.999999998              -0.000000000               0.000336251               0.999999998              -0.000000000               0.000352202               0.999999998               0.000000000               0.000369407               0.999999998               0.000000000               0.000387598               0.999999998              -0.000000000               0.000406820               0.999999998              -0.000000000               0.000426895               0.999999998              -0.000000000               0.000447810               0.999999998               0.000000000               0.000469794               0.999999998 </DataArray>
<DataArray type="Float64"                                    Name="stress"                                                      NumberOfComponents="10" format="ascii">
              0.000411381               0.004885677               0.000000000              -0.000456440               0.001780690               0.001324249               0.000000000               0.000000000               0.000000000               0.000000000               0.000465418               0.004075912               0.000000000              -0.000334956               0.001470276               0.001135320               0.000000000               0.000000000               0.000000000               0.000000000               0.000661502               0.003421394               0.000000000              -0.000179610               0.001200323               0.001020713               0.000000000               0.000000000               0.000000000               0.000000000               0.000696056               0.003061174               0.000000000              -0.000121625               0.001060923               0.000939297               0.000000000               0.000000000               0.000000000               0.000000000               0.000668057               0.002852554              -0.000000000              -0.000106047               0.000986191               0.000880144               0.000000000               0.000000000               0.000000000               0.000000000               0.000618692               0.002726723              -0.000000000              -0.000108830               0.000945175               0.000836345               0.000000000               0.000000000               0.000000000               0.000000000               0.000555047               0.002649063              -0.000000000              -0.000122990               0.000924009               0.000801019               0.000000000               0.000000000               0.000000000               0.000000000               0.000487179               0.002605464              -0.000000000              -0.000142991               0.000916143               0.000773152               0.000000000               0.000000000               0.000000000               0.000000000               0.000423564               0.002582397              -0.000000000              -0.000163963               0.000915445               0.000751482               0.000000000               0.000000000               0.000000000               0.000000000               0.000362880               0.002572767              -0.000000000              -0.000185515               0.000919419               0.000733904               0.000000000               0.000000000               0.000000000               0.000000000               0.000303867               0.002570934              -0.000000000              -0.000207416               0.000926108               0.000718692               0.000000000               0.000000000               0.000000000               0.000000000               0.000249165               0.002577220              -0.000000000              -0.000228715               0.000935303               0.000706588               0.000000000               0.000000000               0.000000000               0.000000000               0.000197266               0.002590332              -0.000000000              -0.000249816               0.000946707               0.000696891               0.000000000               0.000000000               0.000000000               0.000000000               0.000147425               0.002607962              -0.000000000              -0.000270710               0.000959549               0.000688839               0.000000000               0.000000000               0.000000000               0.000000000               0.000097189               0.002630860              -0.000000000              -0.000292411               0.000974415               0.000682004               0.000000000               0.000000000               0.000000000               0.000000000               0.000046911               0.002658642               0.000000000              -0.000314738               0.000991118               0.000676380               0.000000000               0.000000000               0.000000000               0.000000000               0.000024503               0.002677662               0.000000000              -0.000325518               0.001001051               0.000675533               0.000000000               0.000000000               0.000000000               0.000000000               0.000443664               0.004812277              -0.000379657              -0.000435160               0.001749130               0.001313970               0.000000000               0.000000000               0.000000000               0.000000000               0.000480200               0.004022795              -0.000252159              -0.000322774               0.001448509               0.001125736               0.000000000               0.000000000               0.000000000               0.000000000               0.000656243               0.003391949              -0.000117795              -0.000177902               0.001189939               0.001012037               0.000000000               0.000000000               0.000000000               0.000000000               0.000680710               0.003045257              -0.000052432              -0.000125391               0.001056873               0.000931482               0.000000000               0.000000000               0.000000000               0.000000000               0.000648882               0.002843169              -0.000020071              -0.000112065               0.000985069               0.000873003               0.000000000               0.000000000               0.000000000               0.000000000               0.000598346               0.002723087              -0.000004360              -0.000116006               0.000946355               0.000830349               0.000000000               0.000000000               0.000000000               0.000000000               0.000536503               0.002650888               0.000003943              -0.000130172               0.000927011               0.000796839               0.000000000               0.000000000               0.000000000               0.000000000               0.000470591               0.002606602               0.000007922              -0.000149353               0.000918643               0.000769290               0.000000000               0.000000000               0.000000000               0.000000000               0.000406120               0.002582740               0.000008543              -0.000170547               0.000917754               0.000747207               0.000000000               0.000000000               0.000000000               0.000000000               0.000346164               0.002572677               0.000007353              -0.000191773               0.000921475               0.000729702               0.000000000               0.000000000               0.000000000               0.000000000               0.000290424               0.002572156               0.000006017              -0.000212610               0.000928247               0.000715637               0.000000000               0.000000000               0.000000000               0.000000000               0.000236356               0.002577690               0.000005999              -0.000233577               0.000937080               0.000703503               0.000000000               0.000000000               0.000000000               0.000000000               0.000185023               0.002589893               0.000005577              -0.000254352               0.000948073               0.000693721               0.000000000               0.000000000               0.000000000               0.000000000               0.000136592               0.002606619               0.000005905              -0.000274605               0.000960399               0.000685795               0.000000000               0.000000000               0.000000000               0.000000000               0.000090107               0.002629351               0.000009711              -0.000294878               0.000974734               0.000679856               0.000000000               0.000000000               0.000000000               0.000000000               0.000043871               0.002656216               0.000008550              -0.000315574               0.000990588               0.000675014               0.000000000               0.000000000               0.000000000               0.000000000               0.000023675               0.002676884               0.000004064              -0.000325732               0.001000863               0.000675131               0.000000000               0.000000000               0.000000000               0.000000000               0.000529605               0.004597584              -0.000721502              -0.000376096               0.001657878               0.001281782               0.000000000               0.000000000               0.000000000               0.000000000               0.000515451               0.003866485              -0.000479735              -0.000290016               0.001385487               0.001095471               0.000000000               0.000000000               0.000000000               0.000000000               0.000637370               0.003304408              -0.000226733              -0.000174037               0.001159471               0.000985434               0.000000000               0.000000000               0.000000000               0.000000000               0.000638437               0.002996163              -0.000105986              -0.000135106               0.001043747               0.000908640               0.000000000               0.000000000               0.000000000               0.000000000               0.000596082               0.002815423              -0.000046441              -0.000128397               0.000981264               0.000852867               0.000000000               0.000000000               0.000000000               0.000000000               0.000541707               0.002708812              -0.000016498              -0.000135461               0.000948082               0.000812621               0.000000000               0.000000000               0.000000000               0.000000000               0.000481909               0.002644119              -0.000002949              -0.000149799               0.000931297               0.000781499               0.000000000               0.000000000               0.000000000               0.000000000               0.000420007               0.002603530               0.000002479              -0.000167938               0.000923814               0.000755876               0.000000000               0.000000000               0.000000000               0.000000000               0.000359763               0.002580539               0.000004422              -0.000187656               0.000922723               0.000735067               0.000000000               0.000000000               0.000000000               0.000000000               0.000305840               0.002570761               0.000003578              -0.000206655               0.000925797               0.000719142               0.000000000               0.000000000               0.000000000               0.000000000               0.000255241               0.002569273               0.000001352              -0.000225443               0.000931563               0.000706120               0.000000000               0.000000000               0.000000000               0.000000000               0.000205006               0.002573729               0.000001568              -0.000244838               0.000939514               0.000694676               0.000000000               0.000000000               0.000000000               0.000000000               0.000158621               0.002585935               0.000002294              -0.000263758               0.000949889               0.000686131               0.000000000               0.000000000               0.000000000               0.000000000               0.000114994               0.002603937               0.000004045              -0.000282369               0.000962093               0.000679724               0.000000000               0.000000000               0.000000000               0.000000000               0.000074126               0.002625965               0.000010123              -0.000300448               0.000975462               0.000675014               0.000000000               0.000000000               0.000000000               0.000000000               0.000035882               0.002651167               0.000010139              -0.000317939               0.000989693               0.000671754               0.000000000               0.000000000               0.000000000               0.000000000               0.000020666               0.002672529               0.000005359              -0.000326316               0.000999606               0.000673290               0.000000000               0.000000000               0.000000000               0.000000000               0.000645787               0.004259048              -0.000997215              -0.000290211               0.001516405               0.001226194               0.000000000               0.000000000               0.000000000               0.000000000               0.000557636               0.003622835              -0.000663848              -0.000243741               0.001288846               0.001045106               0.000000000               0.000000000               0.000000000               0.000000000               0.000601383               0.003169227              -0.000318914              -0.000170635               0.001113277               0.000942642               0.000000000               0.000000000               0.000000000               0.000000000               0.000571467               0.002918369              -0.000160121              -0.000150496               0.001022945               0.000872450               0.000000000               0.000000000               0.000000000               0.000000000               0.000520441               0.002771094              -0.000083423              -0.000151221               0.000974096               0.000822875               0.000000000               0.000000000               0.000000000               0.000000000               0.000464672               0.002682230              -0.000045422              -0.000161026               0.000947743               0.000786717               0.000000000               0.000000000               0.000000000               0.000000000               0.000406502               0.002624119              -0.000027222              -0.000175576               0.000933223               0.000757647               0.000000000               0.000000000               0.000000000               0.000000000               0.000351823               0.002589538              -0.000018837              -0.000191758               0.000927090               0.000735332               0.000000000               0.000000000               0.000000000               0.000000000               0.000299812               0.002569861              -0.000015314              -0.000208803               0.000926213               0.000717410               0.000000000               0.000000000               0.000000000               0.000000000               0.000251267               0.002561006              -0.000015614              -0.000225900               0.000928960               0.000703060               0.000000000               0.000000000               0.000000000               0.000000000               0.000208037               0.002559972              -0.000017174              -0.000241982               0.000933976               0.000691994               0.000000000               0.000000000               0.000000000               0.000000000               0.000167141               0.002565957              -0.000014130              -0.000258066               0.000941333               0.000683266               0.000000000               0.000000000               0.000000000               0.000000000               0.000127699               0.002579168              -0.000009153              -0.000274508               0.000951217               0.000676709               0.000000000               0.000000000               0.000000000               0.000000000               0.000089544               0.002598778              -0.000005907              -0.000291268               0.000963340               0.000672072               0.000000000               0.000000000               0.000000000               0.000000000               0.000054201               0.002617838              -0.000000022              -0.000306903               0.000974905               0.000668002               0.000000000               0.000000000               0.000000000               0.000000000               0.000025029               0.002635293               0.000003261              -0.000320025               0.000985097               0.000665072               0.000000000               0.000000000               0.000000000               0.000000000               0.000014951               0.002650436               0.000001124              -0.000325697               0.000992036               0.000666339               0.000000000               0.000000000               0.000000000               0.000000000               0.000768818               0.003830284              -0.001188796              -0.000190479               0.001340241               0.001149762               0.000000000               0.000000000               0.000000000               0.000000000               0.000596194               0.003325231              -0.000795441              -0.000192081               0.001172426               0.000980345               0.000000000               0.000000000               0.000000000               0.000000000               0.000550826               0.003009717              -0.000394913              -0.000169655               0.001059780               0.000890126               0.000000000               0.000000000               0.000000000               0.000000000               0.000489568               0.002825286              -0.000217083              -0.000169572               0.000998277               0.000828704               0.000000000               0.000000000               0.000000000               0.000000000               0.000432490               0.002713773              -0.000130972              -0.000177038               0.000963595               0.000786557               0.000000000               0.000000000               0.000000000               0.000000000               0.000380372               0.002641902              -0.000088399              -0.000187598               0.000943158               0.000755560               0.000000000               0.000000000               0.000000000               0.000000000               0.000330364               0.002594327              -0.000066847              -0.000200404               0.000931568               0.000731164               0.000000000               0.000000000               0.000000000               0.000000000               0.000285309               0.002566548              -0.000055070              -0.000213827               0.000926783               0.000712956               0.000000000               0.000000000               0.000000000               0.000000000               0.000243036               0.002551512              -0.000048385              -0.000227800               0.000926429               0.000698629               0.000000000               0.000000000               0.000000000               0.000000000               0.000203370               0.002545385              -0.000044472              -0.000241909               0.000929089               0.000687181               0.000000000               0.000000000               0.000000000               0.000000000               0.000168101               0.002548019              -0.000041496              -0.000255464               0.000934486               0.000679022               0.000000000               0.000000000               0.000000000               0.000000000               0.000134840               0.002558078              -0.000034433              -0.000269194               0.000942415               0.000673221               0.000000000               0.000000000               0.000000000               0.000000000               0.000100230               0.002572373              -0.000024269              -0.000283960               0.000952102               0.000668143               0.000000000               0.000000000               0.000000000               0.000000000               0.000066417               0.002587820              -0.000017985              -0.000298570               0.000962122               0.000663551               0.000000000               0.000000000               0.000000000               0.000000000               0.000039014               0.002597174              -0.000013706              -0.000310016               0.000969055               0.000659039               0.000000000               0.000000000               0.000000000               0.000000000               0.000018244               0.002599536              -0.000006442              -0.000318100               0.000972537               0.000654437               0.000000000               0.000000000               0.000000000               0.000000000               0.000010750               0.002603444              -0.000002894              -0.000321398               0.000974939               0.000653540               0.000000000               0.000000000               0.000000000               0.000000000               0.000876667               0.003354361              -0.001287630              -0.000090546               0.001148291               0.001057745               0.000000000               0.000000000               0.000000000               0.000000000               0.000622413               0.003005789              -0.000875650              -0.000142319               0.001049359               0.000907040               0.000000000               0.000000000               0.000000000               0.000000000               0.000490269               0.002840699              -0.000459809              -0.000171236               0.001003969               0.000832733               0.000000000               0.000000000               0.000000000               0.000000000               0.000408170               0.002725524              -0.000277558              -0.000187626               0.000971041               0.000783414               0.000000000               0.000000000               0.000000000               0.000000000               0.000350618               0.002648759              -0.000187689              -0.000199613               0.000949448               0.000749836               0.000000000               0.000000000               0.000000000               0.000000000               0.000304882               0.002594681              -0.000141995              -0.000210004               0.000934886               0.000724883               0.000000000               0.000000000               0.000000000               0.000000000               0.000264977               0.002559670              -0.000115714              -0.000220592               0.000926745               0.000706153               0.000000000               0.000000000               0.000000000               0.000000000               0.000230779               0.002540861              -0.000098330              -0.000231065               0.000923967               0.000692902               0.000000000               0.000000000               0.000000000               0.000000000               0.000201080               0.002531158              -0.000085053              -0.000240989               0.000924041               0.000683052               0.000000000               0.000000000               0.000000000               0.000000000               0.000170223               0.002527761              -0.000073322              -0.000252136               0.000926624               0.000674488               0.000000000               0.000000000               0.000000000               0.000000000               0.000138942               0.002533147              -0.000062844              -0.000264540               0.000932554               0.000668014               0.000000000               0.000000000               0.000000000               0.000000000               0.000107092               0.002544951              -0.000050322              -0.000277959               0.000940962               0.000663003               0.000000000               0.000000000               0.000000000               0.000000000               0.000077895               0.002556640              -0.000034914              -0.000290369               0.000948994               0.000658626               0.000000000               0.000000000               0.000000000               0.000000000               0.000054592               0.002565612              -0.000026527              -0.000300229               0.000955272               0.000655043               0.000000000               0.000000000               0.000000000               0.000000000               0.000034466               0.002565396              -0.000024190              -0.000307749               0.000957706               0.000649957               0.000000000               0.000000000               0.000000000               0.000000000               0.000017338               0.002561566              -0.000014397              -0.000313693               0.000958411               0.000644718               0.000000000               0.000000000               0.000000000               0.000000000               0.000011157               0.002562542              -0.000007340              -0.000316133               0.000959550               0.000643417               0.000000000               0.000000000               0.000000000               0.000000000               0.000946941               0.002866539              -0.001302020              -0.000003216               0.000956575               0.000953359               0.000000000               0.000000000               0.000000000               0.000000000               0.000631563               0.002684266              -0.000913045              -0.000098698               0.000927646               0.000828948               0.000000000               0.000000000               0.000000000               0.000000000               0.000428255               0.002670024              -0.000515672              -0.000173157               0.000947718               0.000774561               0.000000000               0.000000000               0.000000000               0.000000000               0.000337408               0.002623285              -0.000339352              -0.000201382               0.000941547               0.000740165               0.000000000               0.000000000               0.000000000               0.000000000               0.000284888               0.002579337              -0.000248508              -0.000215584               0.000931632               0.000716048               0.000000000               0.000000000               0.000000000               0.000000000               0.000246912               0.002544794              -0.000198331              -0.000225507               0.000923425               0.000697918               0.000000000               0.000000000               0.000000000               0.000000000               0.000217760               0.002523449              -0.000163876              -0.000233771               0.000919065               0.000685294               0.000000000               0.000000000               0.000000000               0.000000000               0.000193409               0.002511611              -0.000135984              -0.000241422               0.000917669               0.000676247               0.000000000               0.000000000               0.000000000               0.000000000               0.000171478               0.002506473              -0.000114057              -0.000249004               0.000918484               0.000669480               0.000000000               0.000000000               0.000000000               0.000000000               0.000143671               0.002506658              -0.000093514              -0.000259455               0.000922029               0.000662574               0.000000000               0.000000000               0.000000000               0.000000000               0.000113811               0.002516320              -0.000073998              -0.000271860               0.000929385               0.000657525               0.000000000               0.000000000               0.000000000               0.000000000               0.000085135               0.002530608              -0.000055679              -0.000284400               0.000938327               0.000653928               0.000000000               0.000000000               0.000000000               0.000000000               0.000062497               0.002543728              -0.000037223              -0.000294529               0.000946077               0.000651548               0.000000000               0.000000000               0.000000000               0.000000000               0.000049086               0.002551018              -0.000028088              -0.000300469               0.000950487               0.000650018               0.000000000               0.000000000               0.000000000               0.000000000               0.000036513               0.002554044              -0.000027218              -0.000305562               0.000953193               0.000647631               0.000000000               0.000000000               0.000000000               0.000000000               0.000019078               0.002560686              -0.000017191              -0.000312931               0.000957864               0.000644933               0.000000000               0.000000000               0.000000000               0.000000000               0.000012774               0.002569960              -0.000010582              -0.000316454               0.000962129               0.000645675               0.000000000               0.000000000               0.000000000               0.000000000               0.000975000               0.002393443              -0.001246161               0.000066442               0.000775658               0.000842101               0.000000000               0.000000000               0.000000000               0.000000000               0.000625339               0.002379668              -0.000915064              -0.000062957               0.000814200               0.000751243               0.000000000               0.000000000               0.000000000               0.000000000               0.000376153               0.002506712              -0.000564835              -0.000172281               0.000892989               0.000720708               0.000000000               0.000000000               0.000000000               0.000000000               0.000285541               0.002519572              -0.000398526              -0.000207868               0.000909138               0.000701270               0.000000000               0.000000000               0.000000000               0.000000000               0.000238226               0.002506072              -0.000305344              -0.000223924               0.000909990               0.000686066               0.000000000               0.000000000               0.000000000               0.000000000               0.000208719               0.002491134              -0.000246402              -0.000233121               0.000908077               0.000674955               0.000000000               0.000000000               0.000000000               0.000000000               0.000189006               0.002484033              -0.000201122              -0.000239626               0.000907878               0.000668252               0.000000000               0.000000000               0.000000000               0.000000000               0.000169413               0.002479869              -0.000163277              -0.000246453               0.000908766               0.000662313               0.000000000               0.000000000               0.000000000               0.000000000               0.000148510               0.002481620              -0.000132409              -0.000254511               0.000912035               0.000657525               0.000000000               0.000000000               0.000000000               0.000000000               0.000123399               0.002492563              -0.000103371              -0.000265295               0.000919278               0.000653983               0.000000000               0.000000000               0.000000000               0.000000000               0.000098274               0.002511446              -0.000075209              -0.000277077               0.000929499               0.000652422               0.000000000               0.000000000               0.000000000               0.000000000               0.000077095               0.002532749              -0.000051575              -0.000287682               0.000940135               0.000652453               0.000000000               0.000000000               0.000000000               0.000000000               0.000062995               0.002551236              -0.000034429              -0.000295281               0.000948830               0.000653550               0.000000000               0.000000000               0.000000000               0.000000000               0.000054705               0.002564537              -0.000028046              -0.000300052               0.000954855               0.000654803               0.000000000               0.000000000               0.000000000               0.000000000               0.000042307               0.002583867              -0.000027012              -0.000307118               0.000963653               0.000656535               0.000000000               0.000000000               0.000000000               0.000000000               0.000022815               0.002609533              -0.000017878              -0.000317635               0.000975714               0.000658079               0.000000000               0.000000000               0.000000000               0.000000000               0.000014842               0.002628400              -0.000012790              -0.000322983               0.000983786               0.000660802               0.000000000               0.000000000               0.000000000               0.000000000               0.000977391               0.001972496              -0.001142355               0.000119957               0.000617506               0.000737463               0.000000000               0.000000000               0.000000000               0.000000000               0.000625647               0.002106976              -0.000899717              -0.000028755               0.000711903               0.000683148               0.000000000               0.000000000               0.000000000               0.000000000               0.000354255               0.002358253              -0.000621397              -0.000161936               0.000840055               0.000678119               0.000000000               0.000000000               0.000000000               0.000000000               0.000263138               0.002425730              -0.000461922              -0.000204539               0.000876748               0.000672209               0.000000000               0.000000000               0.000000000               0.000000000               0.000218376               0.002442997              -0.000362695              -0.000223483               0.000888819               0.000665335               0.000000000               0.000000000               0.000000000               0.000000000               0.000192635               0.002449159              -0.000293195              -0.000233906               0.000894347               0.000660441               0.000000000               0.000000000               0.000000000               0.000000000               0.000178750               0.002457135              -0.000238423              -0.000240110               0.000899073               0.000658963               0.000000000               0.000000000               0.000000000               0.000000000               0.000164755               0.002464354              -0.000193035              -0.000246261               0.000903530               0.000657269               0.000000000               0.000000000               0.000000000               0.000000000               0.000145199               0.002477495              -0.000152740              -0.000255236               0.000910902               0.000655666               0.000000000               0.000000000               0.000000000               0.000000000               0.000121371               0.002501493              -0.000116251              -0.000267172               0.000922880               0.000655708               0.000000000               0.000000000               0.000000000               0.000000000               0.000100588               0.002531252              -0.000084089              -0.000278685               0.000936637               0.000657952               0.000000000               0.000000000               0.000000000               0.000000000               0.000085141               0.002557746              -0.000059426              -0.000287790               0.000948503               0.000660714               0.000000000               0.000000000               0.000000000               0.000000000               0.000076336               0.002576795              -0.000041993              -0.000293473               0.000956747               0.000663275               0.000000000               0.000000000               0.000000000               0.000000000               0.000069766               0.002600051              -0.000030328              -0.000298843               0.000966289               0.000667446               0.000000000               0.000000000               0.000000000               0.000000000               0.000056462               0.002636498              -0.000023022              -0.000308388               0.000981620               0.000673232               0.000000000               0.000000000               0.000000000               0.000000000               0.000038495               0.002681426              -0.000014828              -0.000320742               0.001000714               0.000679972               0.000000000               0.000000000               0.000000000               0.000000000               0.000026161               0.002704912              -0.000009000              -0.000328303               0.001011063               0.000682760               0.000000000               0.000000000               0.000000000               0.000000000               0.000947521               0.001557664              -0.001014628               0.000160610               0.000465679               0.000626289               0.000000000               0.000000000               0.000000000               0.000000000               0.000641166               0.001784505              -0.000876865               0.000017373               0.000589038               0.000606411               0.000000000               0.000000000               0.000000000               0.000000000               0.000373785               0.002125809              -0.000688668              -0.000125557               0.000750448               0.000624891               0.000000000               0.000000000               0.000000000               0.000000000               0.000275967               0.002258518              -0.000540373              -0.000178827               0.000812441               0.000633614               0.000000000               0.000000000               0.000000000               0.000000000               0.000228972               0.002319482              -0.000434692              -0.000204071               0.000841176               0.000637106               0.000000000               0.000000000               0.000000000               0.000000000               0.000199418               0.002356482              -0.000355910              -0.000219778               0.000858745               0.000638967               0.000000000               0.000000000               0.000000000               0.000000000               0.000184226               0.002384809              -0.000293885              -0.000229016               0.000871267               0.000642251               0.000000000               0.000000000               0.000000000               0.000000000               0.000172283               0.002408705              -0.000241039              -0.000236482               0.000881721               0.000645239               0.000000000               0.000000000               0.000000000               0.000000000               0.000156143               0.002435449              -0.000192738              -0.000245877               0.000893767               0.000647890               0.000000000               0.000000000               0.000000000               0.000000000               0.000137081               0.002469337              -0.000153213              -0.000257261               0.000908858               0.000651597               0.000000000               0.000000000               0.000000000               0.000000000               0.000119907               0.002509815              -0.000121044              -0.000268761               0.000926184               0.000657423               0.000000000               0.000000000               0.000000000               0.000000000               0.000107312               0.002548771              -0.000095347              -0.000278354               0.000942366               0.000664013               0.000000000               0.000000000               0.000000000               0.000000000               0.000099048               0.002585988              -0.000071649              -0.000286105               0.000957356               0.000671251               0.000000000               0.000000000               0.000000000               0.000000000               0.000092493               0.002625441              -0.000047475              -0.000293495               0.000972970               0.000679475               0.000000000               0.000000000               0.000000000               0.000000000               0.000079935               0.002668548              -0.000028277              -0.000303592               0.000990704               0.000687112               0.000000000               0.000000000               0.000000000               0.000000000               0.000062492               0.002720656              -0.000013211              -0.000316647               0.001012425               0.000695778               0.000000000               0.000000000               0.000000000               0.000000000               0.000045067               0.002742138              -0.000002596              -0.000325866               0.001022659               0.000696793               0.000000000               0.000000000               0.000000000               0.000000000               0.000874020               0.001164479              -0.000863820               0.000182195               0.000327423               0.000509619               0.000000000               0.000000000               0.000000000               0.000000000               0.000656773               0.001456123              -0.000829631               0.000064273               0.000463945               0.000528218               0.000000000               0.000000000               0.000000000               0.000000000               0.000425903               0.001857465              -0.000737280              -0.000072470               0.000643305               0.000570835               0.000000000               0.000000000               0.000000000               0.000000000               0.000324827               0.002053692              -0.000615392              -0.000134902               0.000729524               0.000594623               0.000000000               0.000000000               0.000000000               0.000000000               0.000270282               0.002165177              -0.000509850              -0.000169291               0.000778149               0.000608858               0.000000000               0.000000000               0.000000000               0.000000000               0.000233965               0.002237757              -0.000426432              -0.000191982               0.000809906               0.000617923               0.000000000               0.000000000               0.000000000               0.000000000               0.000211969               0.002292416              -0.000359919              -0.000207063               0.000833152               0.000626089               0.000000000               0.000000000               0.000000000               0.000000000               0.000198876               0.002339255              -0.000299927              -0.000217828               0.000852353               0.000634525               0.000000000               0.000000000               0.000000000               0.000000000               0.000185294               0.002381732              -0.000247205              -0.000228231               0.000869980               0.000641749               0.000000000               0.000000000               0.000000000               0.000000000               0.000170533               0.002424268              -0.000206182              -0.000239083               0.000887776               0.000648693               0.000000000               0.000000000               0.000000000               0.000000000               0.000157363               0.002472088              -0.000173847              -0.000250000               0.000907354               0.000657355               0.000000000               0.000000000               0.000000000               0.000000000               0.000144809               0.002523398              -0.000144554              -0.000261121               0.000928165               0.000667044               0.000000000               0.000000000               0.000000000               0.000000000               0.000131335               0.002578168              -0.000112872              -0.000273020               0.000950387               0.000677368               0.000000000               0.000000000               0.000000000               0.000000000               0.000119145               0.002633094              -0.000078447              -0.000284457               0.000972508               0.000688052               0.000000000               0.000000000               0.000000000               0.000000000               0.000106737               0.002684591              -0.000047331              -0.000295547               0.000993370               0.000697824               0.000000000               0.000000000               0.000000000               0.000000000               0.000086913               0.002733442              -0.000021649              -0.000309087               0.001014167               0.000705080               0.000000000               0.000000000               0.000000000               0.000000000               0.000064641               0.002748848              -0.000005830              -0.000319365               0.001022729               0.000703364               0.000000000               0.000000000               0.000000000               0.000000000               0.000761320               0.000816953              -0.000691857               0.000183374               0.000211190               0.000394564               0.000000000               0.000000000               0.000000000               0.000000000               0.000653572               0.001135145              -0.000744300               0.000103195               0.000343979               0.000447174               0.000000000               0.000000000               0.000000000               0.000000000               0.000492560               0.001557126              -0.000739059              -0.000009932               0.000522347               0.000512416               0.000000000               0.000000000               0.000000000               0.000000000               0.000402534               0.001802826              -0.000652572              -0.000074404               0.000625737               0.000551333               0.000000000               0.000000000               0.000000000               0.000000000               0.000341890               0.001959800              -0.000559430              -0.000116767               0.000692182               0.000575416               0.000000000               0.000000000               0.000000000               0.000000000               0.000300275               0.002072644              -0.000478228              -0.000146477               0.000739700               0.000593223               0.000000000               0.000000000               0.000000000               0.000000000               0.000268294               0.002160601              -0.000410823              -0.000169465               0.000776681               0.000607217               0.000000000               0.000000000               0.000000000               0.000000000               0.000247802               0.002232711              -0.000348844              -0.000186163               0.000806284               0.000620121               0.000000000               0.000000000               0.000000000               0.000000000               0.000233799               0.002295642              -0.000293791              -0.000199280               0.000831633               0.000632353               0.000000000               0.000000000               0.000000000               0.000000000               0.000217825               0.002351851              -0.000252795              -0.000212297               0.000854708               0.000642412               0.000000000               0.000000000               0.000000000               0.000000000               0.000204024               0.002409661              -0.000220871              -0.000224698               0.000878112               0.000653414               0.000000000               0.000000000               0.000000000               0.000000000               0.000191267               0.002474141              -0.000187562              -0.000237542               0.000903886               0.000666344               0.000000000               0.000000000               0.000000000               0.000000000               0.000176825               0.002547985              -0.000149425              -0.000252188               0.000933383               0.000681195               0.000000000               0.000000000               0.000000000               0.000000000               0.000158522               0.002621298              -0.000109628              -0.000268216               0.000963162               0.000694947               0.000000000               0.000000000               0.000000000               0.000000000               0.000138328               0.002687356              -0.000071484              -0.000284046               0.000990458               0.000706412               0.000000000               0.000000000               0.000000000               0.000000000               0.000114714               0.002740553              -0.000034525              -0.000299551               0.001013359               0.000713808               0.000000000               0.000000000               0.000000000               0.000000000               0.000088813               0.002753763              -0.000012158              -0.000310915               0.001021550               0.000710635               0.000000000               0.000000000               0.000000000               0.000000000               0.000618602               0.000531808              -0.000516038               0.000165498               0.000122101               0.000287599               0.000000000               0.000000000               0.000000000               0.000000000               0.000634938               0.000840696              -0.000626279               0.000133013               0.000235891               0.000368904               0.000000000               0.000000000               0.000000000               0.000000000               0.000564548               0.001248266              -0.000686235               0.000055671               0.000397527               0.000453198               0.000000000               0.000000000               0.000000000               0.000000000               0.000497476               0.001522902              -0.000635936              -0.000003810               0.000508899               0.000505089               0.000000000               0.000000000               0.000000000               0.000000000               0.000439212               0.001717097              -0.000563998              -0.000049933               0.000589004               0.000539071               0.000000000               0.000000000               0.000000000               0.000000000               0.000391975               0.001869441              -0.000493743              -0.000086690               0.000652037               0.000565347               0.000000000               0.000000000               0.000000000               0.000000000               0.000352853               0.001992020              -0.000430667              -0.000116682               0.000702894               0.000586212               0.000000000               0.000000000               0.000000000               0.000000000               0.000321212               0.002091800              -0.000372720              -0.000141020               0.000744266               0.000603246               0.000000000               0.000000000               0.000000000               0.000000000               0.000301664               0.002181550              -0.000319864              -0.000159569               0.000780366               0.000620796               0.000000000               0.000000000               0.000000000               0.000000000               0.000281598               0.002259363              -0.000279549              -0.000176821               0.000812054               0.000635233               0.000000000               0.000000000               0.000000000               0.000000000               0.000258180               0.002330646              -0.000249124              -0.000194513               0.000841712               0.000647199               0.000000000               0.000000000               0.000000000               0.000000000               0.000240361               0.002409325              -0.000215944              -0.000211030               0.000873444               0.000662414               0.000000000               0.000000000               0.000000000               0.000000000               0.000225890               0.002497195              -0.000174849              -0.000227440               0.000908203               0.000680763               0.000000000               0.000000000               0.000000000               0.000000000               0.000208430               0.002585807              -0.000130214              -0.000245064               0.000943615               0.000698551               0.000000000               0.000000000               0.000000000               0.000000000               0.000187038               0.002667536              -0.000089940              -0.000263302               0.000976937               0.000713635               0.000000000               0.000000000               0.000000000               0.000000000               0.000161022               0.002730769              -0.000049148              -0.000280962               0.001003901               0.000722939               0.000000000               0.000000000               0.000000000               0.000000000               0.000134538               0.002749410              -0.000023104              -0.000293224               0.001014202               0.000720978               0.000000000               0.000000000               0.000000000               0.000000000               0.000462746               0.000314831              -0.000353791               0.000134174               0.000060217               0.000194392               0.000000000               0.000000000               0.000000000               0.000000000               0.000601770               0.000591918              -0.000484904               0.000151672               0.000146746               0.000298418               0.000000000               0.000000000               0.000000000               0.000000000               0.000630660               0.000960693              -0.000576043               0.000116409               0.000281424               0.000397834               0.000000000               0.000000000               0.000000000               0.000000000               0.000596864               0.001244671              -0.000557290               0.000068239               0.000392140               0.000460379               0.000000000               0.000000000               0.000000000               0.000000000               0.000546923               0.001467820              -0.000508882               0.000021618               0.000482062               0.000503680               0.000000000               0.000000000               0.000000000               0.000000000               0.000495834               0.001651648              -0.000455245              -0.000020519               0.000557383               0.000536865               0.000000000               0.000000000               0.000000000               0.000000000               0.000449239               0.001805081              -0.000403558              -0.000057171               0.000620745               0.000563574               0.000000000               0.000000000               0.000000000               0.000000000               0.000408135               0.001935853              -0.000356040              -0.000088931               0.000674922               0.000585991               0.000000000               0.000000000               0.000000000               0.000000000               0.000377507               0.002053941              -0.000310974              -0.000115177               0.000723033               0.000607855               0.000000000               0.000000000               0.000000000               0.000000000               0.000351615               0.002161434              -0.000272514              -0.000138323               0.000766579               0.000628255               0.000000000               0.000000000               0.000000000               0.000000000               0.000320499               0.002251158              -0.000244446              -0.000161207               0.000804114               0.000642907               0.000000000               0.000000000               0.000000000               0.000000000               0.000292063               0.002338163              -0.000216832              -0.000182746               0.000840295               0.000657549               0.000000000               0.000000000               0.000000000               0.000000000               0.000276004               0.002434686              -0.000180112              -0.000200834               0.000878498               0.000677665               0.000000000               0.000000000               0.000000000               0.000000000               0.000266784               0.002534404              -0.000138881              -0.000216756               0.000917045               0.000700289               0.000000000               0.000000000               0.000000000               0.000000000               0.000257163               0.002630538              -0.000099781              -0.000232380               0.000954297               0.000721917               0.000000000               0.000000000               0.000000000               0.000000000               0.000236843               0.002712383              -0.000055232              -0.000250231               0.000987529               0.000737298               0.000000000               0.000000000               0.000000000               0.000000000               0.000213924               0.002743534              -0.000027580              -0.000262720               0.001002075               0.000739356               0.000000000               0.000000000               0.000000000               0.000000000               0.000325033               0.000170719              -0.000213760               0.000100547               0.000023390               0.000123937               0.000000000               0.000000000               0.000000000               0.000000000               0.000562970               0.000404032              -0.000328255               0.000160608               0.000081140               0.000241748               0.000000000               0.000000000               0.000000000               0.000000000               0.000680948               0.000725306              -0.000415778               0.000164691               0.000186869               0.000351560               0.000000000               0.000000000               0.000000000               0.000000000               0.000686075               0.001009294              -0.000415759               0.000131115               0.000292723               0.000423838               0.000000000               0.000000000               0.000000000               0.000000000               0.000647264               0.001248274              -0.000388823               0.000086689               0.000387191               0.000473880               0.000000000               0.000000000               0.000000000               0.000000000               0.000595406               0.001453532              -0.000354081               0.000041585               0.000470644               0.000512229               0.000000000               0.000000000               0.000000000               0.000000000               0.000541301               0.001633836              -0.000318508              -0.000001242               0.000545020               0.000543779               0.000000000               0.000000000               0.000000000               0.000000000               0.000490414               0.001790437              -0.000284828              -0.000039899               0.000610106               0.000570207               0.000000000               0.000000000               0.000000000               0.000000000               0.000448152               0.001931293              -0.000252220              -0.000073355               0.000668210               0.000594855               0.000000000               0.000000000               0.000000000               0.000000000               0.000416496               0.002060901              -0.000221453              -0.000101427               0.000720769               0.000619342               0.000000000               0.000000000               0.000000000               0.000000000               0.000382377               0.002169431              -0.000196224              -0.000127787               0.000765732               0.000637945               0.000000000               0.000000000               0.000000000               0.000000000               0.000348700               0.002268339              -0.000177359              -0.000152780               0.000807032               0.000654252               0.000000000               0.000000000               0.000000000               0.000000000               0.000331257               0.002369571              -0.000155323              -0.000171974               0.000847174               0.000675199               0.000000000               0.000000000               0.000000000               0.000000000               0.000329530               0.002476288              -0.000123549              -0.000185962               0.000887408               0.000701447               0.000000000               0.000000000               0.000000000               0.000000000               0.000327972               0.002586917              -0.000085662              -0.000200375               0.000929089               0.000728714               0.000000000               0.000000000               0.000000000               0.000000000               0.000328653               0.002691717              -0.000044937              -0.000213219               0.000968303               0.000755084               0.000000000               0.000000000               0.000000000               0.000000000               0.000326864               0.002738219              -0.000022872              -0.000219703               0.000985965               0.000766262               0.000000000               0.000000000               0.000000000               0.000000000               0.000232632               0.000091579              -0.000100117               0.000075789               0.000005263               0.000081052               0.000000000               0.000000000               0.000000000               0.000000000               0.000534040               0.000289253              -0.000165529               0.000164107               0.000041714               0.000205821               0.000000000               0.000000000               0.000000000               0.000000000               0.000710872               0.000572294              -0.000218093               0.000195038               0.000125750               0.000320788               0.000000000               0.000000000               0.000000000               0.000000000               0.000744041               0.000849765              -0.000222761               0.000172793               0.000225655               0.000398447               0.000000000               0.000000000               0.000000000               0.000000000               0.000717969               0.001096396              -0.000211488               0.000132187               0.000321399               0.000453587               0.000000000               0.000000000               0.000000000               0.000000000               0.000668761               0.001315210              -0.000194483               0.000086383               0.000409605               0.000495988               0.000000000               0.000000000               0.000000000               0.000000000               0.000612242               0.001511213              -0.000175821               0.000040689               0.000490170               0.000530858               0.000000000               0.000000000               0.000000000               0.000000000               0.000555377               0.001682611              -0.000158750              -0.000002060               0.000561551               0.000559491               0.000000000               0.000000000               0.000000000               0.000000000               0.000503593               0.001835502              -0.000142946              -0.000040590               0.000625358               0.000584768               0.000000000               0.000000000               0.000000000               0.000000000               0.000462553               0.001978032              -0.000124590              -0.000073797               0.000683936               0.000610140               0.000000000               0.000000000               0.000000000               0.000000000               0.000429209               0.002105793              -0.000107225              -0.000102271               0.000736014               0.000633744               0.000000000               0.000000000               0.000000000               0.000000000               0.000399800               0.002218386              -0.000099749              -0.000127373               0.000781912               0.000654539               0.000000000               0.000000000               0.000000000               0.000000000               0.000376140               0.002323416              -0.000094905              -0.000149374               0.000824256               0.000674881               0.000000000               0.000000000               0.000000000               0.000000000               0.000366651               0.002431217              -0.000073977              -0.000166407               0.000865867               0.000699459               0.000000000               0.000000000               0.000000000               0.000000000               0.000374514               0.002544396              -0.000046459              -0.000177606               0.000907326               0.000729719               0.000000000               0.000000000               0.000000000               0.000000000               0.000402292               0.002663723              -0.000025208              -0.000182105               0.000948600               0.000766495               0.000000000               0.000000000               0.000000000               0.000000000               0.000423461               0.002724592              -0.000014824              -0.000181776               0.000968780               0.000787005               0.000000000               0.000000000               0.000000000               0.000000000               0.000199567               0.000065557               0.000000000               0.000066642              -0.000000362               0.000066280               0.000000000               0.000000000               0.000000000               0.000000000               0.000523054               0.000249445               0.000000000               0.000164963               0.000028160               0.000193123               0.000000000               0.000000000               0.000000000               0.000000000               0.000720051               0.000518384              -0.000000000               0.000205219               0.000104386               0.000309606               0.000000000               0.000000000               0.000000000               0.000000000               0.000763018               0.000793628               0.000000000               0.000186926               0.000202231               0.000389158               0.000000000               0.000000000               0.000000000               0.000000000               0.000741683               0.001041194               0.000000000               0.000147980               0.000297734               0.000445715               0.000000000               0.000000000               0.000000000               0.000000000               0.000694422               0.001262272              -0.000000000               0.000102623               0.000386546               0.000489169               0.000000000               0.000000000               0.000000000               0.000000000               0.000639754               0.001465313               0.000000000               0.000056743               0.000469518               0.000526262               0.000000000               0.000000000               0.000000000               0.000000000               0.000583842               0.001645279               0.000000000               0.000013281               0.000543994               0.000557275               0.000000000               0.000000000               0.000000000               0.000000000               0.000526627               0.001799275              -0.000000000              -0.000027424               0.000608894               0.000581470               0.000000000               0.000000000               0.000000000               0.000000000               0.000478355               0.001944336              -0.000000000              -0.000063659               0.000669325               0.000605666               0.000000000               0.000000000               0.000000000               0.000000000               0.000447567               0.002083707               0.000000000              -0.000092625               0.000725437               0.000632812               0.000000000               0.000000000               0.000000000               0.000000000               0.000423694               0.002203744              -0.000000000              -0.000116583               0.000773435               0.000656852               0.000000000               0.000000000               0.000000000               0.000000000               0.000394026               0.002310070              -0.000000000              -0.000140999               0.000817015               0.000676017               0.000000000               0.000000000               0.000000000               0.000000000               0.000374342               0.002414003              -0.000000000              -0.000161372               0.000858450               0.000697078               0.000000000               0.000000000               0.000000000               0.000000000               0.000389884               0.002522492              -0.000000000              -0.000169105               0.000897191               0.000728086               0.000000000               0.000000000               0.000000000               0.000000000               0.000430933               0.002647247              -0.000000000              -0.000169306               0.000938842               0.000769536               0.000000000               0.000000000               0.000000000               0.000000000               0.000459932               0.002715557              -0.000000000              -0.000166970               0.000960833               0.000793864               0.000000000               0.000000000               0.000000000               0.000000000               0.000000000               0.000000000               0.000000000               0.000000000               0.000000000               0.000000000               0.000000000               0.000000000               0.000000000               0.000000000               0.000000000               0.000000000               0.000000000               0.000000000               0.000000000               0.000000000               0.000000000               0.000000000               0.000000000               0.000000000               0.000000000               0.000000000               0.000000000               0.000000000               0.000000000               0.000000000               0.000000000               0.000000000               0.000000000               0.000000000               0.000000000               0.000000000               0.000000000               0.000000000               0.000000000               0.000000000               0.000000000               0.000000000               0.000000000               0.000000000               0.000000000               0.000000000               0.000000000               0.000000000               0.000000000               0.000000000               0.000000000               0.000000000               0.000000000               0.000000000               0.000000000               0.000000000               0.000000000               0.000000000               0.000000000               0.000000000               0.000000000               0.000000000               0.000000000               0.000000000               0.000000000               0.000000000               0.000000000               0.000000000               0.000000000               0.000000000               0.000000000               0.000000000               0.000000000               0.000000000               0.000000000               0.000000000               0.000000000               0.000000000               0.000000000               0.000000000               0.000000000               0.000000000               0.000000000               0.000000000               0.000000000               0.000000000               0.000000000               0.000000000               0.000000000               0.000000000               0.000000000               0.000000000               0.000000000               0.000000000               0.000000000               0.000000000               0.000000000               0.000000000               0.000000000               0.000000000               0.000000000               0.000000000               0.000000000               0.000000000               0.000000000               0.000000000               0.000000000               0.000000000               0.000000000               0.000000000               0.000000000               0.000000000               0.000000000               0.000000000               0.000000000               0.000000000               0.000000000               0.000000000               0.000000000               0.000000000               0.000000000               0.000000000               0.000000000               0.000000000               0.000000000               0.000000000               0.000000000               0.000000000               0.000000000               0.000000000               0.000000000               0.000000000               0.000000000               0.000000000               0.000000000               0.000000000               0.000000000               0.000000000               0.000000000               0.000000000               0.000000000               0.000000000               0.000000000               0.000000000               0.000000000               0.000000000               0.000000000               0.000000000               0.000000000               0.000000000               0.000000000               0.000000000               0.000000000               0.000000000               0.000000000               0.000000000               0.000000000               0.000000000               0.000000000               0.000000000               0.000000000               0.000000000               0.000000000               0.000000000               0.000000000               0.000000000               0.000000000               0.000000000               0.000000000               0.000000000               0.000000000               0.000000000               0.000000000               0.000000000               0.000443664               0.004812277               0.000379657              -0.000435160               0.001749130               0.001313970               0.000000000               0.000000000               0.000000000               0.000000000               0.000480200               0.004022795               0.000252159              -0.000322774               0.001448509               0.001125736               0.000000000               0.000000000               0.000000000               0.000000000               0.000656243               0.003391949               0.000117795              -0.000177902               0.001189939               0.001012037               0.000000000               0.000000000               0.000000000               0.000000000               0.000680710               0.003045257               0.000052432              -0.000125391               0.001056873               0.000931482               0.000000000               0.000000000               0.000000000               0.000000000               0.000648882               0.002843169               0.000020071              -0.000112065               0.000985069               0.000873003               0.000000000               0.000000000               0.000000000               0.000000000               0.000598346               0.002723087               0.000004360              -0.000116006               0.000946355               0.000830349               0.000000000               0.000000000               0.000000000               0.000000000               0.000536503               0.002650888              -0.000003943              -0.000130172               0.000927011               0.000796839               0.000000000               0.000000000               0.000000000               0.000000000               0.000470591               0.002606602              -0.000007922              -0.000149353               0.000918643               0.000769290               0.000000000               0.000000000               0.000000000               0.000000000               0.000406120               0.002582740              -0.000008543              -0.000170547               0.000917754               0.000747207               0.000000000               0.000000000               0.000000000               0.000000000               0.000346164               0.002572677              -0.000007353              -0.000191773               0.000921475               0.000729702               0.000000000               0.000000000               0.000000000               0.000000000               0.000290424               0.002572156              -0.000006017              -0.000212610               0.000928247               0.000715637               0.000000000               0.000000000               0.000000000               0.000000000               0.000236356               0.002577690              -0.000005999              -0.000233577               0.000937080               0.000703503               0.000000000               0.000000000               0.000000000               0.000000000               0.000185023               0.002589893              -0.000005577              -0.000254352               0.000948073               0.000693721               0.000000000               0.000000000               0.000000000               0.000000000               0.000136592               0.002606619              -0.000005905              -0.000274605               0.000960399               0.000685795               0.000000000               0.000000000               0.000000000               0.000000000               0.000090107               0.002629351              -0.000009711              -0.000294878               0.000974734               0.000679856               0.000000000               0.000000000               0.000000000               0.000000000               0.000043871               0.002656216              -0.000008550              -0.000315574               0.000990588               0.000675014               0.000000000               0.000000000               0.000000000               0.000000000               0.000023675               0.002676884              -0.000004064              -0.000325732               0.001000863               0.000675131               0.000000000               0.000000000               0.000000000               0.000000000               0.000529605               0.004597584               0.000721502              -0.000376096               0.001657878               0.001281782               0.000000000               0.000000000               0.000000000               0.000000000               0.000515451               0.003866485               0.000479735              -0.000290016               0.001385487               0.001095471               0.000000000               0.000000000               0.000000000               0.000000000               0.000637370               0.003304408               0.000226733              -0.000174037               0.001159471               0.000985434               0.000000000               0.000000000               0.000000000               0.000000000               0.000638437               0.002996163               0.000105986              -0.000135106               0.001043747               0.000908640               0.000000000               0.000000000               0.000000000               0.000000000               0.000596082               0.002815423               0.000046441              -0.000128397               0.000981264               0.000852867               0.000000000               0.000000000               0.000000000               0.000000000               0.000541707               0.002708812               0.000016498              -0.000135461               0.000948082               0.000812621               0.000000000               0.000000000               0.000000000               0.000000000               0.000481909               0.002644119               0.000002949              -0.000149799               0.000931297               0.000781499               0.000000000               0.000000000               0.000000000               0.000000000               0.000420007               0.002603530              -0.000002479              -0.000167938               0.000923814               0.000755876               0.000000000               0.000000000               0.000000000               0.000000000               0.000359763               0.002580539              -0.000004422              -0.000187656               0.000922723               0.000735067               0.000000000               0.000000000               0.000000000               0.000000000               0.000305840               0.002570761              -0.000003578              -0.000206655               0.000925797               0.000719142               0.000000000               0.000000000               0.000000000               0.000000000               0.000255241               0.002569273              -0.000001352              -0.000225443               0.000931563               0.000706120               0.000000000               0.000000000               0.000000000               0.000000000               0.000205006               0.002573729              -0.000001568              -0.000244838               0.000939514               0.000694676               0.000000000               0.000000000               0.000000000               0.000000000               0.000158621               0.002585935              -0.000002294              -0.000263758               0.000949889               0.000686131               0.000000000               0.000000000               0.000000000               0.000000000               0.000114994               0.002603937              -0.000004045              -0.000282369               0.000962093               0.000679724               0.000000000               0.000000000               0.000000000               0.000000000               0.000074126               0.002625965              -0.000010123              -0.000300448               0.000975462               0.000675014               0.000000000               0.000000000               0.000000000               0.000000000               0.000035882               0.002651167              -0.000010139              -0.000317939               0.000989693               0.000671754               0.000000000               0.000000000               0.000000000               0.000000000               0.000020666               0.002672529              -0.000005359              -0.000326316               0.000999606               0.000673290               0.000000000               0.000000000               0.000000000               0.000000000               0.000645787               0.004259048               0.000997215              -0.000290211               0.001516405               0.001226194               0.000000000               0.000000000               0.000000000               0.000000000               0.000557636               0.003622835               0.000663848              -0.000243741               0.001288846               0.001045106               0.000000000               0.000000000               0.000000000               0.000000000               0.000601383               0.003169227               0.000318914              -0.000170635               0.001113277               0.000942642               0.000000000               0.000000000               0.000000000               0.000000000               0.000571467               0.002918369               0.000160121              -0.000150496               0.001022945               0.000872450               0.000000000               0.000000000               0.000000000               0.000000000               0.000520441               0.002771094               0.000083423              -0.000151221               0.000974096               0.000822875               0.000000000               0.000000000               0.000000000               0.000000000               0.000464672               0.002682230               0.000045422              -0.000161026               0.000947743               0.000786717               0.000000000               0.000000000               0.000000000               0.000000000               0.000406502               0.002624119               0.000027222              -0.000175576               0.000933223               0.000757647               0.000000000               0.000000000               0.000000000               0.000000000               0.000351823               0.002589538               0.000018837              -0.000191758               0.000927090               0.000735332               0.000000000               0.000000000               0.000000000               0.000000000               0.000299812               0.002569861               0.000015314              -0.000208803               0.000926213               0.000717410               0.000000000               0.000000000               0.000000000               0.000000000               0.000251267               0.002561006               0.000015614              -0.000225900               0.000928960               0.000703060               0.000000000               0.000000000               0.000000000               0.000000000               0.000208037               0.002559972               0.000017174              -0.000241982               0.000933976               0.000691994               0.000000000               0.000000000               0.000000000               0.000000000               0.000167141               0.002565957               0.000014130              -0.000258066               0.000941333               0.000683266               0.000000000               0.000000000               0.000000000               0.000000000               0.000127699               0.002579168               0.000009153              -0.000274508               0.000951217               0.000676709               0.000000000               0.000000000               0.000000000               0.000000000               0.000089544               0.002598778               0.000005907              -0.000291268               0.000963340               0.000672072               0.000000000               0.000000000               0.000000000               0.000000000               0.000054201               0.002617838               0.000000022              -0.000306903               0.000974905               0.000668002               0.000000000               0.000000000               0.000000000               0.000000000               0.000025029               0.002635293              -0.000003261              -0.000320025               0.000985097               0.000665072               0.000000000               0.000000000               0.000000000               0.000000000               0.000014951               0.002650436              -0.000001124              -0.000325697               0.000992036               0.000666339               0.000000000               0.000000000               0.000000000               0.000000000               0.000768818               0.003830284               0.001188796              -0.000190479               0.001340241               0.001149762               0.000000000               0.000000000               0.000000000               0.000000000               0.000596194               0.003325231               0.000795441              -0.000192081               0.001172426               0.000980345               0.000000000               0.000000000               0.000000000               0.000000000               0.000550826               0.003009717               0.000394913              -0.000169655               0.001059780               0.000890126               0.000000000               0.000000000               0.000000000               0.000000000               0.000489568               0.002825286               0.000217083              -0.000169572               0.000998277               0.000828704               0.000000000               0.000000000               0.000000000               0.000000000               0.000432490               0.002713773               0.000130972              -0.000177038               0.000963595               0.000786557               0.000000000               0.000000000               0.000000000               0.000000000               0.000380372               0.002641902               0.000088399              -0.000187598               0.000943158               0.000755560               0.000000000               0.000000000               0.000000000               0.000000000               0.000330364               0.002594327               0.000066847              -0.000200404               0.000931568               0.000731164               0.000000000               0.000000000               0.000000000               0.000000000               0.000285309               0.002566548               0.000055070              -0.000213827               0.000926783               0.000712956               0.000000000               0.000000000               0.000000000               0.000000000               0.000243036               0.002551512               0.000048385              -0.000227800               0.000926429               0.000698629               0.000000000               0.000000000               0.000000000               0.000000000               0.000203370               0.002545385               0.000044472              -0.000241909               0.000929089               0.000687181               0.000000000               0.000000000               0.000000000               0.000000000               0.000168101               0.002548019               0.000041496              -0.000255464               0.000934486               0.000679022               0.000000000               0.000000000               0.000000000               0.000000000               0.000134840               0.002558078               0.000034433              -0.000269194               0.000942415               0.000673221               0.000000000               0.000000000               0.000000000               0.000000000               0.000100230               0.002572373               0.000024269              -0.000283960               0.000952102               0.000668143               0.000000000               0.000000000               0.000000000               0.000000000               0.000066417               0.002587820               0.000017985              -0.000298570               0.000962122               0.000663551               0.000000000               0.000000000               0.000000000               0.000000000               0.000039014               0.002597174               0.000013706              -0.000310016               0.000969055               0.000659039               0.000000000               0.000000000               0.000000000               0.000000000               0.000018244               0.002599536               0.000006442              -0.000318100               0.000972537               0.000654437               0.000000000               0.000000000               0.000000000               0.000000000               0.000010750               0.002603444               0.000002894              -0.000321398               0.000974939               0.000653540               0.000000000               0.000000000               0.000000000               0.000000000               0.000876667               0.003354361               0.001287630              -0.000090546               0.001148291               0.001057745               0.000000000               0.000000000               0.000000000               0.000000000               0.000622413               0.003005789               0.000875650              -0.000142319               0.001049359               0.000907040               0.000000000               0.000000000               0.000000000               0.000000000               0.000490269               0.002840699               0.000459809              -0.000171236               0.001003969               0.000832733               0.000000000               0.000000000               0.000000000               0.000000000               0.000408170               0.002725524               0.000277558              -0.000187626               0.000971041               0.000783414               0.000000000               0.000000000               0.000000000               0.000000000               0.000350618               0.002648759               0.000187689              -0.000199613               0.000949448               0.000749836               0.000000000               0.000000000               0.000000000               0.000000000               0.000304882               0.002594681               0.000141995              -0.000210004               0.000934886               0.000724883               0.000000000               0.000000000               0.000000000               0.000000000               0.000264977               0.002559670               0.000115714              -0.000220592               0.000926745               0.000706153               0.000000000               0.000000000               0.000000000               0.000000000               0.000230779               0.002540861               0.000098330              -0.000231065               0.000923967               0.000692902               0.000000000               0.000000000               0.000000000               0.000000000               0.000201080               0.002531158               0.000085053              -0.000240989               0.000924041               0.000683052               0.000000000               0.000000000               0.000000000               0.000000000               0.000170223               0.002527761               0.000073322              -0.000252136               0.000926624               0.000674488               0.000000000               0.000000000               0.000000000               0.000000000               0.000138942               0.002533147               0.000062844              -0.000264540               0.000932554               0.000668014               0.000000000               0.000000000               0.000000000               0.000000000               0.000107092               0.002544951               0.000050322              -0.000277959               0.000940962               0.000663003               0.000000000               0.000000000               0.000000000               0.000000000               0.000077895               0.002556640               0.000034914              -0.000290369               0.000948994               0.000658626               0.000000000               0.000000000               0.000000000               0.000000000               0.000054592               0.002565612               0.000026527              -0.000300229               0.000955272               0.000655043               0.000000000               0.000000000               0.000000000               0.000000000               0.000034466               0.002565396               0.000024190              -0.000307749               0.000957706               0.000649957               0.000000000               0.000000000               0.000000000               0.000000000               0.000017338               0.002561566               0.000014397              -0.000313693               0.000958411               0.000644718               0.000000000               0.000000000               0.000000000               0.000000000               0.000011157               0.002562542               0.000007340              -0.000316133               0.000959550               0.000643417               0.000000000               0.000000000               0.000000000               0.000000000               0.000946941               0.002866539               0.001302020              -0.000003216               0.000956575               0.000953359               0.000000000               0.000000000               0.000000000               0.000000000               0.000631563               0.002684266               0.000913045              -0.000098698               0.000927646               0.000828948               0.000000000               0.000000000               0.000000000               0.000000000               0.000428255               0.002670024               0.000515672              -0.000173157               0.000947718               0.000774561               0.000000000               0.000000000               0.000000000               0.000000000               0.000337408               0.002623285               0.000339352              -0.000201382               0.000941547               0.000740165               0.000000000               0.000000000               0.000000000               0.000000000               0.000284888               0.002579337               0.000248508              -0.000215584               0.000931632               0.000716048               0.000000000               0.000000000               0.000000000               0.000000000               0.000246912               0.002544794               0.000198331              -0.000225507               0.000923425               0.000697918               0.000000000               0.000000000               0.000000000               0.000000000               0.000217760               0.002523449               0.000163876              -0.000233771               0.000919065               0.000685294               0.000000000               0.000000000               0.000000000               0.000000000               0.000193409               0.002511611               0.000135984              -0.000241422               0.000917669               0.000676247               0.000000000               0.000000000               0.000000000               0.000000000               0.000171478               0.002506473               0.000114057              -0.000249004               0.000918484               0.000669480               0.000000000               0.000000000               0.000000000               0.000000000               0.000143671               0.002506658               0.000093514              -0.000259455               0.000922029               0.000662574               0.000000000               0.000000000               0.000000000               0.000000000               0.000113811               0.002516320               0.000073998              -0.000271860               0.000929385               0.000657525               0.000000000               0.000000000               0.000000000               0.000000000               0.000085135               0.002530608               0.000055679              -0.000284400               0.000938327               0.000653928               0.000000000               0.000000000               0.000000000               0.000000000               0.000062497               0.002543728               0.000037223              -0.000294529               0.000946077               0.000651548               0.000000000               0.000000000               0.000000000               0.000000000               0.000049086               0.002551018               0.000028088              -0.000300469               0.000950487               0.000650018               0.000000000               0.000000000               0.000000000               0.000000000               0.000036513               0.002554044               0.000027218              -0.000305562               0.000953193               0.000647631               0.000000000               0.000000000               0.000000000               0.000000000               0.000019078               0.002560686               0.000017191              -0.000312931               0.000957864               0.000644933               0.000000000               0.000000000               0.000000000               0.000000000               0.000012774               0.002569960               0.000010582              -0.000316454               0.000962129               0.000645675               0.000000000               0.000000000               0.000000000               0.000000000               0.000975000               0.002393443               0.001246161               0.000066442               0.000775658               0.000842101               0.000000000               0.000000000               0.000000000               0.000000000               0.000625339               0.002379668               0.000915064              -0.000062957               0.000814200               0.000751243               0.000000000               0.000000000               0.000000000               0.000000000               0.000376153               0.002506712               0.000564835              -0.000172281               0.000892989               0.000720708               0.000000000               0.000000000               0.000000000               0.000000000               0.000285541               0.002519572               0.000398526              -0.000207868               0.000909138               0.000701270               0.000000000               0.000000000               0.000000000               0.000000000               0.000238226               0.002506072               0.000305344              -0.000223924               0.000909990               0.000686066               0.000000000               0.000000000               0.000000000               0.000000000               0.000208719               0.002491134               0.000246402              -0.000233121               0.000908077               0.000674955               0.000000000               0.000000000               0.000000000               0.000000000               0.000189006               0.002484033               0.000201122              -0.000239626               0.000907878               0.000668252               0.000000000               0.000000000               0.000000000               0.000000000               0.000169413               0.002479869               0.000163277              -0.000246453               0.000908766               0.000662313               0.000000000               0.000000000               0.000000000               0.000000000               0.000148510               0.002481620               0.000132409              -0.000254511               0.000912035               0.000657525               0.000000000               0.000000000               0.000000000               0.000000000               0.000123399               0.002492563               0.000103371              -0.000265295               0.000919278               0.000653983               0.000000000               0.000000000               0.000000000               0.000000000               0.000098274               0.002511446               0.000075209              -0.000277077               0.000929499               0.000652422               0.000000000               0.000000000               0.000000000               0.000000000               0.000077095               0.002532749               0.000051575              -0.000287682               0.000940135               0.000652453               0.000000000               0.000000000               0.000000000               0.000000000               0.000062995               0.002551236               0.000034429              -0.000295281               0.000948830               0.000653550               0.000000000               0.000000000               0.000000000               0.000000000               0.000054705               0.002564537               0.000028046              -0.000300052               0.000954855               0.000654803               0.000000000               0.000000000               0.000000000               0.000000000               0.000042307               0.002583867               0.000027012              -0.000307118               0.000963653               0.000656535               0.000000000               0.000000000               0.000000000               0.000000000               0.000022815               0.002609533               0.000017878              -0.000317635               0.000975714               0.000658079               0.000000000               0.000000000               0.000000000               0.000000000               0.000014842               0.002628400               0.000012790              -0.000322983               0.000983786               0.000660802               0.000000000               0.000000000               0.000000000               0.000000000               0.000977391               0.001972496               0.001142355               0.000119957               0.000617506               0.000737463               0.000000000               0.000000000               0.000000000               0.000000000               0.000625647               0.002106976               0.000899717              -0.000028755               0.000711903               0.000683148               0.000000000               0.000000000               0.000000000               0.000000000               0.000354255               0.002358253               0.000621397              -0.000161936               0.000840055               0.000678119               0.000000000               0.000000000               0.000000000               0.000000000               0.000263138               0.002425730               0.000461922              -0.000204539               0.000876748               0.000672209               0.000000000               0.000000000               0.000000000               0.000000000               0.000218376               0.002442997               0.000362695              -0.000223483               0.000888819               0.000665335               0.000000000               0.000000000               0.000000000               0.000000000               0.000192635               0.002449159               0.000293195              -0.000233906               0.000894347               0.000660441               0.000000000               0.000000000               0.000000000               0.000000000               0.000178750               0.002457135               0.000238423              -0.000240110               0.000899073               0.000658963               0.000000000               0.000000000               0.000000000               0.000000000               0.000164755               0.002464354               0.000193035              -0.000246261               0.000903530               0.000657269               0.000000000               0.000000000               0.000000000               0.000000000               0.000145199               0.002477495               0.000152740              -0.000255236               0.000910902               0.000655666               0.000000000               0.000000000               0.000000000               0.000000000               0.000121371               0.002501493               0.000116251              -0.000267172               0.000922880               0.000655708               0.000000000               0.000000000               0.000000000               0.000000000               0.000100588               0.002531252               0.000084089              -0.000278685               0.000936637               0.000657952               0.000000000               0.000000000               0.000000000               0.000000000               0.000085141               0.002557746               0.000059426              -0.000287790               0.000948503               0.000660714               0.000000000               0.000000000               0.000000000               0.000000000               0.000076336               0.002576795               0.000041993              -0.000293473               0.000956747               0.000663275               0.000000000               0.000000000               0.000000000               0.000000000               0.000069766               0.002600051               0.000030328              -0.000298843               0.000966289               0.000667446               0.000000000               0.000000000               0.000000000               0.000000000               0.000056462               0.002636498               0.000023022              -0.000308388               0.000981620               0.000673232               0.000000000               0.000000000               0.000000000               0.000000000               0.000038495               0.002681426               0.000014828              -0.000320742               0.001000714               0.000679972               0.000000000               0.000000000               0.000000000               0.000000000               0.000026161               0.002704912               0.000009000              -0.000328303               0.001011063               0.000682760               0.000000000               0.000000000               0.000000000               0.000000000               0.000947521               0.001557664               0.001014628               0.000160610               0.000465679               0.000626289               0.000000000               0.000000000               0.000000000               0.000000000               0.000641166               0.001784505               0.000876865               0.000017373               0.000589038               0.000606411               0.000000000               0.000000000               0.000000000               0.000000000               0.000373785               0.002125809               0.000688668              -0.000125557               0.000750448               0.000624891               0.000000000               0.000000000               0.000000000               0.000000000               0.000275967               0.002258518               0.000540373              -0.000178827               0.000812441               0.000633614               0.000000000               0.000000000               0.000000000               0.000000000               0.000228972               0.002319482               0.000434692              -0.000204071               0.000841176               0.000637106               0.000000000               0.000000000               0.000000000               0.000000000               0.000199418               0.002356482               0.000355910              -0.000219778               0.000858745               0.000638967               0.000000000               0.000000000               0.000000000               0.000000000               0.000184226               0.002384809               0.000293885              -0.000229016               0.000871267               0.000642251               0.000000000               0.000000000               0.000000000               0.000000000               0.000172283               0.002408705               0.000241039              -0.000236482               0.000881721               0.000645239               0.000000000               0.000000000               0.000000000               0.000000000               0.000156143               0.002435449               0.000192738              -0.000245877               0.000893767               0.000647890               0.000000000               0.000000000               0.000000000               0.000000000               0.000137081               0.002469337               0.000153213              -0.000257261               0.000908858               0.000651597               0.000000000               0.000000000               0.000000000               0.000000000               0.000119907               0.002509815               0.000121044              -0.000268761               0.000926184               0.000657423               0.000000000               0.000000000               0.000000000               0.000000000               0.000107312               0.002548771               0.000095347              -0.000278354               0.000942366               0.000664013               0.000000000               0.000000000               0.000000000               0.000000000               0.000099048               0.002585988               0.000071649              -0.000286105               0.000957356               0.000671251               0.000000000               0.000000000               0.000000000               0.000000000               0.000092493               0.002625441               0.000047475              -0.000293495               0.000972970               0.000679475               0.000000000               0.000000000               0.000000000               0.000000000               0.000079935               0.002668548               0.000028277              -0.000303592               0.000990704               0.000687112               0.000000000               0.000000000               0.000000000               0.000000000               0.000062492               0.002720656               0.000013211              -0.000316647               0.001012425               0.000695778               0.000000000               0.000000000               0.000000000               0.000000000               0.000045067               0.002742138               0.000002596              -0.000325866               0.001022659               0.000696793               0.000000000               0.000000000               0.000000000               0.000000000               0.000874020               0.001164479               0.000863820               0.000182195               0.000327423               0.000509619               0.000000000               0.000000000               0.000000000               0.000000000               0.000656773               0.001456123               0.000829631               0.000064273               0.000463945               0.000528218               0.000000000               0.000000000               0.000000000               0.000000000               0.000425903               0.001857465               0.000737280              -0.000072470               0.000643305               0.000570835               0.000000000               0.000000000               0.000000000               0.000000000               0.000324827               0.002053692               0.000615392              -0.000134902               0.000729524               0.000594623               0.000000000               0.000000000               0.000000000               0.000000000               0.000270282               0.002165177               0.000509850              -0.000169291               0.000778149               0.000608858               0.000000000               0.000000000               0.000000000               0.000000000               0.000233965               0.002237757               0.000426432              -0.000191982               0.000809906               0.000617923               0.000000000               0.000000000               0.000000000               0.000000000               0.000211969               0.002292416               0.000359919              -0.000207063               0.000833152               0.000626089               0.000000000               0.000000000               0.000000000               0.000000000               0.000198876               0.002339255               0.000299927              -0.000217828               0.000852353               0.000634525               0.000000000               0.000000000               0.000000000               0.000000000               0.000185294               0.002381732               0.000247205              -0.000228231               0.000869980               0.000641749               0.000000000               0.000000000               0.000000000               0.000000000               0.000170533               0.002424268               0.000206182              -0.000239083               0.000887776               0.000648693               0.000000000               0.000000000               0.000000000               0.000000000               0.000157363               0.002472088               0.000173847              -0.000250000               0.000907354               0.000657355               0.000000000               0.000000000               0.000000000               0.000000000               0.000144809               0.002523398               0.000144554              -0.000261121               0.000928165               0.000667044               0.000000000               0.000000000               0.000000000               0.000000000               0.000131335               0.002578168               0.000112872              -0.000273020               0.000950387               0.000677368               0.000000000               0.000000000               0.000000000               0.000000000               0.000119145               0.002633094               0.000078447              -0.000284457               0.000972508               0.000688052               0.000000000               0.000000000               0.000000000               0.000000000               0.000106737               0.002684591               0.000047331              -0.000295547               0.000993370               0.000697824               0.000000000               0.000000000               0.000000000               0.000000000               0.000086913               0.002733442               0.000021649              -0.000309087               0.001014167               0.000705080               0.000000000               0.000000000               0.000000000               0.000000000               0.000064641               0.002748848               0.000005830              -0.000319365               0.001022729               0.000703364               0.000000000               0.000000000               0.000000000               0.000000000               0.000761320               0.000816953               0.000691857               0.000183374               0.000211190               0.000394564               0.000000000               0.000000000               0.000000000               0.000000000               0.000653572               0.001135145               0.000744300               0.000103195               0.000343979               0.000447174               0.000000000               0.000000000               0.000000000               0.000000000               0.000492560               0.001557126               0.000739059              -0.000009932               0.000522347               0.000512416               0.000000000               0.000000000               0.000000000               0.000000000               0.000402534               0.001802826               0.000652572              -0.000074404               0.000625737               0.000551333               0.000000000               0.000000000               0.000000000               0.000000000               0.000341890               0.001959800               0.000559430              -0.000116767               0.000692182               0.000575416               0.000000000               0.000000000               0.000000000               0.000000000               0.000300275               0.002072644               0.000478228              -0.000146477               0.000739700               0.000593223               0.000000000               0.000000000               0.000000000               0.000000000               0.000268294               0.002160601               0.000410823              -0.000169465               0.000776681               0.000607217               0.000000000               0.000000000               0.000000000               0.000000000               0.000247802               0.002232711               0.000348844              -0.000186163               0.000806284               0.000620121               0.000000000               0.000000000               0.000000000               0.000000000               0.000233799               0.002295642               0.000293791              -0.000199280               0.000831633               0.000632353               0.000000000               0.000000000               0.000000000               0.000000000               0.000217825               0.002351851               0.000252795              -0.000212297               0.000854708               0.000642412               0.000000000               0.000000000               0.000000000               0.000000000               0.000204024               0.002409661               0.000220871              -0.000224698               0.000878112               0.000653414               0.000000000               0.000000000               0.000000000               0.000000000               0.000191267               0.002474141               0.000187562              -0.000237542               0.000903886               0.000666344               0.000000000               0.000000000               0.000000000               0.000000000               0.000176825               0.002547985               0.000149425              -0.000252188               0.000933383               0.000681195               0.000000000               0.000000000               0.000000000               0.000000000               0.000158522               0.002621298               0.000109628              -0.000268216               0.000963162               0.000694947               0.000000000               0.000000000               0.000000000               0.000000000               0.000138328               0.002687356               0.000071484              -0.000284046               0.000990458               0.000706412               0.000000000               0.000000000               0.000000000               0.000000000               0.000114714               0.002740553               0.000034525              -0.000299551               0.001013359               0.000713808               0.000000000               0.000000000               0.000000000               0.000000000               0.000088813               0.002753763               0.000012158              -0.000310915               0.001021550               0.000710635               0.000000000               0.000000000               0.000000000               0.000000000               0.000618602               0.000531808               0.000516038               0.000165498               0.000122101               0.000287599               0.000000000               0.000000000               0.000000000               0.000000000               0.000634938               0.000840696               0.000626279               0.000133013               0.000235891               0.000368904               0.000000000               0.000000000               0.000000000               0.000000000               0.000564548               0.001248266               0.000686235               0.000055671               0.000397527               0.000453198               0.000000000               0.000000000               0.000000000               0.000000000               0.000497476               0.001522902               0.000635936              -0.000003810               0.000508899               0.000505089               0.000000000               0.000000000               0.000000000               0.000000000               0.000439212               0.001717097               0.000563998              -0.000049933               0.000589004               0.000539071               0.000000000               0.000000000               0.000000000               0.000000000               0.000391975               0.001869441               0.000493743              -0.000086690               0.000652037               0.000565347               0.000000000               0.000000000               0.000000000               0.000000000               0.000352853               0.001992020               0.000430667              -0.000116682               0.000702894               0.000586212               0.000000000               0.000000000               0.000000000               0.000000000               0.000321212               0.002091800               0.000372720              -0.000141020               0.000744266               0.000603246               0.000000000               0.000000000               0.000000000               0.000000000               0.000301664               0.002181550               0.000319864              -0.000159569               0.000780366               0.000620796               0.000000000               0.000000000               0.000000000               0.000000000               0.000281598               0.002259363               0.000279549              -0.000176821               0.000812054               0.000635233               0.000000000               0.000000000               0.000000000               0.000000000               0.000258180               0.002330646               0.000249124              -0.000194513               0.000841712               0.000647199               0.000000000               0.000000000               0.000000000               0.000000000               0.000240361               0.002409325               0.000215944              -0.000211030               0.000873444               0.000662414               0.000000000               0.000000000               0.000000000               0.000000000               0.000225890               0.002497195               0.000174849              -0.000227440               0.000908203               0.000680763               0.000000000               0.000000000               0.000000000               0.000000000               0.000208430               0.002585807               0.000130214              -0.000245064               0.000943615               0.000698551               0.000000000               0.000000000               0.000000000               0.000000000               0.000187038               0.002667536               0.000089940              -0.000263302               0.000976937               0.000713635               0.000000000               0.000000000               0.000000000               0.000000000               0.000161022               0.002730769               0.000049148              -0.000280962               0.001003901               0.000722939               0.000000000               0.000000000               0.000000000               0.000000000               0.000134538               0.002749410               0.000023104              -0.000293224               0.001014202               0.000720978               0.000000000               0.000000000               0.000000000               0.000000000               0.000462746               0.000314831               0.000353791               0.000134174               0.000060217               0.000194392               0.000000000               0.000000000               0.000000000               0.000000000               0.000601770               0.000591918               0.000484904               0.000151672               0.000146746               0.000298418               0.000000000               0.000000000               0.000000000               0.000000000               0.000630660               0.000960693               0.000576043               0.000116409               0.000281424               0.000397834               0.000000000               0.000000000               0.000000000               0.000000000               0.000596864               0.001244671               0.000557290               0.000068239               0.000392140               0.000460379               0.000000000               0.000000000               0.000000000               0.000000000               0.000546923               0.001467820               0.000508882               0.000021618               0.000482062               0.000503680               0.000000000               0.000000000               0.000000000               0.000000000               0.000495834               0.001651648               0.000455245              -0.000020519               0.000557383               0.000536865               0.000000000               0.000000000               0.000000000               0.000000000               0.000449239               0.001805081               0.000403558              -0.000057171               0.000620745               0.000563574               0.000000000               0.000000000               0.000000000               0.000000000               0.000408135               0.001935853               0.000356040              -0.000088931               0.000674922               0.000585991               0.000000000               0.000000000               0.000000000               0.000000000               0.000377507               0.002053941               0.000310974              -0.000115177               0.000723033               0.000607855               0.000000000               0.000000000               0.000000000               0.000000000               0.000351615               0.002161434               0.000272514              -0.000138323               0.000766579               0.000628255               0.000000000               0.000000000               0.000000000               0.000000000               0.000320499               0.002251158               0.000244446              -0.000161207               0.000804114               0.000642907               0.000000000               0.000000000               0.000000000               0.000000000               0.000292063               0.002338163               0.000216832              -0.000182746               0.000840295               0.000657549               0.000000000               0.000000000               0.000000000               0.000000000               0.000276004               0.002434686               0.000180112              -0.000200834               0.000878498               0.000677665               0.000000000               0.000000000               0.000000000               0.000000000               0.000266784               0.002534404               0.000138881              -0.000216756               0.000917045               0.000700289               0.000000000               0.000000000               0.000000000               0.000000000               0.000257163               0.002630538               0.000099781              -0.000232380               0.000954297               0.000721917               0.000000000               0.000000000               0.000000000               0.000000000               0.000236843               0.002712383               0.000055232              -0.000250231               0.000987529               0.000737298               0.000000000               0.000000000               0.000000000               0.000000000               0.000213924               0.002743534               0.000027580              -0.000262720               0.001002075               0.000739356               0.000000000               0.000000000               0.000000000               0.000000000               0.000325033               0.000170719               0.000213760               0.000100547               0.000023390               0.000123937               0.000000000               0.000000000               0.000000000               0.000000000               0.000562970               0.000404032               0.000328255               0.000160608               0.000081140               0.000241748               0.000000000               0.000000000               0.000000000               0.000000000               0.000680948               0.000725306               0.000415778               0.000164691               0.000186869               0.000351560               0.000000000               0.000000000               0.000000000               0.000000000               0.000686075               0.001009294               0.000415759               0.000131115               0.000292723               0.000423838               0.000000000               0.000000000               0.000000000               0.000000000               0.000647264               0.001248274               0.000388823               0.000086689               0.000387191               0.000473880               0.000000000               0.000000000               0.000000000               0.000000000               0.000595406               0.001453532               0.000354081               0.000041585               0.000470644               0.000512229               0.000000000               0.000000000               0.000000000               0.000000000               0.000541301               0.001633836               0.000318508              -0.000001242               0.000545020               0.000543779               0.000000000               0.000000000               0.000000000               0.000000000               0.000490414               0.001790437               0.000284828              -0.000039899               0.000610106               0.000570207               0.000000000               0.000000000               0.000000000               0.000000000               0.000448152               0.001931293               0.000252220              -0.000073355               0.000668210               0.000594855               0.000000000               0.000000000               0.000000000               0.000000000               0.000416496               0.002060901               0.000221453              -0.000101427               0.000720769               0.000619342               0.000000000               0.000000000               0.000000000               0.000000000               0.000382377               0.002169431               0.000196224              -0.000127787               0.000765732               0.000637945               0.000000000               0.000000000               0.000000000               0.000000000               0.000348700               0.002268339               0.000177359              -0.000152780               0.000807032               0.000654252               0.000000000               0.000000000               0.000000000               0.000000000               0.000331257               0.002369571               0.000155323              -0.000171974               0.000847174               0.000675199               0.000000000               0.000000000               0.000000000               0.000000000               0.000329530               0.002476288               0.000123549              -0.000185962               0.000887408               0.000701447               0.000000000               0.000000000               0.000000000               0.000000000               0.000327972               0.002586917               0.000085662              -0.000200375               0.000929089               0.000728714               0.000000000               0.000000000               0.000000000               0.000000000               0.000328653               0.002691717               0.000044937              -0.000213219               0.000968303               0.000755084               0.000000000               0.000000000               0.000000000               0.000000000               0.000326864               0.002738219               0.000022872              -0.000219703               0.000985965               0.000766262               0.000000000               0.000000000               0.000000000               0.000000000               0.000232632               0.000091579               0.000100117               0.000075789               0.000005263               0.000081052               0.000000000               0.000000000               0.000000000               0.000000000               0.000534040               0.000289253               0.000165529               0.000164107               0.000041714               0.000205821               0.000000000               0.000000000               0.000000000               0.000000000               0.000710872               0.000572294               0.000218093               0.000195038               0.000125750               0.000320788               0.000000000               0.000000000               0.000000000               0.000000000               0.000744041               0.000849765               0.000222761               0.000172793               0.000225655               0.000398447               0.000000000               0.000000000               0.000000000               0.000000000               0.000717969               0.001096396               0.000211488               0.000132187               0.000321399               0.000453587               0.000000000               0.000000000               0.000000000               0.000000000               0.000668761               0.001315210               0.000194483               0.000086383               0.000409605               0.000495988               0.000000000               0.000000000               0.000000000               0.000000000               0.000612242               0.001511213               0.000175821               0.000040689               0.000490170               0.000530858               0.000000000               0.000000000               0.000000000               0.000000000               0.000555377               0.001682611               0.000158750              -0.000002060               0.000561551               0.000559491               0.000000000               0.000000000               0.000000000               0.000000000               0.000503593               0.001835502               0.000142946              -0.000040590               0.000625358               0.000584768               0.000000000               0.000000000               0.000000000               0.000000000               0.000462553               0.001978032               0.000124590              -0.000073797               0.000683936               0.000610140               0.000000000               0.000000000               0.000000000               0.000000000               0.000429209               0.002105793               0.000107225              -0.000102271               0.000736014               0.000633744               0.000000000               0.000000000               0.000000000               0.000000000               0.000399800               0.002218386               0.000099749              -0.000127373               0.000781912               0.000654539               0.000000000               0.000000000               0.000000000               0.000000000               0.000376140               0.002323416               0.000094905              -0.000149374               0.000824256               0.000674881               0.000000000               0.000000000               0.000000000               0.000000000               0.000366651               0.002431217               0.000073977              -0.000166407               0.000865867               0.000699459               0.000000000               0.000000000               0.000000000               0.000000000               0.000374514               0.002544396               0.000046459              -0.000177606               0.000907326               0.000729719               0.000000000               0.000000000               0.000000000               0.000000000               0.000402292               0.002663723               0.000025208              -0.000182105               0.000948600               0.000766495               0.000000000               0.000000000               0.000000000               0.000000000               0.000423461               0.002724592               0.000014824              -0.000181776               0.000968780               0.000787005               0.000000000               0.000000000               0.000000000               0.000000000               0.000199567               0.000065557               0.000000000               0.000066642              -0.000000362               0.000066280               0.000000000               0.000000000               0.000000000               0.000000000               0.000523054               0.000249445              -0.000000000               0.000164963               0.000028160               0.000193123               0.000000000               0.000000000               0.000000000               0.000000000               0.000720051               0.000518384              -0.000000000               0.000205219               0.000104386               0.000309606               0.000000000               0.000000000               0.000000000               0.000000000               0.000763018               0.000793628              -0.000000000               0.000186926               0.000202231               0.000389158               0.000000000               0.000000000               0.000000000               0.000000000               0.000741683               0.001041194               0.000000000               0.000147980               0.000297734               0.000445715               0.000000000               0.000000000               0.000000000               0.000000000               0.000694422               0.001262272               0.000000000               0.000102623               0.000386546               0.000489169               0.000000000               0.000000000               0.000000000               0.000000000               0.000639754               0.001465313               0.000000000               0.000056743               0.000469518               0.000526262               0.000000000               0.000000000               0.000000000               0.000000000               0.000583842               0.001645279               0.000000000               0.000013281               0.000543994               0.000557275               0.000000000               0.000000000               0.000000000               0.000000000               0.000526627               0.001799275              -0.000000000              -0.000027424               0.000608894               0.000581470               0.000000000               0.000000000               0.000000000               0.000000000               0.000478355               0.001944336              -0.000000000              -0.000063659               0.000669325               0.000605666               0.000000000               0.000000000               0.000000000               0.000000000               0.000447567               0.002083707               0.000000000              -0.000092625               0.000725437               0.000632812               0.000000000               0.000000000               0.000000000               0.000000000               0.000423694               0.002203744               0.000000000              -0.000116583               0.000773435               0.000656852               0.000000000               0.000000000               0.000000000               0.000000000               0.000394026               0.002310070               0.000000000              -0.000140999               0.000817015               0.000676017               0.000000000               0.000000000               0.000000000               0.000000000               0.000374342               0.002414003              -0.000000000              -0.000161372               0.000858450               0.000697078               0.000000000               0.000000000               0.000000000               0.000000000               0.000389884               0.002522492               0.000000000              -0.000169105               0.000897191               0.000728086               0.000000000               0.000000000               0.000000000               0.000000000               0.000430933               0.002647247               0.000000000              -0.000169306               0.000938842               0.000769536               0.000000000               0.000000000               0.000000000               0.000000000               0.000459932               0.002715557               0.000000000              -0.000166970               0.000960833               0.000793864               0.000000000               0.000000000               0.000000000               0.000000000               0.000411381               0.004885677              -0.000000000              -0.000456440               0.001780690               0.001324249               0.000000000               0.000000000               0.000000000               0.000000000               0.000465418               0.004075912              -0.000000000              -0.000334956               0.001470276               0.001135320               0.000000000               0.000000000               0.000000000               0.000000000               0.000661502               0.003421394              -0.000000000              -0.000179610               0.001200323               0.001020713               0.000000000               0.000000000               0.000000000               0.000000000               0.000696056               0.003061174               0.000000000              -0.000121625               0.001060923               0.000939297               0.000000000               0.000000000               0.000000000               0.000000000               0.000668057               0.002852554               0.000000000              -0.000106047               0.000986191               0.000880144               0.000000000               0.000000000               0.000000000               0.000000000               0.000618692               0.002726723               0.000000000              -0.000108830               0.000945175               0.000836345               0.000000000               0.000000000               0.000000000               0.000000000               0.000555047               0.002649063              -0.000000000              -0.000122990               0.000924009               0.000801019               0.000000000               0.000000000               0.000000000               0.000000000               0.000487179               0.002605464              -0.000000000              -0.000142991               0.000916143               0.000773152               0.000000000               0.000000000               0.000000000               0.000000000               0.000423564               0.002582397              -0.000000000              -0.000163963               0.000915445               0.000751482               0.000000000               0.000000000               0.000000000               0.000000000               0.000362880               0.002572767               0.000000000              -0.000185515               0.000919419               0.000733904               0.000000000               0.000000000               0.000000000               0.000000000               0.000303867               0.002570934               0.000000000              -0.000207416               0.000926108               0.000718692               0.000000000               0.000000000               0.000000000               0.000000000               0.000249165               0.002577220               0.000000000              -0.000228715               0.000935303               0.000706588               0.000000000               0.000000000               0.000000000               0.000000000               0.000197266               0.002590332               0.000000000              -0.000249816               0.000946707               0.000696891               0.000000000               0.000000000               0.000000000               0.000000000               0.000147425               0.002607962               0.000000000              -0.000270710               0.000959549               0.000688839               0.000000000               0.000000000               0.000000000               0.000000000               0.000097189               0.002630860               0.000000000              -0.000292411               0.000974415               0.000682004               0.000000000               0.000000000               0.000000000               0.000000000               0.000046911               0.002658642              -0.000000000              -0.000314738               0.000991118               0.000676380               0.000000000               0.000000000               0.000000000               0.000000000               0.000024503               0.002677662              -0.000000000              -0.000325518               0.001001051               0.000675533               0.000000000               0.000000000               0.000000000               0.000000000               0.000443664               0.004812277              -0.000379657              -0.000435160               0.001749130               0.001313970               0.000000000               0.000000000               0.000000000               0.000000000               0.000480200               0.004022795              -0.000252159              -0.000322774               0.001448509               0.001125736               0.000000000               0.000000000               0.000000000               0.000000000               0.000656243               0.003391949              -0.000117795              -0.000177902               0.001189939               0.001012037               0.000000000               0.000000000               0.000000000               0.000000000               0.000680710               0.003045257              -0.000052432              -0.000125391               0.001056873               0.000931482               0.000000000               0.000000000               0.000000000               0.000000000               0.000648882               0.002843169              -0.000020071              -0.000112065               0.000985069               0.000873003               0.000000000               0.000000000               0.000000000               0.000000000               0.000598346               0.002723087              -0.000004360              -0.000116006               0.000946355               0.000830349               0.000000000               0.000000000               0.000000000               0.000000000               0.000536503               0.002650888               0.000003943              -0.000130172               0.000927011               0.000796839               0.000000000               0.000000000               0.000000000               0.000000000               0.000470591               0.002606602               0.000007922              -0.000149353               0.000918643               0.000769290               0.000000000               0.000000000               0.000000000               0.000000000               0.000406120               0.002582740               0.000008543              -0.000170547               0.000917754               0.000747207               0.000000000               0.000000000               0.000000000               0.000000000               0.000346164               0.002572677               0.000007353              -0.000191773               0.000921475               0.000729702               0.000000000               0.000000000               0.000000000               0.000000000               0.000290424               0.002572156               0.000006017              -0.000212610               0.000928247               0.000715637               0.000000000               0.000000000               0.000000000               0.000000000               0.000236356               0.002577690               0.000005999              -0.000233577               0.000937080               0.000703503               0.000000000               0.000000000               0.000000000               0.000000000               0.000185023               0.002589893               0.000005577              -0.000254352               0.000948073               0.000693721               0.000000000               0.000000000               0.000000000               0.000000000               0.000136592               0.002606619               0.000005905              -0.000274605               0.000960399               0.000685795               0.000000000               0.000000000               0.000000000               0.000000000               0.000090107               0.002629351               0.000009711              -0.000294878               0.000974734               0.000679856               0.000000000               0.000000000               0.000000000               0.000000000               0.000043871               0.002656216               0.000008550              -0.000315574               0.000990588               0.000675014               0.000000000               0.000000000               0.000000000               0.000000000               0.000023675               0.002676884               0.000004064              -0.000325732               0.001000863               0.000675131               0.000000000               0.000000000               0.000000000               0.000000000               0.000529605               0.004597584              -0.000721502              -0.000376096               0.001657878               0.001281782               0.000000000               0.000000000               0.000000000               0.000000000               0.000515451               0.003866485              -0.000479735              -0.000290016               0.001385487               0.001095471               0.000000000               0.000000000               0.000000000               0.000000000               0.000637370               0.003304408              -0.000226733              -0.000174037               0.001159471               0.000985434               0.000000000               0.000000000               0.000000000               0.000000000               0.000638437               0.002996163              -0.000105986              -0.000135106               0.001043747               0.000908640               0.000000000               0.000000000               0.000000000               0.000000000               0.000596082               0.002815423              -0.000046441              -0.000128397               0.000981264               0.000852867               0.000000000               0.000000000               0.000000000               0.000000000               0.000541707               0.002708812              -0.000016498              -0.000135461               0.000948082               0.000812621               0.000000000               0.000000000               0.000000000               0.000000000               0.000481909               0.002644119              -0.000002949              -0.000149799               0.000931297               0.000781499               0.000000000               0.000000000               0.000000000               0.000000000               0.000420007               0.002603530               0.000002479              -0.000167938               0.000923814               0.000755876               0.000000000               0.000000000               0.000000000               0.000000000               0.000359763               0.002580539               0.000004422              -0.000187656               0.000922723               0.000735067               0.000000000               0.000000000               0.000000000               0.000000000               0.000305840               0.002570761               0.000003578              -0.000206655               0.000925797               0.000719142               0.000000000               0.000000000               0.000000000               0.000000000               0.000255241               0.002569273               0.000001352              -0.000225443               0.000931563               0.000706120               0.000000000               0.000000000               0.000000000               0.000000000               0.000205006               0.002573729               0.000001568              -0.000244838               0.000939514               0.000694676               0.000000000               0.000000000               0.000000000               0.000000000               0.000158621               0.002585935               0.000002294              -0.000263758               0.000949889               0.000686131               0.000000000               0.000000000               0.000000000               0.000000000               0.000114994               0.002603937               0.000004045              -0.000282369               0.000962093               0.000679724               0.000000000               0.000000000               0.000000000               0.000000000               0.000074126               0.002625965               0.000010123              -0.000300448               0.000975462               0.000675014               0.000000000               0.000000000               0.000000000               0.000000000               0.000035882               0.002651167               0.000010139              -0.000317939               0.000989693               0.000671754               0.000000000               0.000000000               0.000000000               0.000000000               0.000020666               0.002672529               0.000005359              -0.000326316               0.000999606               0.000673290               0.000000000               0.000000000               0.000000000               0.000000000               0.000645787               0.004259048              -0.000997215              -0.000290211               0.001516405               0.001226194               0.000000000               0.000000000               0.000000000               0.000000000               0.000557636               0.003622835              -0.000663848              -0.000243741               0.001288846               0.001045106               0.000000000               0.000000000               0.000000000               0.000000000               0.000601383               0.003169227              -0.000318914              -0.000170635               0.001113277               0.000942642               0.000000000               0.000000000               0.000000000               0.000000000               0.000571467               0.002918369              -0.000160121              -0.000150496               0.001022945               0.000872450               0.000000000               0.000000000               0.000000000               0.000000000               0.000520441               0.002771094              -0.000083423              -0.000151221               0.000974096               0.000822875               0.000000000               0.000000000               0.000000000               0.000000000               0.000464672               0.002682230              -0.000045422              -0.000161026               0.000947743               0.000786717               0.000000000               0.000000000               0.000000000               0.000000000               0.000406502               0.002624119              -0.000027222              -0.000175576               0.000933223               0.000757647               0.000000000               0.000000000               0.000000000               0.000000000               0.000351823               0.002589538              -0.000018837              -0.000191758               0.000927090               0.000735332               0.000000000               0.000000000               0.000000000               0.000000000               0.000299812               0.002569861              -0.000015314              -0.000208803               0.000926213               0.000717410               0.000000000               0.000000000               0.000000000               0.000000000               0.000251267               0.002561006              -0.000015614              -0.000225900               0.000928960               0.000703060               0.000000000               0.000000000               0.000000000               0.000000000               0.000208037               0.002559972              -0.000017174              -0.000241982               0.000933976               0.000691994               0.000000000               0.000000000               0.000000000               0.000000000               0.000167141               0.002565957              -0.000014130              -0.000258066               0.000941333               0.000683266               0.000000000               0.000000000               0.000000000               0.000000000               0.000127699               0.002579168              -0.000009153              -0.000274508               0.000951217               0.000676709               0.000000000               0.000000000               0.000000000               0.000000000               0.000089544               0.002598778              -0.000005907              -0.000291268               0.000963340               0.000672072               0.000000000               0.000000000               0.000000000               0.000000000               0.000054201               0.002617838              -0.000000022              -0.000306903               0.000974905               0.000668002               0.000000000               0.000000000               0.000000000               0.000000000               0.000025029               0.002635293               0.000003261              -0.000320025               0.000985097               0.000665072               0.000000000               0.000000000               0.000000000               0.000000000               0.000014951               0.002650436               0.000001124              -0.000325697               0.000992036               0.000666339               0.000000000               0.000000000               0.000000000               0.000000000               0.000768818               0.003830284              -0.001188796              -0.000190479               0.001340241               0.001149762               0.000000000               0.000000000               0.000000000               0.000000000               0.000596194               0.003325231              -0.000795441              -0.000192081               0.001172426               0.000980345               0.000000000               0.000000000               0.000000000               0.000000000               0.000550826               0.003009717              -0.000394913              -0.000169655               0.001059780               0.000890126               0.000000000               0.000000000               0.000000000               0.000000000               0.000489568               0.002825286              -0.000217083              -0.000169572               0.000998277               0.000828704               0.000000000               0.000000000               0.000000000               0.000000000               0.000432490               0.002713773              -0.000130972              -0.000177038               0.000963595               0.000786557               0.000000000               0.000000000               0.000000000               0.000000000               0.000380372               0.002641902              -0.000088399              -0.000187598               0.000943158               0.000755560               0.000000000               0.000000000               0.000000000               0.000000000               0.000330364               0.002594327              -0.000066847              -0.000200404               0.000931568               0.000731164               0.000000000               0.000000000               0.000000000               0.000000000               0.000285309               0.002566548              -0.000055070              -0.000213827               0.000926783               0.000712956               0.000000000               0.000000000               0.000000000               0.000000000               0.000243036               0.002551512              -0.000048385              -0.000227800               0.000926429               0.000698629               0.000000000               0.000000000               0.000000000               0.000000000               0.000203370               0.002545385              -0.000044472              -0.000241909               0.000929089               0.000687181               0.000000000               0.000000000               0.000000000               0.000000000               0.000168101               0.002548019              -0.000041496              -0.000255464               0.000934486               0.000679022               0.000000000               0.000000000               0.000000000               0.000000000               0.000134840               0.002558078              -0.000034433              -0.000269194               0.000942415               0.000673221               0.000000000               0.000000000               0.000000000               0.000000000               0.000100230               0.002572373              -0.000024269              -0.000283960               0.000952102               0.000668143               0.000000000               0.000000000               0.000000000               0.000000000               0.000066417               0.002587820              -0.000017985              -0.000298570               0.000962122               0.000663551               0.000000000               0.000000000               0.000000000               0.000000000               0.000039014               0.002597174              -0.000013706              -0.000310016               0.000969055               0.000659039               0.000000000               0.000000000               0.000000000               0.000000000               0.000018244               0.002599536              -0.000006442              -0.000318100               0.000972537               0.000654437               0.000000000               0.000000000               0.000000000               0.000000000               0.000010750               0.002603444              -0.000002894              -0.000321398               0.000974939               0.000653540               0.000000000               0.000000000               0.000000000               0.000000000               0.000876667               0.003354361              -0.001287630              -0.000090546               0.001148291               0.001057745               0.000000000               0.000000000               0.000000000               0.000000000               0.000622413               0.003005789              -0.000875650              -0.000142319               0.001049359               0.000907040               0.000000000               0.000000000               0.000000000               0.000000000               0.000490269               0.002840699              -0.000459809              -0.000171236               0.001003969               0.000832733               0.000000000               0.000000000               0.000000000               0.000000000               0.000408170               0.002725524              -0.000277558              -0.000187626               0.000971041               0.000783414               0.000000000               0.000000000               0.000000000               0.000000000               0.000350618               0.002648759              -0.000187689              -0.000199613               0.000949448               0.000749836               0.000000000               0.000000000               0.000000000               0.000000000               0.000304882               0.002594681              -0.000141995              -0.000210004               0.000934886               0.000724883               0.000000000               0.000000000               0.000000000               0.000000000               0.000264977               0.002559670              -0.000115714              -0.000220592               0.000926745               0.000706153               0.000000000               0.000000000               0.000000000               0.000000000               0.000230779               0.002540861              -0.000098330              -0.000231065               0.000923967               0.000692902               0.000000000               0.000000000               0.000000000               0.000000000               0.000201080               0.002531158              -0.000085053              -0.000240989               0.000924041               0.000683052               0.000000000               0.000000000               0.000000000               0.000000000               0.000170223               0.002527761              -0.000073322              -0.000252136               0.000926624               0.000674488               0.000000000               0.000000000               0.000000000               0.000000000               0.000138942               0.002533147              -0.000062844              -0.000264540               0.000932554               0.000668014               0.000000000               0.000000000               0.000000000               0.000000000               0.000107092               0.002544951              -0.000050322              -0.000277959               0.000940962               0.000663003               0.000000000               0.000000000               0.000000000               0.000000000               0.000077895               0.002556640              -0.000034914              -0.000290369               0.000948994               0.000658626               0.000000000               0.000000000               0.000000000               0.000000000               0.000054592               0.002565612              -0.000026527              -0.000300229               0.000955272               0.000655043               0.000000000               0.000000000               0.000000000               0.000000000               0.000034466               0.002565396              -0.000024190              -0.000307749               0.000957706               0.000649957               0.000000000               0.000000000               0.000000000               0.000000000               0.000017338               0.002561566              -0.000014397              -0.000313693               0.000958411               0.000644718               0.000000000               0.000000000               0.000000000               0.000000000               0.000011157               0.002562542              -0.000007340              -0.000316133               0.000959550               0.000643417               0.000000000               0.000000000               0.000000000               0.000000000               0.000946941               0.002866539              -0.001302020              -0.000003216               0.000956575               0.000953359               0.000000000               0.000000000               0.000000000               0.000000000               0.000631563               0.002684266              -0.000913045              -0.000098698               0.000927646               0.000828948               0.000000000               0.000000000               0.000000000               0.000000000               0.000428255               0.002670024              -0.000515672              -0.000173157               0.000947718               0.000774561               0.000000000               0.000000000               0.000000000               0.000000000               0.000337408               0.002623285              -0.000339352              -0.000201382               0.000941547               0.000740165               0.000000000               0.000000000               0.000000000               0.000000000               0.000284888               0.002579337              -0.000248508              -0.000215584               0.000931632               0.000716048               0.000000000               0.000000000               0.000000000               0.000000000               0.000246912               0.002544794              -0.000198331              -0.000225507               0.000923425               0.000697918               0.000000000               0.000000000               0.000000000               0.000000000               0.000217760               0.002523449              -0.000163876              -0.000233771               0.000919065               0.000685294               0.000000000               0.000000000               0.000000000               0.000000000               0.000193409               0.002511611              -0.000135984              -0.000241422               0.000917669               0.000676247               0.000000000               0.000000000               0.000000000               0.000000000               0.000171478               0.002506473              -0.000114057              -0.000249004               0.000918484               0.000669480               0.000000000               0.000000000               0.000000000               0.000000000               0.000143671               0.002506658              -0.000093514              -0.000259455               0.000922029               0.000662574               0.000000000               0.000000000               0.000000000               0.000000000               0.000113811               0.002516320              -0.000073998              -0.000271860               0.000929385               0.000657525               0.000000000               0.000000000               0.000000000               0.000000000               0.000085135               0.002530608              -0.000055679              -0.000284400               0.000938327               0.000653928               0.000000000               0.000000000               0.000000000               0.000000000               0.000062497               0.002543728              -0.000037223              -0.000294529               0.000946077               0.000651548               0.000000000               0.000000000               0.000000000               0.000000000               0.000049086               0.002551018              -0.000028088              -0.000300469               0.000950487               0.000650018               0.000000000               0.000000000               0.000000000               0.000000000               0.000036513               0.002554044              -0.000027218              -0.000305562               0.000953193               0.000647631               0.000000000               0.000000000               0.000000000               0.000000000               0.000019078               0.002560686              -0.000017191              -0.000312931               0.000957864               0.000644933               0.000000000               0.000000000               0.000000000               0.000000000               0.000012774               0.002569960              -0.000010582              -0.000316454               0.000962129               0.000645675               0.000000000               0.000000000               0.000000000               0.000000000               0.000975000               0.002393443              -0.001246161               0.000066442               0.000775658               0.000842101               0.000000000               0.000000000               0.000000000               0.000000000               0.000625339               0.002379668              -0.000915064              -0.000062957               0.000814200               0.000751243               0.000000000               0.000000000               0.000000000               0.000000000               0.000376153               0.002506712              -0.000564835              -0.000172281               0.000892989               0.000720708               0.000000000               0.000000000               0.000000000               0.000000000               0.000285541               0.002519572              -0.000398526              -0.000207868               0.000909138               0.000701270               0.000000000               0.000000000               0.000000000               0.000000000               0.000238226               0.002506072              -0.000305344              -0.000223924               0.000909990               0.000686066               0.000000000               0.000000000               0.000000000               0.000000000               0.000208719               0.002491134              -0.000246402              -0.000233121               0.000908077               0.000674955               0.000000000               0.000000000               0.000000000               0.000000000               0.000189006               0.002484033              -0.000201122              -0.000239626               0.000907878               0.000668252               0.000000000               0.000000000               0.000000000               0.000000000               0.000169413               0.002479869              -0.000163277              -0.000246453               0.000908766               0.000662313               0.000000000               0.000000000               0.000000000               0.000000000               0.000148510               0.002481620              -0.000132409              -0.000254511               0.000912035               0.000657525               0.000000000               0.000000000               0.000000000               0.000000000               0.000123399               0.002492563              -0.000103371              -0.000265295               0.000919278               0.000653983               0.000000000               0.000000000               0.000000000               0.000000000               0.000098274               0.002511446              -0.000075209              -0.000277077               0.000929499               0.000652422               0.000000000               0.000000000               0.000000000               0.000000000               0.000077095               0.002532749              -0.000051575              -0.000287682               0.000940135               0.000652453               0.000000000               0.000000000               0.000000000               0.000000000               0.000062995               0.002551236              -0.000034429              -0.000295281               0.000948830               0.000653550               0.000000000               0.000000000               0.000000000               0.000000000               0.000054705               0.002564537              -0.000028046              -0.000300052               0.000954855               0.000654803               0.000000000               0.000000000               0.000000000               0.000000000               0.000042307               0.002583867              -0.000027012              -0.000307118               0.000963653               0.000656535               0.000000000               0.000000000               0.000000000               0.000000000               0.000022815               0.002609533              -0.000017878              -0.000317635               0.000975714               0.000658079               0.000000000               0.000000000               0.000000000               0.000000000               0.000014842               0.002628400              -0.000012790              -0.000322983               0.000983786               0.000660802               0.000000000               0.000000000               0.000000000               0.000000000               0.000977391               0.001972496              -0.001142355               0.000119957               0.000617506               0.000737463               0.000000000               0.000000000               0.000000000               0.000000000               0.000625647               0.002106976              -0.000899717              -0.000028755               0.000711903               0.000683148               0.000000000               0.000000000               0.000000000               0.000000000               0.000354255               0.002358253              -0.000621397              -0.000161936               0.000840055               0.000678119               0.000000000               0.000000000               0.000000000               0.000000000               0.000263138               0.002425730              -0.000461922              -0.000204539               0.000876748               0.000672209               0.000000000               0.000000000               0.000000000               0.000000000               0.000218376               0.002442997              -0.000362695              -0.000223483               0.000888819               0.000665335               0.000000000               0.000000000               0.000000000               0.000000000               0.000192635               0.002449159              -0.000293195              -0.000233906               0.000894347               0.000660441               0.000000000               0.000000000               0.000000000               0.000000000               0.000178750               0.002457135              -0.000238423              -0.000240110               0.000899073               0.000658963               0.000000000               0.000000000               0.000000000               0.000000000               0.000164755               0.002464354              -0.000193035              -0.000246261               0.000903530               0.000657269               0.000000000               0.000000000               0.000000000               0.000000000               0.000145199               0.002477495              -0.000152740              -0.000255236               0.000910902               0.000655666               0.000000000               0.000000000               0.000000000               0.000000000               0.000121371               0.002501493              -0.000116251              -0.000267172               0.000922880               0.000655708               0.000000000               0.000000000               0.000000000               0.000000000               0.000100588               0.002531252              -0.000084089              -0.000278685               0.000936637               0.000657952               0.000000000               0.000000000               0.000000000               0.000000000               0.000085141               0.002557746              -0.000059426              -0.000287790               0.000948503               0.000660714               0.000000000               0.000000000               0.000000000               0.000000000               0.000076336               0.002576795              -0.000041993              -0.000293473               0.000956747               0.000663275               0.000000000               0.000000000               0.000000000               0.000000000               0.000069766               0.002600051              -0.000030328              -0.000298843               0.000966289               0.000667446               0.000000000               0.000000000               0.000000000               0.000000000               0.000056462               0.002636498              -0.000023022              -0.000308388               0.000981620               0.000673232               0.000000000               0.000000000               0.000000000               0.000000000               0.000038495               0.002681426              -0.000014828              -0.000320742               0.001000714               0.000679972               0.000000000               0.000000000               0.000000000               0.000000000               0.000026161               0.002704912              -0.000009000              -0.000328303               0.001011063               0.000682760               0.000000000               0.000000000               0.000000000               0.000000000               0.000947521               0.001557664              -0.001014628               0.000160610               0.000465679               0.000626289               0.000000000               0.000000000               0.000000000               0.000000000               0.000641166               0.001784505              -0.000876865               0.000017373               0.000589038               0.000606411               0.000000000               0.000000000               0.000000000               0.000000000               0.000373785               0.002125809              -0.000688668              -0.000125557               0.000750448               0.000624891               0.000000000               0.000000000               0.000000000               0.000000000               0.000275967               0.002258518              -0.000540373              -0.000178827               0.000812441               0.000633614               0.000000000               0.000000000               0.000000000               0.000000000               0.000228972               0.002319482              -0.000434692              -0.000204071               0.000841176               0.000637106               0.000000000               0.000000000               0.000000000               0.000000000               0.000199418               0.002356482              -0.000355910              -0.000219778               0.000858745               0.000638967               0.000000000               0.000000000               0.000000000               0.000000000               0.000184226               0.002384809              -0.000293885              -0.000229016               0.000871267               0.000642251               0.000000000               0.000000000               0.000000000               0.000000000               0.000172283               0.002408705              -0.000241039              -0.000236482               0.000881721               0.000645239               0.000000000               0.000000000               0.000000000               0.000000000               0.000156143               0.002435449              -0.000192738              -0.000245877               0.000893767               0.000647890               0.000000000               0.000000000               0.000000000               0.000000000               0.000137081               0.002469337              -0.000153213              -0.000257261               0.000908858               0.000651597               0.000000000               0.000000000               0.000000000               0.000000000               0.000119907               0.002509815              -0.000121044              -0.000268761               0.000926184               0.000657423               0.000000000               0.000000000               0.000000000               0.000000000               0.000107312               0.002548771              -0.000095347              -0.000278354               0.000942366               0.000664013               0.000000000               0.000000000               0.000000000               0.000000000               0.000099048               0.002585988              -0.000071649              -0.000286105               0.000957356               0.000671251               0.000000000               0.000000000               0.000000000               0.000000000               0.000092493               0.002625441              -0.000047475              -0.000293495               0.000972970               0.000679475               0.000000000               0.000000000               0.000000000               0.000000000               0.000079935               0.002668548              -0.000028277              -0.000303592               0.000990704               0.000687112               0.000000000               0.000000000               0.000000000               0.000000000               0.000062492               0.002720656              -0.000013211              -0.000316647               0.001012425               0.000695778               0.000000000               0.000000000               0.000000000               0.000000000               0.000045067               0.002742138              -0.000002596              -0.000325866               0.001022659               0.000696793               0.000000000               0.000000000               0.000000000               0.000000000               0.000874020               0.001164479              -0.000863820               0.000182195               0.000327423               0.000509619               0.000000000               0.000000000               0.000000000               0.000000000               0.000656773               0.001456123              -0.000829631               0.000064273               0.000463945               0.000528218               0.000000000               0.000000000               0.000000000               0.000000000               0.000425903               0.001857465              -0.000737280              -0.000072470               0.000643305               0.000570835               0.000000000               0.000000000               0.000000000               0.000000000               0.000324827               0.002053692              -0.000615392              -0.000134902               0.000729524               0.000594623               0.000000000               0.000000000               0.000000000               0.000000000               0.000270282               0.002165177              -0.000509850              -0.000169291               0.000778149               0.000608858               0.000000000               0.000000000               0.000000000               0.000000000               0.000233965               0.002237757              -0.000426432              -0.000191982               0.000809906               0.000617923               0.000000000               0.000000000               0.000000000               0.000000000               0.000211969               0.002292416              -0.000359919              -0.000207063               0.000833152               0.000626089               0.000000000               0.000000000               0.000000000               0.000000000               0.000198876               0.002339255              -0.000299927              -0.000217828               0.000852353               0.000634525               0.000000000               0.000000000               0.000000000               0.000000000               0.000185294               0.002381732              -0.000247205              -0.000228231               0.000869980               0.000641749               0.000000000               0.000000000               0.000000000               0.000000000               0.000170533               0.002424268              -0.000206182              -0.000239083               0.000887776               0.000648693               0.000000000               0.000000000               0.000000000               0.000000000               0.000157363               0.002472088              -0.000173847              -0.000250000               0.000907354               0.000657355               0.000000000               0.000000000               0.000000000               0.000000000               0.000144809               0.002523398              -0.000144554              -0.000261121               0.000928165               0.000667044               0.000000000               0.000000000               0.000000000               0.000000000               0.000131335               0.002578168              -0.000112872              -0.000273020               0.000950387               0.000677368               0.000000000               0.000000000               0.000000000               0.000000000               0.000119145               0.002633094              -0.000078447              -0.000284457               0.000972508               0.000688052               0.000000000               0.000000000               0.000000000               0.000000000               0.000106737               0.002684591              -0.000047331              -0.000295547               0.000993370               0.000697824               0.000000000               0.000000000               0.000000000               0.000000000               0.000086913               0.002733442              -0.000021649              -0.000309087               0.001014167               0.000705080               0.000000000               0.000000000               0.000000000               0.000000000               0.000064641               0.002748848              -0.000005830              -0.000319365               0.001022729               0.000703364               0.000000000               0.000000000               0.000000000               0.000000000               0.000761320               0.000816953              -0.000691857               0.000183374               0.000211190               0.000394564               0.000000000               0.000000000               0.000000000               0.000000000               0.000653572               0.001135145              -0.000744300               0.000103195               0.000343979               0.000447174               0.000000000               0.000000000               0.000000000               0.000000000               0.000492560               0.001557126              -0.000739059              -0.000009932               0.000522347               0.000512416               0.000000000               0.000000000               0.000000000               0.000000000               0.000402534               0.001802826              -0.000652572              -0.000074404               0.000625737               0.000551333               0.000000000               0.000000000               0.000000000               0.000000000               0.000341890               0.001959800              -0.000559430              -0.000116767               0.000692182               0.000575416               0.000000000               0.000000000               0.000000000               0.000000000               0.000300275               0.002072644              -0.000478228              -0.000146477               0.000739700               0.000593223               0.000000000               0.000000000               0.000000000               0.000000000               0.000268294               0.002160601              -0.000410823              -0.000169465               0.000776681               0.000607217               0.000000000               0.000000000               0.000000000               0.000000000               0.000247802               0.002232711              -0.000348844              -0.000186163               0.000806284               0.000620121               0.000000000               0.000000000               0.000000000               0.000000000               0.000233799               0.002295642              -0.000293791              -0.000199280               0.000831633               0.000632353               0.000000000               0.000000000               0.000000000               0.000000000               0.000217825               0.002351851              -0.000252795              -0.000212297               0.000854708               0.000642412               0.000000000               0.000000000               0.000000000               0.000000000               0.000204024               0.002409661              -0.000220871              -0.000224698               0.000878112               0.000653414               0.000000000               0.000000000               0.000000000               0.000000000               0.000191267               0.002474141              -0.000187562              -0.000237542               0.000903886               0.000666344               0.000000000               0.000000000               0.000000000               0.000000000               0.000176825               0.002547985              -0.000149425              -0.000252188               0.000933383               0.000681195               0.000000000               0.000000000               0.000000000               0.000000000               0.000158522               0.002621298              -0.000109628              -0.000268216               0.000963162               0.000694947               0.000000000               0.000000000               0.000000000               0.000000000               0.000138328               0.002687356              -0.000071484              -0.000284046               0.000990458               0.000706412               0.000000000               0.000000000               0.000000000               0.000000000               0.000114714               0.002740553              -0.000034525              -0.000299551               0.001013359               0.000713808               0.000000000               0.000000000               0.000000000               0.000000000               0.000088813               0.002753763              -0.000012158              -0.000310915               0.001021550               0.000710635               0.000000000               0.000000000               0.000000000               0.000000000               0.000618602               0.000531808              -0.000516038               0.000165498               0.000122101               0.000287599               0.000000000               0.000000000               0.000000000               0.000000000               0.000634938               0.000840696              -0.000626279               0.000133013               0.000235891               0.000368904               0.000000000               0.000000000               0.000000000               0.000000000               0.000564548               0.001248266              -0.000686235               0.000055671               0.000397527               0.000453198               0.000000000               0.000000000               0.000000000               0.000000000               0.000497476               0.001522902              -0.000635936              -0.000003810               0.000508899               0.000505089               0.000000000               0.000000000               0.000000000               0.000000000               0.000439212               0.001717097              -0.000563998              -0.000049933               0.000589004               0.000539071               0.000000000               0.000000000               0.000000000               0.000000000               0.000391975               0.001869441              -0.000493743              -0.000086690               0.000652037               0.000565347               0.000000000               0.000000000               0.000000000               0.000000000               0.000352853               0.001992020              -0.000430667              -0.000116682               0.000702894               0.000586212               0.000000000               0.000000000               0.000000000               0.000000000               0.000321212               0.002091800              -0.000372720              -0.000141020               0.000744266               0.000603246               0.000000000               0.000000000               0.000000000               0.000000000               0.000301664               0.002181550              -0.000319864              -0.000159569               0.000780366               0.000620796               0.000000000               0.000000000               0.000000000               0.000000000               0.000281598               0.002259363              -0.000279549              -0.000176821               0.000812054               0.000635233               0.000000000               0.000000000               0.000000000               0.000000000               0.000258180               0.002330646              -0.000249124              -0.000194513               0.000841712               0.000647199               0.000000000               0.000000000               0.000000000               0.000000000               0.000240361               0.002409325              -0.000215944              -0.000211030               0.000873444               0.000662414               0.000000000               0.000000000               0.000000000               0.000000000               0.000225890               0.002497195              -0.000174849              -0.000227440               0.000908203               0.000680763               0.000000000               0.000000000               0.000000000               0.000000000               0.000208430               0.002585807              -0.000130214              -0.000245064               0.000943615               0.000698551               0.000000000               0.000000000               0.000000000               0.000000000               0.000187038               0.002667536              -0.000089940              -0.000263302               0.000976937               0.000713635               0.000000000               0.000000000               0.000000000               0.000000000               0.000161022               0.002730769              -0.000049148              -0.000280962               0.001003901               0.000722939               0.000000000               0.000000000               0.000000000               0.000000000               0.000134538               0.002749410              -0.000023104              -0.000293224               0.001014202               0.000720978               0.000000000               0.000000000               0.000000000               0.000000000               0.000462746               0.000314831              -0.000353791               0.000134174               0.000060217               0.000194392               0.000000000               0.000000000               0.000000000               0.000000000               0.000601770               0.000591918              -0.000484904               0.000151672               0.000146746               0.000298418               0.000000000               0.000000000               0.000000000               0.000000000               0.000630660               0.000960693              -0.000576043               0.000116409               0.000281424               0.000397834               0.000000000               0.000000000               0.000000000               0.000000000               0.000596864               0.001244671              -0.000557290               0.000068239               0.000392140               0.000460379               0.000000000               0.000000000               0.000000000               0.000000000               0.000546923               0.001467820              -0.000508882               0.000021618               0.000482062               0.000503680               0.000000000               0.000000000               0.000000000               0.000000000               0.000495834               0.001651648              -0.000455245              -0.000020519               0.000557383               0.000536865               0.000000000               0.000000000               0.000000000               0.000000000               0.000449239               0.001805081              -0.000403558              -0.000057171               0.000620745               0.000563574               0.000000000               0.000000000               0.000000000               0.000000000               0.000408135               0.001935853              -0.000356040              -0.000088931               0.000674922               0.000585991               0.000000000               0.000000000               0.000000000               0.000000000               0.000377507               0.002053941              -0.000310974              -0.000115177               0.000723033               0.000607855               0.000000000               0.000000000               0.000000000               0.000000000               0.000351615               0.002161434              -0.000272514              -0.000138323               0.000766579               0.000628255               0.000000000               0.000000000               0.000000000               0.000000000               0.000320499               0.002251158              -0.000244446              -0.000161207               0.000804114               0.000642907               0.000000000               0.000000000               0.000000000               0.000000000               0.000292063               0.002338163              -0.000216832              -0.000182746               0.000840295               0.000657549               0.000000000               0.000000000               0.000000000               0.000000000               0.000276004               0.002434686              -0.000180112              -0.000200834               0.000878498               0.000677665               0.000000000               0.000000000               0.000000000               0.000000000               0.000266784               0.002534404              -0.000138881              -0.000216756               0.000917045               0.000700289               0.000000000               0.000000000               0.000000000               0.000000000               0.000257163               0.002630538              -0.000099781              -0.000232380               0.000954297               0.000721917               0.000000000               0.000000000               0.000000000               0.000000000               0.000236843               0.002712383              -0.000055232              -0.000250231               0.000987529               0.000737298               0.000000000               0.000000000               0.000000000               0.000000000               0.000213924               0.002743534              -0.000027580              -0.000262720               0.001002075               0.000739356               0.000000000               0.000000000               0.000000000               0.000000000               0.000325033               0.000170719              -0.000213760               0.000100547               0.000023390               0.000123937               0.000000000               0.000000000               0.000000000               0.000000000               0.000562970               0.000404032              -0.000328255               0.000160608               0.000081140               0.000241748               0.000000000               0.000000000               0.000000000               0.000000000               0.000680948               0.000725306              -0.000415778               0.000164691               0.000186869               0.000351560               0.000000000               0.000000000               0.000000000               0.000000000               0.000686075               0.001009294              -0.000415759               0.000131115               0.000292723               0.000423838               0.000000000               0.000000000               0.000000000               0.000000000               0.000647264               0.001248274              -0.000388823               0.000086689               0.000387191               0.000473880               0.000000000               0.000000000               0.000000000               0.000000000               0.000595406               0.001453532              -0.000354081               0.000041585               0.000470644               0.000512229               0.000000000               0.000000000               0.000000000               0.000000000               0.000541301               0.001633836              -0.000318508              -0.000001242               0.000545020               0.000543779               0.000000000               0.000000000               0.000000000               0.000000000               0.000490414               0.001790437              -0.000284828              -0.000039899               0.000610106               0.000570207               0.000000000               0.000000000               0.000000000               0.000000000               0.000448152               0.001931293              -0.000252220              -0.000073355               0.000668210               0.000594855               0.000000000               0.000000000               0.000000000               0.000000000               0.000416496               0.002060901              -0.000221453              -0.000101427               0.000720769               0.000619342               0.000000000               0.000000000               0.000000000               0.000000000               0.000382377               0.002169431              -0.000196224              -0.000127787               0.000765732               0.000637945               0.000000000               0.000000000               0.000000000               0.000000000               0.000348700               0.002268339              -0.000177359              -0.000152780               0.000807032               0.000654252               0.000000000               0.000000000               0.000000000               0.000000000               0.000331257               0.002369571              -0.000155323              -0.000171974               0.000847174               0.000675199               0.000000000               0.000000000               0.000000000               0.000000000               0.000329530               0.002476288              -0.000123549              -0.000185962               0.000887408               0.000701447               0.000000000               0.000000000               0.000000000               0.000000000               0.000327972               0.002586917              -0.000085662              -0.000200375               0.000929089               0.000728714               0.000000000               0.000000000               0.000000000               0.000000000               0.000328653               0.002691717              -0.000044937              -0.000213219               0.000968303               0.000755084               0.000000000               0.000000000               0.000000000               0.000000000               0.000326864               0.002738219              -0.000022872              -0.000219703               0.000985965               0.000766262               0.000000000               0.000000000               0.000000000               0.000000000               0.000232632               0.000091579              -0.000100117               0.000075789               0.000005263               0.000081052               0.000000000               0.000000000               0.000000000               0.000000000               0.000534040               0.000289253              -0.000165529               0.000164107               0.000041714               0.000205821               0.000000000               0.000000000               0.000000000               0.000000000               0.000710872               0.000572294              -0.000218093               0.000195038               0.000125750               0.000320788               0.000000000               0.000000000               0.000000000               0.000000000               0.000744041               0.000849765              -0.000222761               0.000172793               0.000225655               0.000398447               0.000000000               0.000000000               0.000000000               0.000000000               0.000717969               0.001096396              -0.000211488               0.000132187               0.000321399               0.000453587               0.000000000               0.000000000               0.000000000               0.000000000               0.000668761               0.001315210              -0.000194483               0.000086383               0.000409605               0.000495988               0.000000000               0.000000000               0.000000000               0.000000000               0.000612242               0.001511213              -0.000175821               0.000040689               0.000490170               0.000530858               0.000000000               0.000000000               0.000000000               0.000000000               0.000555377               0.001682611              -0.000158750              -0.000002060               0.000561551               0.000559491               0.000000000               0.000000000               0.000000000               0.000000000               0.000503593               0.001835502              -0.000142946              -0.000040590               0.000625358               0.000584768               0.000000000               0.000000000               0.000000000               0.000000000               0.000462553               0.001978032              -0.000124590              -0.000073797               0.000683936               0.000610140               0.000000000               0.000000000               0.000000000               0.000000000               0.000429209               0.002105793              -0.000107225              -0.000102271               0.000736014               0.000633744               0.000000000               0.000000000               0.000000000               0.000000000               0.000399800               0.002218386              -0.000099749              -0.000127373               0.000781912               0.000654539               0.000000000               0.000000000               0.000000000               0.000000000               0.000376140               0.002323416              -0.000094905              -0.000149374               0.000824256               0.000674881               0.000000000               0.000000000               0.000000000               0.000000000               0.000366651               0.002431217              -0.000073977              -0.000166407               0.000865867               0.000699459               0.000000000               0.000000000               0.000000000               0.000000000               0.000374514               0.002544396              -0.000046459              -0.000177606               0.000907326               0.000729719               0.000000000               0.000000000               0.000000000               0.000000000               0.000402292               0.002663723              -0.000025208              -0.000182105               0.000948600               0.000766495               0.000000000               0.000000000               0.000000000               0.000000000               0.000423461               0.002724592              -0.000014824              -0.000181776               0.000968780               0.000787005               0.000000000               0.000000000               0.000000000               0.000000000               0.000000000               0.000000000               0.000000000               0.000000000               0.000000000               0.000000000               0.000000000               0.000000000               0.000000000               0.000000000               0.000000000               0.000000000               0.000000000               0.000000000               0.000000000               0.000000000               0.000000000               0.000000000               0.000000000               0.000000000               0.000000000               0.000000000               0.000000000               0.000000000               0.000000000               0.000000000               0.000000000               0.000000000               0.000000000               0.000000000               0.000000000               0.000000000               0.000000000               0.000000000               0.000000000               0.000000000               0.000000000               0.000000000               0.000000000               0.000000000               0.000000000               0.000000000               0.000000000               0.000000000               0.000000000               0.000000000               0.000000000               0.000000000               0.000000000               0.000000000               0.000000000               0.000000000               0.000000000               0.000000000               0.000000000               0.000000000               0.000000000               0.000000000               0.000000000               0.000000000               0.000000000               0.000000000               0.000000000               0.000000000               0.000000000               0.000000000               0.000000000               0.000000000               0.000000000               0.000000000               0.000000000               0.000000000               0.000000000               0.000000000               0.000000000               0.000000000               0.000000000               0.000000000               0.000000000               0.000000000               0.000000000               0.000000000               0.000000000               0.000000000               0.000000000               0.000000000               0.000000000               0.000000000               0.000000000               0.000000000               0.000000000               0.000000000               0.000000000               0.000000000               0.000000000               0.000000000               0.000000000               0.000000000               0.000000000               0.000000000               0.000000000               0.000000000               0.000000000               0.000000000               0.000000000               0.000000000               0.000000000               0.000000000               0.000000000               0.000000000               0.000000000               0.000000000               0.000000000               0.000000000               0.000000000               0.000000000               0.000000000               0.000000000               0.000000000               0.000000000               0.000000000               0.000000000               0.000000000               0.000000000               0.000000000               0.000000000               0.000000000               0.000000000               0.000000000               0.000000000               0.000000000               0.000000000               0.000000000               0.000000000               0.000000000               0.000000000               0.000000000               0.000000000               0.000000000               0.000000000               0.000000000               0.000000000               0.000000000               0.000000000               0.000000000               0.000000000               0.000000000               0.000000000               0.000000000               0.000000000               0.000000000               0.000000000               0.000000000               0.000000000               0.000000000               0.000000000               0.000000000               0.000000000               0.000000000               0.000000000               0.000000000               0.000000000               0.000000000               0.000000000               0.000000000               0.000000000               0.000000000               0.000000000               0.000000000               0.000000000               0.000000000               0.000000000               0.000000000               0.000000000               0.000000000               0.000000000               0.000000000               0.000000000               0.000000000               0.000000000               0.000000000               0.000000000               0.000000000               0.000000000               0.000000000               0.000000000               0.000000000               0.000000000               0.000000000               0.000000000               0.000000000               0.000000000               0.000000000               0.000000000               0.000000000               0.000000000               0.000000000               0.000000000               0.000000000               0.000000000               0.000000000               0.000000000               0.000000000               0.000000000               0.000000000               0.000000000               0.000000000               0.000000000               0.000000000               0.000000000               0.000000000               0.000000000               0.000000000               0.000000000               0.000000000               0.000000000               0.000000000               0.000000000               0.000000000               0.000000000               0.000000000               0.000000000               0.000000000               0.000000000               0.000000000               0.000000000               0.000000000               0.000000000               0.000000000               0.000000000               0.000000000               0.000000000               0.000000000               0.000000000               0.000000000               0.000000000               0.000000000               0.000000000               0.000000000               0.000000000               0.000000000               0.000000000               0.000000000               0.000000000               0.000000000               0.000000000               0.000000000               0.000000000               0.000000000               0.000000000               0.000000000               0.000000000               0.000000000               0.000000000               0.000000000               0.000000000               0.000000000               0.000000000               0.000000000               0.000000000               0.000000000               0.000000000               0.000000000               0.000000000               0.000000000               0.000000000               0.000000000               0.000000000               0.000000000               0.000000000               0.000000000               0.000000000               0.000000000               0.000000000               0.000000000               0.000000000               0.000000000               0.000000000               0.000000000               0.000000000               0.000000000               0.000000000               0.000000000               0.000000000               0.000000000               0.000000000               0.000000000               0.000000000               0.000000000               0.000000000               0.000000000               0.000000000               0.000000000               0.000000000               0.000000000               0.000000000               0.000000000               0.000000000               0.000000000               0.000000000               0.000000000               0.000000000               0.000000000               0.000000000               0.000000000               0.000000000               0.000000000               0.000000000               0.000000000               0.000000000               0.000000000               0.000000000               0.000000000               0.000000000               0.000000000               0.000000000               0.000000000               0.000000000               0.000000000               0.000000000               0.000000000               0.000000000               0.000000000               0.000000000               0.000000000               0.000000000               0.000000000               0.000000000               0.000000000               0.000000000               0.000000000               0.000000000               0.000000000               0.000000000               0.000000000               0.000000000               0.000000000               0.000000000               0.000000000               0.000000000               0.000443664               0.004812277               0.000379657              -0.000435160               0.001749130               0.001313970               0.000000000               0.000000000               0.000000000               0.000000000               0.000480200               0.004022795               0.000252159              -0.000322774               0.001448509               0.001125736               0.000000000               0.000000000               0.000000000               0.000000000               0.000656243               0.003391949               0.000117795              -0.000177902               0.001189939               0.001012037               0.000000000               0.000000000               0.000000000               0.000000000               0.000680710               0.003045257               0.000052432              -0.000125391               0.001056873               0.000931482               0.000000000               0.000000000               0.000000000               0.000000000               0.000648882               0.002843169               0.000020071              -0.000112065               0.000985069               0.000873003               0.000000000               0.000000000               0.000000000               0.000000000               0.000598346               0.002723087               0.000004360              -0.000116006               0.000946355               0.000830349               0.000000000               0.000000000               0.000000000               0.000000000               0.000536503               0.002650888              -0.000003943              -0.000130172               0.000927011               0.000796839               0.000000000               0.000000000               0.000000000               0.000000000               0.000470591               0.002606602              -0.000007922              -0.000149353               0.000918643               0.000769290               0.000000000               0.000000000               0.000000000               0.000000000               0.000406120               0.002582740              -0.000008543              -0.000170547               0.000917754               0.000747207               0.000000000               0.000000000               0.000000000               0.000000000               0.000346164               0.002572677              -0.000007353              -0.000191773               0.000921475               0.000729702               0.000000000               0.000000000               0.000000000               0.000000000               0.000290424               0.002572156              -0.000006017              -0.000212610               0.000928247               0.000715637               0.000000000               0.000000000               0.000000000               0.000000000               0.000236356               0.002577690              -0.000005999              -0.000233577               0.000937080               0.000703503               0.000000000               0.000000000               0.000000000               0.000000000               0.000185023               0.002589893              -0.000005577              -0.000254352               0.000948073               0.000693721               0.000000000               0.000000000               0.000000000               0.000000000               0.000136592               0.002606619              -0.000005905              -0.000274605               0.000960399               0.000685795               0.000000000               0.000000000               0.000000000               0.000000000               0.000090107               0.002629351              -0.000009711              -0.000294878               0.000974734               0.000679856               0.000000000               0.000000000               0.000000000               0.000000000               0.000043871               0.002656216              -0.000008550              -0.000315574               0.000990588               0.000675014               0.000000000               0.000000000               0.000000000               0.000000000               0.000023675               0.002676884              -0.000004064              -0.000325732               0.001000863               0.000675131               0.000000000               0.000000000               0.000000000               0.000000000               0.000529605               0.004597584               0.000721502              -0.000376096               0.001657878               0.001281782               0.000000000               0.000000000               0.000000000               0.000000000               0.000515451               0.003866485               0.000479735              -0.000290016               0.001385487               0.001095471               0.000000000               0.000000000               0.000000000               0.000000000               0.000637370               0.003304408               0.000226733              -0.000174037               0.001159471               0.000985434               0.000000000               0.000000000               0.000000000               0.000000000               0.000638437               0.002996163               0.000105986              -0.000135106               0.001043747               0.000908640               0.000000000               0.000000000               0.000000000               0.000000000               0.000596082               0.002815423               0.000046441              -0.000128397               0.000981264               0.000852867               0.000000000               0.000000000               0.000000000               0.000000000               0.000541707               0.002708812               0.000016498              -0.000135461               0.000948082               0.000812621               0.000000000               0.000000000               0.000000000               0.000000000               0.000481909               0.002644119               0.000002949              -0.000149799               0.000931297               0.000781499               0.000000000               0.000000000               0.000000000               0.000000000               0.000420007               0.002603530              -0.000002479              -0.000167938               0.000923814               0.000755876               0.000000000               0.000000000               0.000000000               0.000000000               0.000359763               0.002580539              -0.000004422              -0.000187656               0.000922723               0.000735067               0.000000000               0.000000000               0.000000000               0.000000000               0.000305840               0.002570761              -0.000003578              -0.000206655               0.000925797               0.000719142               0.000000000               0.000000000               0.000000000               0.000000000               0.000255241               0.002569273              -0.000001352              -0.000225443               0.000931563               0.000706120               0.000000000               0.000000000               0.000000000               0.000000000               0.000205006               0.002573729              -0.000001568              -0.000244838               0.000939514               0.000694676               0.000000000               0.000000000               0.000000000               0.000000000               0.000158621               0.002585935              -0.000002294              -0.000263758               0.000949889               0.000686131               0.000000000               0.000000000               0.000000000               0.000000000               0.000114994               0.002603937              -0.000004045              -0.000282369               0.000962093               0.000679724               0.000000000               0.000000000               0.000000000               0.000000000               0.000074126               0.002625965              -0.000010123              -0.000300448               0.000975462               0.000675014               0.000000000               0.000000000               0.000000000               0.000000000               0.000035882               0.002651167              -0.000010139              -0.000317939               0.000989693               0.000671754               0.000000000               0.000000000               0.000000000               0.000000000               0.000020666               0.002672529              -0.000005359              -0.000326316               0.000999606               0.000673290               0.000000000               0.000000000               0.000000000               0.000000000               0.000645787               0.004259048               0.000997215              -0.000290211               0.001516405               0.001226194               0.000000000               0.000000000               0.000000000               0.000000000               0.000557636               0.003622835               0.000663848              -0.000243741               0.001288846               0.001045106               0.000000000               0.000000000               0.000000000               0.000000000               0.000601383               0.003169227               0.000318914              -0.000170635               0.001113277               0.000942642               0.000000000               0.000000000               0.000000000               0.000000000               0.000571467               0.002918369               0.000160121              -0.000150496               0.001022945               0.000872450               0.000000000               0.000000000               0.000000000               0.000000000               0.000520441               0.002771094               0.000083423              -0.000151221               0.000974096               0.000822875               0.000000000               0.000000000               0.000000000               0.000000000               0.000464672               0.002682230               0.000045422              -0.000161026               0.000947743               0.000786717               0.000000000               0.000000000               0.000000000               0.000000000               0.000406502               0.002624119               0.000027222              -0.000175576               0.000933223               0.000757647               0.000000000               0.000000000               0.000000000               0.000000000               0.000351823               0.002589538               0.000018837              -0.000191758               0.000927090               0.000735332               0.000000000               0.000000000               0.000000000               0.000000000               0.000299812               0.002569861               0.000015314              -0.000208803               0.000926213               0.000717410               0.000000000               0.000000000               0.000000000               0.000000000               0.000251267               0.002561006               0.000015614              -0.000225900               0.000928960               0.000703060               0.000000000               0.000000000               0.000000000               0.000000000               0.000208037               0.002559972               0.000017174              -0.000241982               0.000933976               0.000691994               0.000000000               0.000000000               0.000000000               0.000000000               0.000167141               0.002565957               0.000014130              -0.000258066               0.000941333               0.000683266               0.000000000               0.000000000               0.000000000               0.000000000               0.000127699               0.002579168               0.000009153              -0.000274508               0.000951217               0.000676709               0.000000000               0.000000000               0.000000000               0.000000000               0.000089544               0.002598778               0.000005907              -0.000291268               0.000963340               0.000672072               0.000000000               0.000000000               0.000000000               0.000000000               0.000054201               0.002617838               0.000000022              -0.000306903               0.000974905               0.000668002               0.000000000               0.000000000               0.000000000               0.000000000               0.000025029               0.002635293              -0.000003261              -0.000320025               0.000985097               0.000665072               0.000000000               0.000000000               0.000000000               0.000000000               0.000014951               0.002650436              -0.000001124              -0.000325697               0.000992036               0.000666339               0.000000000               0.000000000               0.000000000               0.000000000               0.000768818               0.003830284               0.001188796              -0.000190479               0.001340241               0.001149762               0.000000000               0.000000000               0.000000000               0.000000000               0.000596194               0.003325231               0.000795441              -0.000192081               0.001172426               0.000980345               0.000000000               0.000000000               0.000000000               0.000000000               0.000550826               0.003009717               0.000394913              -0.000169655               0.001059780               0.000890126               0.000000000               0.000000000               0.000000000               0.000000000               0.000489568               0.002825286               0.000217083              -0.000169572               0.000998277               0.000828704               0.000000000               0.000000000               0.000000000               0.000000000               0.000432490               0.002713773               0.000130972              -0.000177038               0.000963595               0.000786557               0.000000000               0.000000000               0.000000000               0.000000000               0.000380372               0.002641902               0.000088399              -0.000187598               0.000943158               0.000755560               0.000000000               0.000000000               0.000000000               0.000000000               0.000330364               0.002594327               0.000066847              -0.000200404               0.000931568               0.000731164               0.000000000               0.000000000               0.000000000               0.000000000               0.000285309               0.002566548               0.000055070              -0.000213827               0.000926783               0.000712956               0.000000000               0.000000000               0.000000000               0.000000000               0.000243036               0.002551512               0.000048385              -0.000227800               0.000926429               0.000698629               0.000000000               0.000000000               0.000000000               0.000000000               0.000203370               0.002545385               0.000044472              -0.000241909               0.000929089               0.000687181               0.000000000               0.000000000               0.000000000               0.000000000               0.000168101               0.002548019               0.000041496              -0.000255464               0.000934486               0.000679022               0.000000000               0.000000000               0.000000000               0.000000000               0.000134840               0.002558078               0.000034433              -0.000269194               0.000942415               0.000673221               0.000000000               0.000000000               0.000000000               0.000000000               0.000100230               0.002572373               0.000024269              -0.000283960               0.000952102               0.000668143               0.000000000               0.000000000               0.000000000               0.000000000               0.000066417               0.002587820               0.000017985              -0.000298570               0.000962122               0.000663551               0.000000000               0.000000000               0.000000000               0.000000000               0.000039014               0.002597174               0.000013706              -0.000310016               0.000969055               0.000659039               0.000000000               0.000000000               0.000000000               0.000000000               0.000018244               0.002599536               0.000006442              -0.000318100               0.000972537               0.000654437               0.000000000               0.000000000               0.000000000               0.000000000               0.000010750               0.002603444               0.000002894              -0.000321398               0.000974939               0.000653540               0.000000000               0.000000000               0.000000000               0.000000000               0.000876667               0.003354361               0.001287630              -0.000090546               0.001148291               0.001057745               0.000000000               0.000000000               0.000000000               0.000000000               0.000622413               0.003005789               0.000875650              -0.000142319               0.001049359               0.000907040               0.000000000               0.000000000               0.000000000               0.000000000               0.000490269               0.002840699               0.000459809              -0.000171236               0.001003969               0.000832733               0.000000000               0.000000000               0.000000000               0.000000000               0.000408170               0.002725524               0.000277558              -0.000187626               0.000971041               0.000783414               0.000000000               0.000000000               0.000000000               0.000000000               0.000350618               0.002648759               0.000187689              -0.000199613               0.000949448               0.000749836               0.000000000               0.000000000               0.000000000               0.000000000               0.000304882               0.002594681               0.000141995              -0.000210004               0.000934886               0.000724883               0.000000000               0.000000000               0.000000000               0.000000000               0.000264977               0.002559670               0.000115714              -0.000220592               0.000926745               0.000706153               0.000000000               0.000000000               0.000000000               0.000000000               0.000230779               0.002540861               0.000098330              -0.000231065               0.000923967               0.000692902               0.000000000               0.000000000               0.000000000               0.000000000               0.000201080               0.002531158               0.000085053              -0.000240989               0.000924041               0.000683052               0.000000000               0.000000000               0.000000000               0.000000000               0.000170223               0.002527761               0.000073322              -0.000252136               0.000926624               0.000674488               0.000000000               0.000000000               0.000000000               0.000000000               0.000138942               0.002533147               0.000062844              -0.000264540               0.000932554               0.000668014               0.000000000               0.000000000               0.000000000               0.000000000               0.000107092               0.002544951               0.000050322              -0.000277959               0.000940962               0.000663003               0.000000000               0.000000000               0.000000000               0.000000000               0.000077895               0.002556640               0.000034914              -0.000290369               0.000948994               0.000658626               0.000000000               0.000000000               0.000000000               0.000000000               0.000054592               0.002565612               0.000026527              -0.000300229               0.000955272               0.000655043               0.000000000               0.000000000               0.000000000               0.000000000               0.000034466               0.002565396               0.000024190              -0.000307749               0.000957706               0.000649957               0.000000000               0.000000000               0.000000000               0.000000000               0.000017338               0.002561566               0.000014397              -0.000313693               0.000958411               0.000644718               0.000000000               0.000000000               0.000000000               0.000000000               0.000011157               0.002562542               0.000007340              -0.000316133               0.000959550               0.000643417               0.000000000               0.000000000               0.000000000               0.000000000               0.000946941               0.002866539               0.001302020              -0.000003216               0.000956575               0.000953359               0.000000000               0.000000000               0.000000000               0.000000000               0.000631563               0.002684266               0.000913045              -0.000098698               0.000927646               0.000828948               0.000000000               0.000000000               0.000000000               0.000000000               0.000428255               0.002670024               0.000515672              -0.000173157               0.000947718               0.000774561               0.000000000               0.000000000               0.000000000               0.000000000               0.000337408               0.002623285               0.000339352              -0.000201382               0.000941547               0.000740165               0.000000000               0.000000000               0.000000000               0.000000000               0.000284888               0.002579337               0.000248508              -0.000215584               0.000931632               0.000716048               0.000000000               0.000000000               0.000000000               0.000000000               0.000246912               0.002544794               0.000198331              -0.000225507               0.000923425               0.000697918               0.000000000               0.000000000               0.000000000               0.000000000               0.000217760               0.002523449               0.000163876              -0.000233771               0.000919065               0.000685294               0.000000000               0.000000000               0.000000000               0.000000000               0.000193409               0.002511611               0.000135984              -0.000241422               0.000917669               0.000676247               0.000000000               0.000000000               0.000000000               0.000000000               0.000171478               0.002506473               0.000114057              -0.000249004               0.000918484               0.000669480               0.000000000               0.000000000               0.000000000               0.000000000               0.000143671               0.002506658               0.000093514              -0.000259455               0.000922029               0.000662574               0.000000000               0.000000000               0.000000000               0.000000000               0.000113811               0.002516320               0.000073998              -0.000271860               0.000929385               0.000657525               0.000000000               0.000000000               0.000000000               0.000000000               0.000085135               0.002530608               0.000055679              -0.000284400               0.000938327               0.000653928               0.000000000               0.000000000               0.000000000               0.000000000               0.000062497               0.002543728               0.000037223              -0.000294529               0.000946077               0.000651548               0.000000000               0.000000000               0.000000000               0.000000000               0.000049086               0.002551018               0.000028088              -0.000300469               0.000950487               0.000650018               0.000000000               0.000000000               0.000000000               0.000000000               0.000036513               0.002554044               0.000027218              -0.000305562               0.000953193               0.000647631               0.000000000               0.000000000               0.000000000               0.000000000               0.000019078               0.002560686               0.000017191              -0.000312931               0.000957864               0.000644933               0.000000000               0.000000000               0.000000000               0.000000000               0.000012774               0.002569960               0.000010582              -0.000316454               0.000962129               0.000645675               0.000000000               0.000000000               0.000000000               0.000000000               0.000975000               0.002393443               0.001246161               0.000066442               0.000775658               0.000842101               0.000000000               0.000000000               0.000000000               0.000000000               0.000625339               0.002379668               0.000915064              -0.000062957               0.000814200               0.000751243               0.000000000               0.000000000               0.000000000               0.000000000               0.000376153               0.002506712               0.000564835              -0.000172281               0.000892989               0.000720708               0.000000000               0.000000000               0.000000000               0.000000000               0.000285541               0.002519572               0.000398526              -0.000207868               0.000909138               0.000701270               0.000000000               0.000000000               0.000000000               0.000000000               0.000238226               0.002506072               0.000305344              -0.000223924               0.000909990               0.000686066               0.000000000               0.000000000               0.000000000               0.000000000               0.000208719               0.002491134               0.000246402              -0.000233121               0.000908077               0.000674955               0.000000000               0.000000000               0.000000000               0.000000000               0.000189006               0.002484033               0.000201122              -0.000239626               0.000907878               0.000668252               0.000000000               0.000000000               0.000000000               0.000000000               0.000169413               0.002479869               0.000163277              -0.000246453               0.000908766               0.000662313               0.000000000               0.000000000               0.000000000               0.000000000               0.000148510               0.002481620               0.000132409              -0.000254511               0.000912035               0.000657525               0.000000000               0.000000000               0.000000000               0.000000000               0.000123399               0.002492563               0.000103371              -0.000265295               0.000919278               0.000653983               0.000000000               0.000000000               0.000000000               0.000000000               0.000098274               0.002511446               0.000075209              -0.000277077               0.000929499               0.000652422               0.000000000               0.000000000               0.000000000               0.000000000               0.000077095               0.002532749               0.000051575              -0.000287682               0.000940135               0.000652453               0.000000000               0.000000000               0.000000000               0.000000000               0.000062995               0.002551236               0.000034429              -0.000295281               0.000948830               0.000653550               0.000000000               0.000000000               0.000000000               0.000000000               0.000054705               0.002564537               0.000028046              -0.000300052               0.000954855               0.000654803               0.000000000               0.000000000               0.000000000               0.000000000               0.000042307               0.002583867               0.000027012              -0.000307118               0.000963653               0.000656535               0.000000000               0.000000000               0.000000000               0.000000000               0.000022815               0.002609533               0.000017878              -0.000317635               0.000975714               0.000658079               0.000000000               0.000000000               0.000000000               0.000000000               0.000014842               0.002628400               0.000012790              -0.000322983               0.000983786               0.000660802               0.000000000               0.000000000               0.000000000               0.000000000               0.000977391               0.001972496               0.001142355               0.000119957               0.000617506               0.000737463               0.000000000               0.000000000               0.000000000               0.000000000               0.000625647               0.002106976               0.000899717              -0.000028755               0.000711903               0.000683148               0.000000000               0.000000000               0.000000000               0.000000000               0.000354255               0.002358253               0.000621397              -0.000161936               0.000840055               0.000678119               0.000000000               0.000000000               0.000000000               0.000000000               0.000263138               0.002425730               0.000461922              -0.000204539               0.000876748               0.000672209               0.000000000               0.000000000               0.000000000               0.000000000               0.000218376               0.002442997               0.000362695              -0.000223483               0.000888819               0.000665335               0.000000000               0.000000000               0.000000000               0.000000000               0.000192635               0.002449159               0.000293195              -0.000233906               0.000894347               0.000660441               0.000000000               0.000000000               0.000000000               0.000000000               0.000178750               0.002457135               0.000238423              -0.000240110               0.000899073               0.000658963               0.000000000               0.000000000               0.000000000               0.000000000               0.000164755               0.002464354               0.000193035              -0.000246261               0.000903530               0.000657269               0.000000000               0.000000000               0.000000000               0.000000000               0.000145199               0.002477495               0.000152740              -0.000255236               0.000910902               0.000655666               0.000000000               0.000000000               0.000000000               0.000000000               0.000121371               0.002501493               0.000116251              -0.000267172               0.000922880               0.000655708               0.000000000               0.000000000               0.000000000               0.000000000               0.000100588               0.002531252               0.000084089              -0.000278685               0.000936637               0.000657952               0.000000000               0.000000000               0.000000000               0.000000000               0.000085141               0.002557746               0.000059426              -0.000287790               0.000948503               0.000660714               0.000000000               0.000000000               0.000000000               0.000000000               0.000076336               0.002576795               0.000041993              -0.000293473               0.000956747               0.000663275               0.000000000               0.000000000               0.000000000               0.000000000               0.000069766               0.002600051               0.000030328              -0.000298843               0.000966289               0.000667446               0.000000000               0.000000000               0.000000000               0.000000000               0.000056462               0.002636498               0.000023022              -0.000308388               0.000981620               0.000673232               0.000000000               0.000000000               0.000000000               0.000000000               0.000038495               0.002681426               0.000014828              -0.000320742               0.001000714               0.000679972               0.000000000               0.000000000               0.000000000               0.000000000               0.000026161               0.002704912               0.000009000              -0.000328303               0.001011063               0.000682760               0.000000000               0.000000000               0.000000000               0.000000000               0.000947521               0.001557664               0.001014628               0.000160610               0.000465679               0.000626289               0.000000000               0.000000000               0.000000000               0.000000000               0.000641166               0.001784505               0.000876865               0.000017373               0.000589038               0.000606411               0.000000000               0.000000000               0.000000000               0.000000000               0.000373785               0.002125809               0.000688668              -0.000125557               0.000750448               0.000624891               0.000000000               0.000000000               0.000000000               0.000000000               0.000275967               0.002258518               0.000540373              -0.000178827               0.000812441               0.000633614               0.000000000               0.000000000               0.000000000               0.000000000               0.000228972               0.002319482               0.000434692              -0.000204071               0.000841176               0.000637106               0.000000000               0.000000000               0.000000000               0.000000000               0.000199418               0.002356482               0.000355910              -0.000219778               0.000858745               0.000638967               0.000000000               0.000000000               0.000000000               0.000000000               0.000184226               0.002384809               0.000293885              -0.000229016               0.000871267               0.000642251               0.000000000               0.000000000               0.000000000               0.000000000               0.000172283               0.002408705               0.000241039              -0.000236482               0.000881721               0.000645239               0.000000000               0.000000000               0.000000000               0.000000000               0.000156143               0.002435449               0.000192738              -0.000245877               0.000893767               0.000647890               0.000000000               0.000000000               0.000000000               0.000000000               0.000137081               0.002469337               0.000153213              -0.000257261               0.000908858               0.000651597               0.000000000               0.000000000               0.000000000               0.000000000               0.000119907               0.002509815               0.000121044              -0.000268761               0.000926184               0.000657423               0.000000000               0.000000000               0.000000000               0.000000000               0.000107312               0.002548771               0.000095347              -0.000278354               0.000942366               0.000664013               0.000000000               0.000000000               0.000000000               0.000000000               0.000099048               0.002585988               0.000071649              -0.000286105               0.000957356               0.000671251               0.000000000               0.000000000               0.000000000               0.000000000               0.000092493               0.002625441               0.000047475              -0.000293495               0.000972970               0.000679475               0.000000000               0.000000000               0.000000000               0.000000000               0.000079935               0.002668548               0.000028277              -0.000303592               0.000990704               0.000687112               0.000000000               0.000000000               0.000000000               0.000000000               0.000062492               0.002720656               0.000013211              -0.000316647               0.001012425               0.000695778               0.000000000               0.000000000               0.000000000               0.000000000               0.000045067               0.002742138               0.000002596              -0.000325866               0.001022659               0.000696793               0.000000000               0.000000000               0.000000000               0.000000000               0.000874020               0.001164479               0.000863820               0.000182195               0.000327423               0.000509619               0.000000000               0.000000000               0.000000000               0.000000000               0.000656773               0.001456123               0.000829631               0.000064273               0.000463945               0.000528218               0.000000000               0.000000000               0.000000000               0.000000000               0.000425903               0.001857465               0.000737280              -0.000072470               0.000643305               0.000570835               0.000000000               0.000000000               0.000000000               0.000000000               0.000324827               0.002053692               0.000615392              -0.000134902               0.000729524               0.000594623               0.000000000               0.000000000               0.000000000               0.000000000               0.000270282               0.002165177               0.000509850              -0.000169291               0.000778149               0.000608858               0.000000000               0.000000000               0.000000000               0.000000000               0.000233965               0.002237757               0.000426432              -0.000191982               0.000809906               0.000617923               0.000000000               0.000000000               0.000000000               0.000000000               0.000211969               0.002292416               0.000359919              -0.000207063               0.000833152               0.000626089               0.000000000               0.000000000               0.000000000               0.000000000               0.000198876               0.002339255               0.000299927              -0.000217828               0.000852353               0.000634525               0.000000000               0.000000000               0.000000000               0.000000000               0.000185294               0.002381732               0.000247205              -0.000228231               0.000869980               0.000641749               0.000000000               0.000000000               0.000000000               0.000000000               0.000170533               0.002424268               0.000206182              -0.000239083               0.000887776               0.000648693               0.000000000               0.000000000               0.000000000               0.000000000               0.000157363               0.002472088               0.000173847              -0.000250000               0.000907354               0.000657355               0.000000000               0.000000000               0.000000000               0.000000000               0.000144809               0.002523398               0.000144554              -0.000261121               0.000928165               0.000667044               0.000000000               0.000000000               0.000000000               0.000000000               0.000131335               0.002578168               0.000112872              -0.000273020               0.000950387               0.000677368               0.000000000               0.000000000               0.000000000               0.000000000               0.000119145               0.002633094               0.000078447              -0.000284457               0.000972508               0.000688052               0.000000000               0.000000000               0.000000000               0.000000000               0.000106737               0.002684591               0.000047331              -0.000295547               0.000993370               0.000697824               0.000000000               0.000000000               0.000000000               0.000000000               0.000086913               0.002733442               0.000021649              -0.000309087               0.001014167               0.000705080               0.000000000               0.000000000               0.000000000               0.000000000               0.000064641               0.002748848               0.000005830              -0.000319365               0.001022729               0.000703364               0.000000000               0.000000000               0.000000000               0.000000000               0.000761320               0.000816953               0.000691857               0.000183374               0.000211190               0.000394564               0.000000000               0.000000000               0.000000000               0.000000000               0.000653572               0.001135145               0.000744300               0.000103195               0.000343979               0.000447174               0.000000000               0.000000000               0.000000000               0.000000000               0.000492560               0.001557126               0.000739059              -0.000009932               0.000522347               0.000512416               0.000000000               0.000000000               0.000000000               0.000000000               0.000402534               0.001802826               0.000652572              -0.000074404               0.000625737               0.000551333               0.000000000               0.000000000               0.000000000               0.000000000               0.000341890               0.001959800               0.000559430              -0.000116767               0.000692182               0.000575416               0.000000000               0.000000000               0.000000000               0.000000000               0.000300275               0.002072644               0.000478228              -0.000146477               0.000739700               0.000593223               0.000000000               0.000000000               0.000000000               0.000000000               0.000268294               0.002160601               0.000410823              -0.000169465               0.000776681               0.000607217               0.000000000               0.000000000               0.000000000               0.000000000               0.000247802               0.002232711               0.000348844              -0.000186163               0.000806284               0.000620121               0.000000000               0.000000000               0.000000000               0.000000000               0.000233799               0.002295642               0.000293791              -0.000199280               0.000831633               0.000632353               0.000000000               0.000000000               0.000000000               0.000000000               0.000217825               0.002351851               0.000252795              -0.000212297               0.000854708               0.000642412               0.000000000               0.000000000               0.000000000               0.000000000               0.000204024               0.002409661               0.000220871              -0.000224698               0.000878112               0.000653414               0.000000000               0.000000000               0.000000000               0.000000000               0.000191267               0.002474141               0.000187562              -0.000237542               0.000903886               0.000666344               0.000000000               0.000000000               0.000000000               0.000000000               0.000176825               0.002547985               0.000149425              -0.000252188               0.000933383               0.000681195               0.000000000               0.000000000               0.000000000               0.000000000               0.000158522               0.002621298               0.000109628              -0.000268216               0.000963162               0.000694947               0.000000000               0.000000000               0.000000000               0.000000000               0.000138328               0.002687356               0.000071484              -0.000284046               0.000990458               0.000706412               0.000000000               0.000000000               0.000000000               0.000000000               0.000114714               0.002740553               0.000034525              -0.000299551               0.001013359               0.000713808               0.000000000               0.000000000               0.000000000               0.000000000               0.000088813               0.002753763               0.000012158              -0.000310915               0.001021550               0.000710635               0.000000000               0.000000000               0.000000000               0.000000000               0.000618602               0.000531808               0.000516038               0.000165498               0.000122101               0.000287599               0.000000000               0.000000000               0.000000000               0.000000000               0.000634938               0.000840696               0.000626279               0.000133013               0.000235891               0.000368904               0.000000000               0.000000000               0.000000000               0.000000000               0.000564548               0.001248266               0.000686235               0.000055671               0.000397527               0.000453198               0.000000000               0.000000000               0.000000000               0.000000000               0.000497476               0.001522902               0.000635936              -0.000003810               0.000508899               0.000505089               0.000000000               0.000000000               0.000000000               0.000000000               0.000439212               0.001717097               0.000563998              -0.000049933               0.000589004               0.000539071               0.000000000               0.000000000               0.000000000               0.000000000               0.000391975               0.001869441               0.000493743              -0.000086690               0.000652037               0.000565347               0.000000000               0.000000000               0.000000000               0.000000000               0.000352853               0.001992020               0.000430667              -0.000116682               0.000702894               0.000586212               0.000000000               0.000000000               0.000000000               0.000000000               0.000321212               0.002091800               0.000372720              -0.000141020               0.000744266               0.000603246               0.000000000               0.000000000               0.000000000               0.000000000               0.000301664               0.002181550               0.000319864              -0.000159569               0.000780366               0.000620796               0.000000000               0.000000000               0.000000000               0.000000000               0.000281598               0.002259363               0.000279549              -0.000176821               0.000812054               0.000635233               0.000000000               0.000000000               0.000000000               0.000000000               0.000258180               0.002330646               0.000249124              -0.000194513               0.000841712               0.000647199               0.000000000               0.000000000               0.000000000               0.000000000               0.000240361               0.002409325               0.000215944              -0.000211030               0.000873444               0.000662414               0.000000000               0.000000000               0.000000000               0.000000000               0.000225890               0.002497195               0.000174849              -0.000227440               0.000908203               0.000680763               0.000000000               0.000000000               0.000000000               0.000000000               0.000208430               0.002585807               0.000130214              -0.000245064               0.000943615               0.000698551               0.000000000               0.000000000               0.000000000               0.000000000               0.000187038               0.002667536               0.000089940              -0.000263302               0.000976937               0.000713635               0.000000000               0.000000000               0.000000000               0.000000000               0.000161022               0.002730769               0.000049148              -0.000280962               0.001003901               0.000722939               0.000000000               0.000000000               0.000000000               0.000000000               0.000134538               0.002749410               0.000023104              -0.000293224               0.001014202               0.000720978               0.000000000               0.000000000               0.000000000               0.000000000               0.000462746               0.000314831               0.000353791               0.000134174               0.000060217               0.000194392               0.000000000               0.000000000               0.000000000               0.000000000               0.000601770               0.000591918               0.000484904               0.000151672               0.000146746               0.000298418               0.000000000               0.000000000               0.000000000               0.000000000               0.000630660               0.000960693               0.000576043               0.000116409               0.000281424               0.000397834               0.000000000               0.000000000               0.000000000               0.000000000               0.000596864               0.001244671               0.000557290               0.000068239               0.000392140               0.000460379               0.000000000               0.000000000               0.000000000               0.000000000               0.000546923               0.001467820               0.000508882               0.000021618               0.000482062               0.000503680               0.000000000               0.000000000               0.000000000               0.000000000               0.000495834               0.001651648               0.000455245              -0.000020519               0.000557383               0.000536865               0.000000000               0.000000000               0.000000000               0.000000000               0.000449239               0.001805081               0.000403558              -0.000057171               0.000620745               0.000563574               0.000000000               0.000000000               0.000000000               0.000000000               0.000408135               0.001935853               0.000356040              -0.000088931               0.000674922               0.000585991               0.000000000               0.000000000               0.000000000               0.000000000               0.000377507               0.002053941               0.000310974              -0.000115177               0.000723033               0.000607855               0.000000000               0.000000000               0.000000000               0.000000000               0.000351615               0.002161434               0.000272514              -0.000138323               0.000766579               0.000628255               0.000000000               0.000000000               0.000000000               0.000000000               0.000320499               0.002251158               0.000244446              -0.000161207               0.000804114               0.000642907               0.000000000               0.000000000               0.000000000               0.000000000               0.000292063               0.002338163               0.000216832              -0.000182746               0.000840295               0.000657549               0.000000000               0.000000000               0.000000000               0.000000000               0.000276004               0.002434686               0.000180112              -0.000200834               0.000878498               0.000677665               0.000000000               0.000000000               0.000000000               0.000000000               0.000266784               0.002534404               0.000138881              -0.000216756               0.000917045               0.000700289               0.000000000               0.000000000               0.000000000               0.000000000               0.000257163               0.002630538               0.000099781              -0.000232380               0.000954297               0.000721917               0.000000000               0.000000000               0.000000000               0.000000000               0.000236843               0.002712383               0.000055232              -0.000250231               0.000987529               0.000737298               0.000000000               0.000000000               0.000000000               0.000000000               0.000213924               0.002743534               0.000027580              -0.000262720               0.001002075               0.000739356               0.000000000               0.000000000               0.000000000               0.000000000               0.000325033               0.000170719               0.000213760               0.000100547               0.000023390               0.000123937               0.000000000               0.000000000               0.000000000               0.000000000               0.000562970               0.000404032               0.000328255               0.000160608               0.000081140               0.000241748               0.000000000               0.000000000               0.000000000               0.000000000               0.000680948               0.000725306               0.000415778               0.000164691               0.000186869               0.000351560               0.000000000               0.000000000               0.000000000               0.000000000               0.000686075               0.001009294               0.000415759               0.000131115               0.000292723               0.000423838               0.000000000               0.000000000               0.000000000               0.000000000               0.000647264               0.001248274               0.000388823               0.000086689               0.000387191               0.000473880               0.000000000               0.000000000               0.000000000               0.000000000               0.000595406               0.001453532               0.000354081               0.000041585               0.000470644               0.000512229               0.000000000               0.000000000               0.000000000               0.000000000               0.000541301               0.001633836               0.000318508              -0.000001242               0.000545020               0.000543779               0.000000000               0.000000000               0.000000000               0.000000000               0.000490414               0.001790437               0.000284828              -0.000039899               0.000610106               0.000570207               0.000000000               0.000000000               0.000000000               0.000000000               0.000448152               0.001931293               0.000252220              -0.000073355               0.000668210               0.000594855               0.000000000               0.000000000               0.000000000               0.000000000               0.000416496               0.002060901               0.000221453              -0.000101427               0.000720769               0.000619342               0.000000000               0.000000000               0.000000000               0.000000000               0.000382377               0.002169431               0.000196224              -0.000127787               0.000765732               0.000637945               0.000000000               0.000000000               0.000000000               0.000000000               0.000348700               0.002268339               0.000177359              -0.000152780               0.000807032               0.000654252               0.000000000               0.000000000               0.000000000               0.000000000               0.000331257               0.002369571               0.000155323              -0.000171974               0.000847174               0.000675199               0.000000000               0.000000000               0.000000000               0.000000000               0.000329530               0.002476288               0.000123549              -0.000185962               0.000887408               0.000701447               0.000000000               0.000000000               0.000000000               0.000000000               0.000327972               0.002586917               0.000085662              -0.000200375               0.000929089               0.000728714               0.000000000               0.000000000               0.000000000               0.000000000               0.000328653               0.002691717               0.000044937              -0.000213219               0.000968303               0.000755084               0.000000000               0.000000000               0.000000000               0.000000000               0.000326864               0.002738219               0.000022872              -0.000219703               0.000985965               0.000766262               0.000000000               0.000000000               0.000000000               0.000000000               0.000232632               0.000091579               0.000100117               0.000075789               0.000005263               0.000081052               0.000000000               0.000000000               0.000000000               0.000000000               0.000534040               0.000289253               0.000165529               0.000164107               0.000041714               0.000205821               0.000000000               0.000000000               0.000000000               0.000000000               0.000710872               0.000572294               0.000218093               0.000195038               0.000125750               0.000320788               0.000000000               0.000000000               0.000000000               0.000000000               0.000744041               0.000849765               0.000222761               0.000172793               0.000225655               0.000398447               0.000000000               0.000000000               0.000000000               0.000000000               0.000717969               0.001096396               0.000211488               0.000132187               0.000321399               0.000453587               0.000000000               0.000000000               0.000000000               0.000000000               0.000668761               0.001315210               0.000194483               0.000086383               0.000409605               0.000495988               0.000000000               0.000000000               0.000000000               0.000000000               0.000612242               0.001511213               0.000175821               0.000040689               0.000490170               0.000530858               0.000000000               0.000000000               0.000000000               0.000000000               0.000555377               0.001682611               0.000158750              -0.000002060               0.000561551               0.000559491               0.000000000               0.000000000               0.000000000               0.000000000               0.000503593               0.001835502               0.000142946              -0.000040590               0.000625358               0.000584768               0.000000000               0.000000000               0.000000000               0.000000000               0.000462553               0.001978032               0.000124590              -0.000073797               0.000683936               0.000610140               0.000000000               0.000000000               0.000000000               0.000000000               0.000429209               0.002105793               0.000107225              -0.000102271               0.000736014               0.000633744               0.000000000               0.000000000               0.000000000               0.000000000               0.000399800               0.002218386               0.000099749              -0.000127373               0.000781912               0.000654539               0.000000000               0.000000000               0.000000000               0.000000000               0.000376140               0.002323416               0.000094905              -0.000149374               0.000824256               0.000674881               0.000000000               0.000000000               0.000000000               0.000000000               0.000366651               0.002431217               0.000073977              -0.000166407               0.000865867               0.000699459               0.000000000               0.000000000               0.000000000               0.000000000               0.000374514               0.002544396               0.000046459              -0.000177606               0.000907326               0.000729719               0.000000000               0.000000000               0.000000000               0.000000000               0.000402292               0.002663723               0.000025208              -0.000182105               0.000948600               0.000766495               0.000000000               0.000000000               0.000000000               0.000000000               0.000423461               0.002724592               0.000014824              -0.000181776               0.000968780               0.000787005               0.000000000               0.000000000               0.000000000               0.000000000               0.000000000               0.000000000               0.000000000               0.000000000               0.000000000               0.000000000               0.000000000               0.000000000               0.000000000               0.000000000               0.000000000               0.000000000               0.000000000               0.000000000               0.000000000               0.000000000               0.000000000               0.000000000               0.000000000               0.000000000               0.000000000               0.000000000               0.000000000               0.000000000               0.000000000               0.000000000               0.000000000               0.000000000               0.000000000               0.000000000               0.000000000               0.000000000               0.000000000               0.000000000               0.000000000               0.000000000               0.000000000               0.000000000               0.000000000               0.000000000               0.000000000               0.000000000               0.000000000               0.000000000               0.000000000               0.000000000               0.000000000               0.000000000               0.000000000               0.000000000               0.000000000               0.000000000               0.000000000               0.000000000               0.000000000               0.000000000               0.000000000               0.000000000               0.000000000               0.000000000               0.000000000               0.000000000               0.000000000               0.000000000               0.000000000               0.000000000               0.000000000               0.000000000               0.000000000               0.000000000               0.000000000               0.000000000               0.000000000               0.000000000               0.000000000               0.000000000               0.000000000               0.000000000               0.000000000               0.000000000               0.000000000               0.000000000               0.000000000               0.000000000               0.000000000               0.000000000               0.000000000               0.000000000               0.000000000               0.000000000               0.000000000               0.000000000               0.000000000               0.000000000               0.000000000               0.000000000               0.000000000               0.000000000               0.000000000               0.000000000               0.000000000               0.000000000               0.000000000               0.000000000               0.000000000               0.000000000               0.000000000               0.000000000               0.000000000               0.000000000               0.000000000               0.000000000               0.000000000               0.000000000               0.000000000               0.000000000               0.000000000               0.000000000               0.000000000               0.000000000               0.000000000               0.000000000               0.000000000               0.000000000               0.000000000               0.000000000               0.000000000               0.000000000               0.000000000               0.000000000               0.000000000               0.000000000               0.000000000               0.000000000               0.000000000               0.000000000               0.000000000               0.000000000               0.000000000               0.000000000               0.000000000               0.000000000               0.000000000               0.000000000               0.000000000               0.000000000               0.000000000               0.000000000               0.000000000               0.000000000               0.000000000               0.000000000               0.000000000               0.000000000               0.000000000               0.000000000               0.000000000               0.000000000               0.000000000               0.000000000               0.000000000               0.000000000               0.000000000               0.000000000               0.000000000               0.000000000               0.000000000               0.000000000               0.000000000               0.000000000 </DataArray>
</PointData>
</Piece>
</UnstructuredGrid> </VTKFile>
