<?xml version="1.0"?>
<VTKFile type="UnstructuredGrid" version="0.1">
<UnstructuredGrid>
<Piece NumberOfPoints="      1156" NumberOfCells="      1024">
<Points>
<DataArray type="Float64"                                    Name="coordinates"                                                      NumberOfComponents=" 3" format="ascii">
              0.133000000               0.000000000               0.000000000               0.155937500               0.000000000               0.000000000               0.178875000               0.000000000               0.000000000               0.201812500               0.000000000               0.000000000               0.224750000               0.000000000               0.000000000               0.247687500               0.000000000               0.000000000               0.270625000               0.000000000               0.000000000               0.293562500               0.000000000               0.000000000               0.316500000               0.000000000               0.000000000               0.339437500               0.000000000               0.000000000               0.362375000               0.000000000               0.000000000               0.385312500               0.000000000               0.000000000               0.408250000               0.000000000               0.000000000               0.431187500               0.000000000               0.000000000               0.454125000               0.000000000               0.000000000               0.477062500               0.000000000               0.000000000               0.500000000               0.000000000               0.000000000               0.132359569               0.013036280               0.000000000               0.155337096               0.016127762               0.000000000               0.178314623               0.019219245               0.000000000               0.201292150               0.022310727               0.000000000               0.224269676               0.025402210               0.000000000               0.247247203               0.028493692               0.000000000               0.270224730               0.031585175               0.000000000               0.293202257               0.034676657               0.000000000               0.316179784               0.037768140               0.000000000               0.339157311               0.040859622               0.000000000               0.362134838               0.043951105               0.000000000               0.385112365               0.047042587               0.000000000               0.408089892               0.050134070               0.000000000               0.431067419               0.053225552               0.000000000               0.454044946               0.056317035               0.000000000               0.477022473               0.059408517               0.000000000               0.500000000               0.062500000               0.000000000               0.130444442               0.025947013               0.000000000               0.153541665               0.032137825               0.000000000               0.176638887               0.038328636               0.000000000               0.199736109               0.044519448               0.000000000               0.222833332               0.050710260               0.000000000               0.245930554               0.056901071               0.000000000               0.269027776               0.063091883               0.000000000               0.292124999               0.069282695               0.000000000               0.315222221               0.075473506               0.000000000               0.338319444               0.081664318               0.000000000               0.361416666               0.087855130               0.000000000               0.384513888               0.094045942               0.000000000               0.407611111               0.100236753               0.000000000               0.430708333               0.106427565               0.000000000               0.453805555               0.112618377               0.000000000               0.476902778               0.118809188               0.000000000               0.500000000               0.125000000               0.000000000               0.127273065               0.038607862               0.000000000               0.150568498               0.047913621               0.000000000               0.173863932               0.057219379               0.000000000               0.197159365               0.066525138               0.000000000               0.220454798               0.075830897               0.000000000               0.243750232               0.085136655               0.000000000               0.267045665               0.094442414               0.000000000               0.290341099               0.103748172               0.000000000               0.313636532               0.113053931               0.000000000               0.336931966               0.122359690               0.000000000               0.360227399               0.131665448               0.000000000               0.383522833               0.140971207               0.000000000               0.406818266               0.150276966               0.000000000               0.430113700               0.159582724               0.000000000               0.453409133               0.168888483               0.000000000               0.476704567               0.178194241               0.000000000               0.500000000               0.187500000               0.000000000               0.122875978               0.050896897               0.000000000               0.146446229               0.063340840               0.000000000               0.170016481               0.075784784               0.000000000               0.193586732               0.088228728               0.000000000               0.217156983               0.100672672               0.000000000               0.240727235               0.113116616               0.000000000               0.264297486               0.125560560               0.000000000               0.287867738               0.138004504               0.000000000               0.311437989               0.150448448               0.000000000               0.335008240               0.162892392               0.000000000               0.358578492               0.175336336               0.000000000               0.382148743               0.187780280               0.000000000               0.405718994               0.200224224               0.000000000               0.429289246               0.212668168               0.000000000               0.452859497               0.225112112               0.000000000               0.476429749               0.237556056               0.000000000               0.500000000               0.250000000               0.000000000               0.117295528               0.062695766               0.000000000               0.141214558               0.078308531               0.000000000               0.165133587               0.093921295               0.000000000               0.189052617               0.109534060               0.000000000               0.212971646               0.125146824               0.000000000               0.236890676               0.140759589               0.000000000               0.260809705               0.156372354               0.000000000               0.284728735               0.171985118               0.000000000               0.308647764               0.187597883               0.000000000               0.332566794               0.203210648               0.000000000               0.356485823               0.218823412               0.000000000               0.380404853               0.234436177               0.000000000               0.404323882               0.250048941               0.000000000               0.428242912               0.265661706               0.000000000               0.452161941               0.281274471               0.000000000               0.476080971               0.296887235               0.000000000               0.500000000               0.312500000               0.000000000               0.110585458               0.073890841               0.000000000               0.134923867               0.092710163               0.000000000               0.159262276               0.111529486               0.000000000               0.183600685               0.130348808               0.000000000               0.207939094               0.149168131               0.000000000               0.232277503               0.167987453               0.000000000               0.256615912               0.186806776               0.000000000               0.280954320               0.205626098               0.000000000               0.305292729               0.224445420               0.000000000               0.329631138               0.243264743               0.000000000               0.353969547               0.262084065               0.000000000               0.378307956               0.280903388               0.000000000               0.402646365               0.299722710               0.000000000               0.426984773               0.318542033               0.000000000               0.451323182               0.337361355               0.000000000               0.475661591               0.356180678               0.000000000               0.500000000               0.375000000               0.000000000               0.102810390               0.084374307               0.000000000               0.127634741               0.106444663               0.000000000               0.152459092               0.128515018               0.000000000               0.177283442               0.150585374               0.000000000               0.202107793               0.172655730               0.000000000               0.226932143               0.194726086               0.000000000               0.251756494               0.216796442               0.000000000               0.276580845               0.238866798               0.000000000               0.301405195               0.260937153               0.000000000               0.326229546               0.283007509               0.000000000               0.351053896               0.305077865               0.000000000               0.375878247               0.327148221               0.000000000               0.400702598               0.349218577               0.000000000               0.425526948               0.371288933               0.000000000               0.450351299               0.393359288               0.000000000               0.475175649               0.415429644               0.000000000               0.500000000               0.437500000               0.000000000               0.094045202               0.094045202               0.000000000               0.119417377               0.119417377               0.000000000               0.144789552               0.144789552               0.000000000               0.170161727               0.170161727               0.000000000               0.195533901               0.195533901               0.000000000               0.220906076               0.220906076               0.000000000               0.246278251               0.246278251               0.000000000               0.271650426               0.271650426               0.000000000               0.297022601               0.297022601               0.000000000               0.322394776               0.322394776               0.000000000               0.347766951               0.347766951               0.000000000               0.373139126               0.373139126               0.000000000               0.398511300               0.398511300               0.000000000               0.423883475               0.423883475               0.000000000               0.449255650               0.449255650               0.000000000               0.474627825               0.474627825               0.000000000               0.500000000               0.500000000               0.000000000               0.084374307               0.102810390               0.000000000               0.106444663               0.127634741               0.000000000               0.128515018               0.152459092               0.000000000               0.150585374               0.177283442               0.000000000               0.172655730               0.202107793               0.000000000               0.194726086               0.226932143               0.000000000               0.216796442               0.251756494               0.000000000               0.238866798               0.276580845               0.000000000               0.260937153               0.301405195               0.000000000               0.283007509               0.326229546               0.000000000               0.305077865               0.351053896               0.000000000               0.327148221               0.375878247               0.000000000               0.349218577               0.400702598               0.000000000               0.371288933               0.425526948               0.000000000               0.393359288               0.450351299               0.000000000               0.415429644               0.475175649               0.000000000               0.437500000               0.500000000               0.000000000               0.073890841               0.110585458               0.000000000               0.092710163               0.134923867               0.000000000               0.111529486               0.159262276               0.000000000               0.130348808               0.183600685               0.000000000               0.149168131               0.207939094               0.000000000               0.167987453               0.232277503               0.000000000               0.186806776               0.256615912               0.000000000               0.205626098               0.280954320               0.000000000               0.224445420               0.305292729               0.000000000               0.243264743               0.329631138               0.000000000               0.262084065               0.353969547               0.000000000               0.280903388               0.378307956               0.000000000               0.299722710               0.402646365               0.000000000               0.318542033               0.426984773               0.000000000               0.337361355               0.451323182               0.000000000               0.356180678               0.475661591               0.000000000               0.375000000               0.500000000               0.000000000               0.062695766               0.117295528               0.000000000               0.078308531               0.141214558               0.000000000               0.093921295               0.165133587               0.000000000               0.109534060               0.189052617               0.000000000               0.125146824               0.212971646               0.000000000               0.140759589               0.236890676               0.000000000               0.156372354               0.260809705               0.000000000               0.171985118               0.284728735               0.000000000               0.187597883               0.308647764               0.000000000               0.203210648               0.332566794               0.000000000               0.218823412               0.356485823               0.000000000               0.234436177               0.380404853               0.000000000               0.250048941               0.404323882               0.000000000               0.265661706               0.428242912               0.000000000               0.281274471               0.452161941               0.000000000               0.296887235               0.476080971               0.000000000               0.312500000               0.500000000               0.000000000               0.050896897               0.122875978               0.000000000               0.063340840               0.146446229               0.000000000               0.075784784               0.170016481               0.000000000               0.088228728               0.193586732               0.000000000               0.100672672               0.217156983               0.000000000               0.113116616               0.240727235               0.000000000               0.125560560               0.264297486               0.000000000               0.138004504               0.287867738               0.000000000               0.150448448               0.311437989               0.000000000               0.162892392               0.335008240               0.000000000               0.175336336               0.358578492               0.000000000               0.187780280               0.382148743               0.000000000               0.200224224               0.405718994               0.000000000               0.212668168               0.429289246               0.000000000               0.225112112               0.452859497               0.000000000               0.237556056               0.476429749               0.000000000               0.250000000               0.500000000               0.000000000               0.038607862               0.127273065               0.000000000               0.047913621               0.150568498               0.000000000               0.057219379               0.173863932               0.000000000               0.066525138               0.197159365               0.000000000               0.075830897               0.220454798               0.000000000               0.085136655               0.243750232               0.000000000               0.094442414               0.267045665               0.000000000               0.103748172               0.290341099               0.000000000               0.113053931               0.313636532               0.000000000               0.122359690               0.336931966               0.000000000               0.131665448               0.360227399               0.000000000               0.140971207               0.383522833               0.000000000               0.150276966               0.406818266               0.000000000               0.159582724               0.430113700               0.000000000               0.168888483               0.453409133               0.000000000               0.178194241               0.476704567               0.000000000               0.187500000               0.500000000               0.000000000               0.025947013               0.130444442               0.000000000               0.032137825               0.153541665               0.000000000               0.038328636               0.176638887               0.000000000               0.044519448               0.199736109               0.000000000               0.050710260               0.222833332               0.000000000               0.056901071               0.245930554               0.000000000               0.063091883               0.269027776               0.000000000               0.069282695               0.292124999               0.000000000               0.075473506               0.315222221               0.000000000               0.081664318               0.338319444               0.000000000               0.087855130               0.361416666               0.000000000               0.094045942               0.384513888               0.000000000               0.100236753               0.407611111               0.000000000               0.106427565               0.430708333               0.000000000               0.112618377               0.453805555               0.000000000               0.118809188               0.476902778               0.000000000               0.125000000               0.500000000               0.000000000               0.013036280               0.132359569               0.000000000               0.016127762               0.155337096               0.000000000               0.019219245               0.178314623               0.000000000               0.022310727               0.201292150               0.000000000               0.025402210               0.224269676               0.000000000               0.028493692               0.247247203               0.000000000               0.031585175               0.270224730               0.000000000               0.034676657               0.293202257               0.000000000               0.037768140               0.316179784               0.000000000               0.040859622               0.339157311               0.000000000               0.043951105               0.362134838               0.000000000               0.047042587               0.385112365               0.000000000               0.050134070               0.408089892               0.000000000               0.053225552               0.431067419               0.000000000               0.056317035               0.454044946               0.000000000               0.059408517               0.477022473               0.000000000               0.062500000               0.500000000               0.000000000               0.000000000               0.133000000               0.000000000               0.000000000               0.155937500               0.000000000               0.000000000               0.178875000               0.000000000               0.000000000               0.201812500               0.000000000               0.000000000               0.224750000               0.000000000               0.000000000               0.247687500               0.000000000               0.000000000               0.270625000               0.000000000               0.000000000               0.293562500               0.000000000               0.000000000               0.316500000               0.000000000               0.000000000               0.339437500               0.000000000               0.000000000               0.362375000               0.000000000               0.000000000               0.385312500               0.000000000               0.000000000               0.408250000               0.000000000               0.000000000               0.431187500               0.000000000               0.000000000               0.454125000               0.000000000               0.000000000               0.477062500               0.000000000               0.000000000               0.500000000               0.000000000               0.133000000               0.000000000               0.000000000               0.155937500               0.000000000               0.000000000               0.178875000               0.000000000               0.000000000               0.201812500               0.000000000               0.000000000               0.224750000               0.000000000               0.000000000               0.247687500               0.000000000               0.000000000               0.270625000               0.000000000               0.000000000               0.293562500               0.000000000               0.000000000               0.316500000               0.000000000               0.000000000               0.339437500               0.000000000               0.000000000               0.362375000               0.000000000               0.000000000               0.385312500               0.000000000               0.000000000               0.408250000               0.000000000               0.000000000               0.431187500               0.000000000               0.000000000               0.454125000               0.000000000               0.000000000               0.477062500               0.000000000               0.000000000               0.500000000               0.000000000               0.000000000               0.132359569              -0.013036280               0.000000000               0.155337096              -0.016127762               0.000000000               0.178314623              -0.019219245               0.000000000               0.201292150              -0.022310727               0.000000000               0.224269676              -0.025402210               0.000000000               0.247247203              -0.028493692               0.000000000               0.270224730              -0.031585175               0.000000000               0.293202257              -0.034676657               0.000000000               0.316179784              -0.037768140               0.000000000               0.339157311              -0.040859622               0.000000000               0.362134838              -0.043951105               0.000000000               0.385112365              -0.047042587               0.000000000               0.408089892              -0.050134070               0.000000000               0.431067419              -0.053225552               0.000000000               0.454044946              -0.056317035               0.000000000               0.477022473              -0.059408517               0.000000000               0.500000000              -0.062500000               0.000000000               0.130444442              -0.025947013               0.000000000               0.153541665              -0.032137825               0.000000000               0.176638887              -0.038328636               0.000000000               0.199736109              -0.044519448               0.000000000               0.222833332              -0.050710260               0.000000000               0.245930554              -0.056901071               0.000000000               0.269027776              -0.063091883               0.000000000               0.292124999              -0.069282695               0.000000000               0.315222221              -0.075473506               0.000000000               0.338319444              -0.081664318               0.000000000               0.361416666              -0.087855130               0.000000000               0.384513888              -0.094045942               0.000000000               0.407611111              -0.100236753               0.000000000               0.430708333              -0.106427565               0.000000000               0.453805555              -0.112618377               0.000000000               0.476902778              -0.118809188               0.000000000               0.500000000              -0.125000000               0.000000000               0.127273065              -0.038607862               0.000000000               0.150568498              -0.047913621               0.000000000               0.173863932              -0.057219379               0.000000000               0.197159365              -0.066525138               0.000000000               0.220454798              -0.075830897               0.000000000               0.243750232              -0.085136655               0.000000000               0.267045665              -0.094442414               0.000000000               0.290341099              -0.103748172               0.000000000               0.313636532              -0.113053931               0.000000000               0.336931966              -0.122359690               0.000000000               0.360227399              -0.131665448               0.000000000               0.383522833              -0.140971207               0.000000000               0.406818266              -0.150276966               0.000000000               0.430113700              -0.159582724               0.000000000               0.453409133              -0.168888483               0.000000000               0.476704567              -0.178194241               0.000000000               0.500000000              -0.187500000               0.000000000               0.122875978              -0.050896897               0.000000000               0.146446229              -0.063340840               0.000000000               0.170016481              -0.075784784               0.000000000               0.193586732              -0.088228728               0.000000000               0.217156983              -0.100672672               0.000000000               0.240727235              -0.113116616               0.000000000               0.264297486              -0.125560560               0.000000000               0.287867738              -0.138004504               0.000000000               0.311437989              -0.150448448               0.000000000               0.335008240              -0.162892392               0.000000000               0.358578492              -0.175336336               0.000000000               0.382148743              -0.187780280               0.000000000               0.405718994              -0.200224224               0.000000000               0.429289246              -0.212668168               0.000000000               0.452859497              -0.225112112               0.000000000               0.476429749              -0.237556056               0.000000000               0.500000000              -0.250000000               0.000000000               0.117295528              -0.062695766               0.000000000               0.141214558              -0.078308531               0.000000000               0.165133587              -0.093921295               0.000000000               0.189052617              -0.109534060               0.000000000               0.212971646              -0.125146824               0.000000000               0.236890676              -0.140759589               0.000000000               0.260809705              -0.156372354               0.000000000               0.284728735              -0.171985118               0.000000000               0.308647764              -0.187597883               0.000000000               0.332566794              -0.203210648               0.000000000               0.356485823              -0.218823412               0.000000000               0.380404853              -0.234436177               0.000000000               0.404323882              -0.250048941               0.000000000               0.428242912              -0.265661706               0.000000000               0.452161941              -0.281274471               0.000000000               0.476080971              -0.296887235               0.000000000               0.500000000              -0.312500000               0.000000000               0.110585458              -0.073890841               0.000000000               0.134923867              -0.092710163               0.000000000               0.159262276              -0.111529486               0.000000000               0.183600685              -0.130348808               0.000000000               0.207939094              -0.149168131               0.000000000               0.232277503              -0.167987453               0.000000000               0.256615912              -0.186806776               0.000000000               0.280954320              -0.205626098               0.000000000               0.305292729              -0.224445420               0.000000000               0.329631138              -0.243264743               0.000000000               0.353969547              -0.262084065               0.000000000               0.378307956              -0.280903388               0.000000000               0.402646365              -0.299722710               0.000000000               0.426984773              -0.318542033               0.000000000               0.451323182              -0.337361355               0.000000000               0.475661591              -0.356180678               0.000000000               0.500000000              -0.375000000               0.000000000               0.102810390              -0.084374307               0.000000000               0.127634741              -0.106444663               0.000000000               0.152459092              -0.128515018               0.000000000               0.177283442              -0.150585374               0.000000000               0.202107793              -0.172655730               0.000000000               0.226932143              -0.194726086               0.000000000               0.251756494              -0.216796442               0.000000000               0.276580845              -0.238866798               0.000000000               0.301405195              -0.260937153               0.000000000               0.326229546              -0.283007509               0.000000000               0.351053896              -0.305077865               0.000000000               0.375878247              -0.327148221               0.000000000               0.400702598              -0.349218577               0.000000000               0.425526948              -0.371288933               0.000000000               0.450351299              -0.393359288               0.000000000               0.475175649              -0.415429644               0.000000000               0.500000000              -0.437500000               0.000000000               0.094045202              -0.094045202               0.000000000               0.119417377              -0.119417377               0.000000000               0.144789552              -0.144789552               0.000000000               0.170161727              -0.170161727               0.000000000               0.195533901              -0.195533901               0.000000000               0.220906076              -0.220906076               0.000000000               0.246278251              -0.246278251               0.000000000               0.271650426              -0.271650426               0.000000000               0.297022601              -0.297022601               0.000000000               0.322394776              -0.322394776               0.000000000               0.347766951              -0.347766951               0.000000000               0.373139126              -0.373139126               0.000000000               0.398511300              -0.398511300               0.000000000               0.423883475              -0.423883475               0.000000000               0.449255650              -0.449255650               0.000000000               0.474627825              -0.474627825               0.000000000               0.500000000              -0.500000000               0.000000000               0.084374307              -0.102810390               0.000000000               0.106444663              -0.127634741               0.000000000               0.128515018              -0.152459092               0.000000000               0.150585374              -0.177283442               0.000000000               0.172655730              -0.202107793               0.000000000               0.194726086              -0.226932143               0.000000000               0.216796442              -0.251756494               0.000000000               0.238866798              -0.276580845               0.000000000               0.260937153              -0.301405195               0.000000000               0.283007509              -0.326229546               0.000000000               0.305077865              -0.351053896               0.000000000               0.327148221              -0.375878247               0.000000000               0.349218577              -0.400702598               0.000000000               0.371288933              -0.425526948               0.000000000               0.393359288              -0.450351299               0.000000000               0.415429644              -0.475175649               0.000000000               0.437500000              -0.500000000               0.000000000               0.073890841              -0.110585458               0.000000000               0.092710163              -0.134923867               0.000000000               0.111529486              -0.159262276               0.000000000               0.130348808              -0.183600685               0.000000000               0.149168131              -0.207939094               0.000000000               0.167987453              -0.232277503               0.000000000               0.186806776              -0.256615912               0.000000000               0.205626098              -0.280954320               0.000000000               0.224445420              -0.305292729               0.000000000               0.243264743              -0.329631138               0.000000000               0.262084065              -0.353969547               0.000000000               0.280903388              -0.378307956               0.000000000               0.299722710              -0.402646365               0.000000000               0.318542033              -0.426984773               0.000000000               0.337361355              -0.451323182               0.000000000               0.356180678              -0.475661591               0.000000000               0.375000000              -0.500000000               0.000000000               0.062695766              -0.117295528               0.000000000               0.078308531              -0.141214558               0.000000000               0.093921295              -0.165133587               0.000000000               0.109534060              -0.189052617               0.000000000               0.125146824              -0.212971646               0.000000000               0.140759589              -0.236890676               0.000000000               0.156372354              -0.260809705               0.000000000               0.171985118              -0.284728735               0.000000000               0.187597883              -0.308647764               0.000000000               0.203210648              -0.332566794               0.000000000               0.218823412              -0.356485823               0.000000000               0.234436177              -0.380404853               0.000000000               0.250048941              -0.404323882               0.000000000               0.265661706              -0.428242912               0.000000000               0.281274471              -0.452161941               0.000000000               0.296887235              -0.476080971               0.000000000               0.312500000              -0.500000000               0.000000000               0.050896897              -0.122875978               0.000000000               0.063340840              -0.146446229               0.000000000               0.075784784              -0.170016481               0.000000000               0.088228728              -0.193586732               0.000000000               0.100672672              -0.217156983               0.000000000               0.113116616              -0.240727235               0.000000000               0.125560560              -0.264297486               0.000000000               0.138004504              -0.287867738               0.000000000               0.150448448              -0.311437989               0.000000000               0.162892392              -0.335008240               0.000000000               0.175336336              -0.358578492               0.000000000               0.187780280              -0.382148743               0.000000000               0.200224224              -0.405718994               0.000000000               0.212668168              -0.429289246               0.000000000               0.225112112              -0.452859497               0.000000000               0.237556056              -0.476429749               0.000000000               0.250000000              -0.500000000               0.000000000               0.038607862              -0.127273065               0.000000000               0.047913621              -0.150568498               0.000000000               0.057219379              -0.173863932               0.000000000               0.066525138              -0.197159365               0.000000000               0.075830897              -0.220454798               0.000000000               0.085136655              -0.243750232               0.000000000               0.094442414              -0.267045665               0.000000000               0.103748172              -0.290341099               0.000000000               0.113053931              -0.313636532               0.000000000               0.122359690              -0.336931966               0.000000000               0.131665448              -0.360227399               0.000000000               0.140971207              -0.383522833               0.000000000               0.150276966              -0.406818266               0.000000000               0.159582724              -0.430113700               0.000000000               0.168888483              -0.453409133               0.000000000               0.178194241              -0.476704567               0.000000000               0.187500000              -0.500000000               0.000000000               0.025947013              -0.130444442               0.000000000               0.032137825              -0.153541665               0.000000000               0.038328636              -0.176638887               0.000000000               0.044519448              -0.199736109               0.000000000               0.050710260              -0.222833332               0.000000000               0.056901071              -0.245930554               0.000000000               0.063091883              -0.269027776               0.000000000               0.069282695              -0.292124999               0.000000000               0.075473506              -0.315222221               0.000000000               0.081664318              -0.338319444               0.000000000               0.087855130              -0.361416666               0.000000000               0.094045942              -0.384513888               0.000000000               0.100236753              -0.407611111               0.000000000               0.106427565              -0.430708333               0.000000000               0.112618377              -0.453805555               0.000000000               0.118809188              -0.476902778               0.000000000               0.125000000              -0.500000000               0.000000000               0.013036280              -0.132359569               0.000000000               0.016127762              -0.155337096               0.000000000               0.019219245              -0.178314623               0.000000000               0.022310727              -0.201292150               0.000000000               0.025402210              -0.224269676               0.000000000               0.028493692              -0.247247203               0.000000000               0.031585175              -0.270224730               0.000000000               0.034676657              -0.293202257               0.000000000               0.037768140              -0.316179784               0.000000000               0.040859622              -0.339157311               0.000000000               0.043951105              -0.362134838               0.000000000               0.047042587              -0.385112365               0.000000000               0.050134070              -0.408089892               0.000000000               0.053225552              -0.431067419               0.000000000               0.056317035              -0.454044946               0.000000000               0.059408517              -0.477022473               0.000000000               0.062500000              -0.500000000               0.000000000               0.000000000              -0.133000000               0.000000000               0.000000000              -0.155937500               0.000000000               0.000000000              -0.178875000               0.000000000               0.000000000              -0.201812500               0.000000000               0.000000000              -0.224750000               0.000000000               0.000000000              -0.247687500               0.000000000               0.000000000              -0.270625000               0.000000000               0.000000000              -0.293562500               0.000000000               0.000000000              -0.316500000               0.000000000               0.000000000              -0.339437500               0.000000000               0.000000000              -0.362375000               0.000000000               0.000000000              -0.385312500               0.000000000               0.000000000              -0.408250000               0.000000000               0.000000000              -0.431187500               0.000000000               0.000000000              -0.454125000               0.000000000               0.000000000              -0.477062500               0.000000000               0.000000000              -0.500000000               0.000000000              -0.133000000               0.000000000               0.000000000              -0.155937500               0.000000000               0.000000000              -0.178875000               0.000000000               0.000000000              -0.201812500               0.000000000               0.000000000              -0.224750000               0.000000000               0.000000000              -0.247687500               0.000000000               0.000000000              -0.270625000               0.000000000               0.000000000              -0.293562500               0.000000000               0.000000000              -0.316500000               0.000000000               0.000000000              -0.339437500               0.000000000               0.000000000              -0.362375000               0.000000000               0.000000000              -0.385312500               0.000000000               0.000000000              -0.408250000               0.000000000               0.000000000              -0.431187500               0.000000000               0.000000000              -0.454125000               0.000000000               0.000000000              -0.477062500               0.000000000               0.000000000              -0.500000000               0.000000000               0.000000000              -0.132359569              -0.013036280               0.000000000              -0.155337096              -0.016127762               0.000000000              -0.178314623              -0.019219245               0.000000000              -0.201292150              -0.022310727               0.000000000              -0.224269676              -0.025402210               0.000000000              -0.247247203              -0.028493692               0.000000000              -0.270224730              -0.031585175               0.000000000              -0.293202257              -0.034676657               0.000000000              -0.316179784              -0.037768140               0.000000000              -0.339157311              -0.040859622               0.000000000              -0.362134838              -0.043951105               0.000000000              -0.385112365              -0.047042587               0.000000000              -0.408089892              -0.050134070               0.000000000              -0.431067419              -0.053225552               0.000000000              -0.454044946              -0.056317035               0.000000000              -0.477022473              -0.059408517               0.000000000              -0.500000000              -0.062500000               0.000000000              -0.130444442              -0.025947013               0.000000000              -0.153541665              -0.032137825               0.000000000              -0.176638887              -0.038328636               0.000000000              -0.199736109              -0.044519448               0.000000000              -0.222833332              -0.050710260               0.000000000              -0.245930554              -0.056901071               0.000000000              -0.269027776              -0.063091883               0.000000000              -0.292124999              -0.069282695               0.000000000              -0.315222221              -0.075473506               0.000000000              -0.338319444              -0.081664318               0.000000000              -0.361416666              -0.087855130               0.000000000              -0.384513888              -0.094045942               0.000000000              -0.407611111              -0.100236753               0.000000000              -0.430708333              -0.106427565               0.000000000              -0.453805555              -0.112618377               0.000000000              -0.476902778              -0.118809188               0.000000000              -0.500000000              -0.125000000               0.000000000              -0.127273065              -0.038607862               0.000000000              -0.150568498              -0.047913621               0.000000000              -0.173863932              -0.057219379               0.000000000              -0.197159365              -0.066525138               0.000000000              -0.220454798              -0.075830897               0.000000000              -0.243750232              -0.085136655               0.000000000              -0.267045665              -0.094442414               0.000000000              -0.290341099              -0.103748172               0.000000000              -0.313636532              -0.113053931               0.000000000              -0.336931966              -0.122359690               0.000000000              -0.360227399              -0.131665448               0.000000000              -0.383522833              -0.140971207               0.000000000              -0.406818266              -0.150276966               0.000000000              -0.430113700              -0.159582724               0.000000000              -0.453409133              -0.168888483               0.000000000              -0.476704567              -0.178194241               0.000000000              -0.500000000              -0.187500000               0.000000000              -0.122875978              -0.050896897               0.000000000              -0.146446229              -0.063340840               0.000000000              -0.170016481              -0.075784784               0.000000000              -0.193586732              -0.088228728               0.000000000              -0.217156983              -0.100672672               0.000000000              -0.240727235              -0.113116616               0.000000000              -0.264297486              -0.125560560               0.000000000              -0.287867738              -0.138004504               0.000000000              -0.311437989              -0.150448448               0.000000000              -0.335008240              -0.162892392               0.000000000              -0.358578492              -0.175336336               0.000000000              -0.382148743              -0.187780280               0.000000000              -0.405718994              -0.200224224               0.000000000              -0.429289246              -0.212668168               0.000000000              -0.452859497              -0.225112112               0.000000000              -0.476429749              -0.237556056               0.000000000              -0.500000000              -0.250000000               0.000000000              -0.117295528              -0.062695766               0.000000000              -0.141214558              -0.078308531               0.000000000              -0.165133587              -0.093921295               0.000000000              -0.189052617              -0.109534060               0.000000000              -0.212971646              -0.125146824               0.000000000              -0.236890676              -0.140759589               0.000000000              -0.260809705              -0.156372354               0.000000000              -0.284728735              -0.171985118               0.000000000              -0.308647764              -0.187597883               0.000000000              -0.332566794              -0.203210648               0.000000000              -0.356485823              -0.218823412               0.000000000              -0.380404853              -0.234436177               0.000000000              -0.404323882              -0.250048941               0.000000000              -0.428242912              -0.265661706               0.000000000              -0.452161941              -0.281274471               0.000000000              -0.476080971              -0.296887235               0.000000000              -0.500000000              -0.312500000               0.000000000              -0.110585458              -0.073890841               0.000000000              -0.134923867              -0.092710163               0.000000000              -0.159262276              -0.111529486               0.000000000              -0.183600685              -0.130348808               0.000000000              -0.207939094              -0.149168131               0.000000000              -0.232277503              -0.167987453               0.000000000              -0.256615912              -0.186806776               0.000000000              -0.280954320              -0.205626098               0.000000000              -0.305292729              -0.224445420               0.000000000              -0.329631138              -0.243264743               0.000000000              -0.353969547              -0.262084065               0.000000000              -0.378307956              -0.280903388               0.000000000              -0.402646365              -0.299722710               0.000000000              -0.426984773              -0.318542033               0.000000000              -0.451323182              -0.337361355               0.000000000              -0.475661591              -0.356180678               0.000000000              -0.500000000              -0.375000000               0.000000000              -0.102810390              -0.084374307               0.000000000              -0.127634741              -0.106444663               0.000000000              -0.152459092              -0.128515018               0.000000000              -0.177283442              -0.150585374               0.000000000              -0.202107793              -0.172655730               0.000000000              -0.226932143              -0.194726086               0.000000000              -0.251756494              -0.216796442               0.000000000              -0.276580845              -0.238866798               0.000000000              -0.301405195              -0.260937153               0.000000000              -0.326229546              -0.283007509               0.000000000              -0.351053896              -0.305077865               0.000000000              -0.375878247              -0.327148221               0.000000000              -0.400702598              -0.349218577               0.000000000              -0.425526948              -0.371288933               0.000000000              -0.450351299              -0.393359288               0.000000000              -0.475175649              -0.415429644               0.000000000              -0.500000000              -0.437500000               0.000000000              -0.094045202              -0.094045202               0.000000000              -0.119417377              -0.119417377               0.000000000              -0.144789552              -0.144789552               0.000000000              -0.170161727              -0.170161727               0.000000000              -0.195533901              -0.195533901               0.000000000              -0.220906076              -0.220906076               0.000000000              -0.246278251              -0.246278251               0.000000000              -0.271650426              -0.271650426               0.000000000              -0.297022601              -0.297022601               0.000000000              -0.322394776              -0.322394776               0.000000000              -0.347766951              -0.347766951               0.000000000              -0.373139126              -0.373139126               0.000000000              -0.398511300              -0.398511300               0.000000000              -0.423883475              -0.423883475               0.000000000              -0.449255650              -0.449255650               0.000000000              -0.474627825              -0.474627825               0.000000000              -0.500000000              -0.500000000               0.000000000              -0.084374307              -0.102810390               0.000000000              -0.106444663              -0.127634741               0.000000000              -0.128515018              -0.152459092               0.000000000              -0.150585374              -0.177283442               0.000000000              -0.172655730              -0.202107793               0.000000000              -0.194726086              -0.226932143               0.000000000              -0.216796442              -0.251756494               0.000000000              -0.238866798              -0.276580845               0.000000000              -0.260937153              -0.301405195               0.000000000              -0.283007509              -0.326229546               0.000000000              -0.305077865              -0.351053896               0.000000000              -0.327148221              -0.375878247               0.000000000              -0.349218577              -0.400702598               0.000000000              -0.371288933              -0.425526948               0.000000000              -0.393359288              -0.450351299               0.000000000              -0.415429644              -0.475175649               0.000000000              -0.437500000              -0.500000000               0.000000000              -0.073890841              -0.110585458               0.000000000              -0.092710163              -0.134923867               0.000000000              -0.111529486              -0.159262276               0.000000000              -0.130348808              -0.183600685               0.000000000              -0.149168131              -0.207939094               0.000000000              -0.167987453              -0.232277503               0.000000000              -0.186806776              -0.256615912               0.000000000              -0.205626098              -0.280954320               0.000000000              -0.224445420              -0.305292729               0.000000000              -0.243264743              -0.329631138               0.000000000              -0.262084065              -0.353969547               0.000000000              -0.280903388              -0.378307956               0.000000000              -0.299722710              -0.402646365               0.000000000              -0.318542033              -0.426984773               0.000000000              -0.337361355              -0.451323182               0.000000000              -0.356180678              -0.475661591               0.000000000              -0.375000000              -0.500000000               0.000000000              -0.062695766              -0.117295528               0.000000000              -0.078308531              -0.141214558               0.000000000              -0.093921295              -0.165133587               0.000000000              -0.109534060              -0.189052617               0.000000000              -0.125146824              -0.212971646               0.000000000              -0.140759589              -0.236890676               0.000000000              -0.156372354              -0.260809705               0.000000000              -0.171985118              -0.284728735               0.000000000              -0.187597883              -0.308647764               0.000000000              -0.203210648              -0.332566794               0.000000000              -0.218823412              -0.356485823               0.000000000              -0.234436177              -0.380404853               0.000000000              -0.250048941              -0.404323882               0.000000000              -0.265661706              -0.428242912               0.000000000              -0.281274471              -0.452161941               0.000000000              -0.296887235              -0.476080971               0.000000000              -0.312500000              -0.500000000               0.000000000              -0.050896897              -0.122875978               0.000000000              -0.063340840              -0.146446229               0.000000000              -0.075784784              -0.170016481               0.000000000              -0.088228728              -0.193586732               0.000000000              -0.100672672              -0.217156983               0.000000000              -0.113116616              -0.240727235               0.000000000              -0.125560560              -0.264297486               0.000000000              -0.138004504              -0.287867738               0.000000000              -0.150448448              -0.311437989               0.000000000              -0.162892392              -0.335008240               0.000000000              -0.175336336              -0.358578492               0.000000000              -0.187780280              -0.382148743               0.000000000              -0.200224224              -0.405718994               0.000000000              -0.212668168              -0.429289246               0.000000000              -0.225112112              -0.452859497               0.000000000              -0.237556056              -0.476429749               0.000000000              -0.250000000              -0.500000000               0.000000000              -0.038607862              -0.127273065               0.000000000              -0.047913621              -0.150568498               0.000000000              -0.057219379              -0.173863932               0.000000000              -0.066525138              -0.197159365               0.000000000              -0.075830897              -0.220454798               0.000000000              -0.085136655              -0.243750232               0.000000000              -0.094442414              -0.267045665               0.000000000              -0.103748172              -0.290341099               0.000000000              -0.113053931              -0.313636532               0.000000000              -0.122359690              -0.336931966               0.000000000              -0.131665448              -0.360227399               0.000000000              -0.140971207              -0.383522833               0.000000000              -0.150276966              -0.406818266               0.000000000              -0.159582724              -0.430113700               0.000000000              -0.168888483              -0.453409133               0.000000000              -0.178194241              -0.476704567               0.000000000              -0.187500000              -0.500000000               0.000000000              -0.025947013              -0.130444442               0.000000000              -0.032137825              -0.153541665               0.000000000              -0.038328636              -0.176638887               0.000000000              -0.044519448              -0.199736109               0.000000000              -0.050710260              -0.222833332               0.000000000              -0.056901071              -0.245930554               0.000000000              -0.063091883              -0.269027776               0.000000000              -0.069282695              -0.292124999               0.000000000              -0.075473506              -0.315222221               0.000000000              -0.081664318              -0.338319444               0.000000000              -0.087855130              -0.361416666               0.000000000              -0.094045942              -0.384513888               0.000000000              -0.100236753              -0.407611111               0.000000000              -0.106427565              -0.430708333               0.000000000              -0.112618377              -0.453805555               0.000000000              -0.118809188              -0.476902778               0.000000000              -0.125000000              -0.500000000               0.000000000              -0.013036280              -0.132359569               0.000000000              -0.016127762              -0.155337096               0.000000000              -0.019219245              -0.178314623               0.000000000              -0.022310727              -0.201292150               0.000000000              -0.025402210              -0.224269676               0.000000000              -0.028493692              -0.247247203               0.000000000              -0.031585175              -0.270224730               0.000000000              -0.034676657              -0.293202257               0.000000000              -0.037768140              -0.316179784               0.000000000              -0.040859622              -0.339157311               0.000000000              -0.043951105              -0.362134838               0.000000000              -0.047042587              -0.385112365               0.000000000              -0.050134070              -0.408089892               0.000000000              -0.053225552              -0.431067419               0.000000000              -0.056317035              -0.454044946               0.000000000              -0.059408517              -0.477022473               0.000000000              -0.062500000              -0.500000000               0.000000000               0.000000000              -0.133000000               0.000000000               0.000000000              -0.155937500               0.000000000               0.000000000              -0.178875000               0.000000000               0.000000000              -0.201812500               0.000000000               0.000000000              -0.224750000               0.000000000               0.000000000              -0.247687500               0.000000000               0.000000000              -0.270625000               0.000000000               0.000000000              -0.293562500               0.000000000               0.000000000              -0.316500000               0.000000000               0.000000000              -0.339437500               0.000000000               0.000000000              -0.362375000               0.000000000               0.000000000              -0.385312500               0.000000000               0.000000000              -0.408250000               0.000000000               0.000000000              -0.431187500               0.000000000               0.000000000              -0.454125000               0.000000000               0.000000000              -0.477062500               0.000000000               0.000000000              -0.500000000               0.000000000              -0.133000000               0.000000000               0.000000000              -0.155937500               0.000000000               0.000000000              -0.178875000               0.000000000               0.000000000              -0.201812500               0.000000000               0.000000000              -0.224750000               0.000000000               0.000000000              -0.247687500               0.000000000               0.000000000              -0.270625000               0.000000000               0.000000000              -0.293562500               0.000000000               0.000000000              -0.316500000               0.000000000               0.000000000              -0.339437500               0.000000000               0.000000000              -0.362375000               0.000000000               0.000000000              -0.385312500               0.000000000               0.000000000              -0.408250000               0.000000000               0.000000000              -0.431187500               0.000000000               0.000000000              -0.454125000               0.000000000               0.000000000              -0.477062500               0.000000000               0.000000000              -0.500000000               0.000000000               0.000000000              -0.132359569               0.013036280               0.000000000              -0.155337096               0.016127762               0.000000000              -0.178314623               0.019219245               0.000000000              -0.201292150               0.022310727               0.000000000              -0.224269676               0.025402210               0.000000000              -0.247247203               0.028493692               0.000000000              -0.270224730               0.031585175               0.000000000              -0.293202257               0.034676657               0.000000000              -0.316179784               0.037768140               0.000000000              -0.339157311               0.040859622               0.000000000              -0.362134838               0.043951105               0.000000000              -0.385112365               0.047042587               0.000000000              -0.408089892               0.050134070               0.000000000              -0.431067419               0.053225552               0.000000000              -0.454044946               0.056317035               0.000000000              -0.477022473               0.059408517               0.000000000              -0.500000000               0.062500000               0.000000000              -0.130444442               0.025947013               0.000000000              -0.153541665               0.032137825               0.000000000              -0.176638887               0.038328636               0.000000000              -0.199736109               0.044519448               0.000000000              -0.222833332               0.050710260               0.000000000              -0.245930554               0.056901071               0.000000000              -0.269027776               0.063091883               0.000000000              -0.292124999               0.069282695               0.000000000              -0.315222221               0.075473506               0.000000000              -0.338319444               0.081664318               0.000000000              -0.361416666               0.087855130               0.000000000              -0.384513888               0.094045942               0.000000000              -0.407611111               0.100236753               0.000000000              -0.430708333               0.106427565               0.000000000              -0.453805555               0.112618377               0.000000000              -0.476902778               0.118809188               0.000000000              -0.500000000               0.125000000               0.000000000              -0.127273065               0.038607862               0.000000000              -0.150568498               0.047913621               0.000000000              -0.173863932               0.057219379               0.000000000              -0.197159365               0.066525138               0.000000000              -0.220454798               0.075830897               0.000000000              -0.243750232               0.085136655               0.000000000              -0.267045665               0.094442414               0.000000000              -0.290341099               0.103748172               0.000000000              -0.313636532               0.113053931               0.000000000              -0.336931966               0.122359690               0.000000000              -0.360227399               0.131665448               0.000000000              -0.383522833               0.140971207               0.000000000              -0.406818266               0.150276966               0.000000000              -0.430113700               0.159582724               0.000000000              -0.453409133               0.168888483               0.000000000              -0.476704567               0.178194241               0.000000000              -0.500000000               0.187500000               0.000000000              -0.122875978               0.050896897               0.000000000              -0.146446229               0.063340840               0.000000000              -0.170016481               0.075784784               0.000000000              -0.193586732               0.088228728               0.000000000              -0.217156983               0.100672672               0.000000000              -0.240727235               0.113116616               0.000000000              -0.264297486               0.125560560               0.000000000              -0.287867738               0.138004504               0.000000000              -0.311437989               0.150448448               0.000000000              -0.335008240               0.162892392               0.000000000              -0.358578492               0.175336336               0.000000000              -0.382148743               0.187780280               0.000000000              -0.405718994               0.200224224               0.000000000              -0.429289246               0.212668168               0.000000000              -0.452859497               0.225112112               0.000000000              -0.476429749               0.237556056               0.000000000              -0.500000000               0.250000000               0.000000000              -0.117295528               0.062695766               0.000000000              -0.141214558               0.078308531               0.000000000              -0.165133587               0.093921295               0.000000000              -0.189052617               0.109534060               0.000000000              -0.212971646               0.125146824               0.000000000              -0.236890676               0.140759589               0.000000000              -0.260809705               0.156372354               0.000000000              -0.284728735               0.171985118               0.000000000              -0.308647764               0.187597883               0.000000000              -0.332566794               0.203210648               0.000000000              -0.356485823               0.218823412               0.000000000              -0.380404853               0.234436177               0.000000000              -0.404323882               0.250048941               0.000000000              -0.428242912               0.265661706               0.000000000              -0.452161941               0.281274471               0.000000000              -0.476080971               0.296887235               0.000000000              -0.500000000               0.312500000               0.000000000              -0.110585458               0.073890841               0.000000000              -0.134923867               0.092710163               0.000000000              -0.159262276               0.111529486               0.000000000              -0.183600685               0.130348808               0.000000000              -0.207939094               0.149168131               0.000000000              -0.232277503               0.167987453               0.000000000              -0.256615912               0.186806776               0.000000000              -0.280954320               0.205626098               0.000000000              -0.305292729               0.224445420               0.000000000              -0.329631138               0.243264743               0.000000000              -0.353969547               0.262084065               0.000000000              -0.378307956               0.280903388               0.000000000              -0.402646365               0.299722710               0.000000000              -0.426984773               0.318542033               0.000000000              -0.451323182               0.337361355               0.000000000              -0.475661591               0.356180678               0.000000000              -0.500000000               0.375000000               0.000000000              -0.102810390               0.084374307               0.000000000              -0.127634741               0.106444663               0.000000000              -0.152459092               0.128515018               0.000000000              -0.177283442               0.150585374               0.000000000              -0.202107793               0.172655730               0.000000000              -0.226932143               0.194726086               0.000000000              -0.251756494               0.216796442               0.000000000              -0.276580845               0.238866798               0.000000000              -0.301405195               0.260937153               0.000000000              -0.326229546               0.283007509               0.000000000              -0.351053896               0.305077865               0.000000000              -0.375878247               0.327148221               0.000000000              -0.400702598               0.349218577               0.000000000              -0.425526948               0.371288933               0.000000000              -0.450351299               0.393359288               0.000000000              -0.475175649               0.415429644               0.000000000              -0.500000000               0.437500000               0.000000000              -0.094045202               0.094045202               0.000000000              -0.119417377               0.119417377               0.000000000              -0.144789552               0.144789552               0.000000000              -0.170161727               0.170161727               0.000000000              -0.195533901               0.195533901               0.000000000              -0.220906076               0.220906076               0.000000000              -0.246278251               0.246278251               0.000000000              -0.271650426               0.271650426               0.000000000              -0.297022601               0.297022601               0.000000000              -0.322394776               0.322394776               0.000000000              -0.347766951               0.347766951               0.000000000              -0.373139126               0.373139126               0.000000000              -0.398511300               0.398511300               0.000000000              -0.423883475               0.423883475               0.000000000              -0.449255650               0.449255650               0.000000000              -0.474627825               0.474627825               0.000000000              -0.500000000               0.500000000               0.000000000              -0.084374307               0.102810390               0.000000000              -0.106444663               0.127634741               0.000000000              -0.128515018               0.152459092               0.000000000              -0.150585374               0.177283442               0.000000000              -0.172655730               0.202107793               0.000000000              -0.194726086               0.226932143               0.000000000              -0.216796442               0.251756494               0.000000000              -0.238866798               0.276580845               0.000000000              -0.260937153               0.301405195               0.000000000              -0.283007509               0.326229546               0.000000000              -0.305077865               0.351053896               0.000000000              -0.327148221               0.375878247               0.000000000              -0.349218577               0.400702598               0.000000000              -0.371288933               0.425526948               0.000000000              -0.393359288               0.450351299               0.000000000              -0.415429644               0.475175649               0.000000000              -0.437500000               0.500000000               0.000000000              -0.073890841               0.110585458               0.000000000              -0.092710163               0.134923867               0.000000000              -0.111529486               0.159262276               0.000000000              -0.130348808               0.183600685               0.000000000              -0.149168131               0.207939094               0.000000000              -0.167987453               0.232277503               0.000000000              -0.186806776               0.256615912               0.000000000              -0.205626098               0.280954320               0.000000000              -0.224445420               0.305292729               0.000000000              -0.243264743               0.329631138               0.000000000              -0.262084065               0.353969547               0.000000000              -0.280903388               0.378307956               0.000000000              -0.299722710               0.402646365               0.000000000              -0.318542033               0.426984773               0.000000000              -0.337361355               0.451323182               0.000000000              -0.356180678               0.475661591               0.000000000              -0.375000000               0.500000000               0.000000000              -0.062695766               0.117295528               0.000000000              -0.078308531               0.141214558               0.000000000              -0.093921295               0.165133587               0.000000000              -0.109534060               0.189052617               0.000000000              -0.125146824               0.212971646               0.000000000              -0.140759589               0.236890676               0.000000000              -0.156372354               0.260809705               0.000000000              -0.171985118               0.284728735               0.000000000              -0.187597883               0.308647764               0.000000000              -0.203210648               0.332566794               0.000000000              -0.218823412               0.356485823               0.000000000              -0.234436177               0.380404853               0.000000000              -0.250048941               0.404323882               0.000000000              -0.265661706               0.428242912               0.000000000              -0.281274471               0.452161941               0.000000000              -0.296887235               0.476080971               0.000000000              -0.312500000               0.500000000               0.000000000              -0.050896897               0.122875978               0.000000000              -0.063340840               0.146446229               0.000000000              -0.075784784               0.170016481               0.000000000              -0.088228728               0.193586732               0.000000000              -0.100672672               0.217156983               0.000000000              -0.113116616               0.240727235               0.000000000              -0.125560560               0.264297486               0.000000000              -0.138004504               0.287867738               0.000000000              -0.150448448               0.311437989               0.000000000              -0.162892392               0.335008240               0.000000000              -0.175336336               0.358578492               0.000000000              -0.187780280               0.382148743               0.000000000              -0.200224224               0.405718994               0.000000000              -0.212668168               0.429289246               0.000000000              -0.225112112               0.452859497               0.000000000              -0.237556056               0.476429749               0.000000000              -0.250000000               0.500000000               0.000000000              -0.038607862               0.127273065               0.000000000              -0.047913621               0.150568498               0.000000000              -0.057219379               0.173863932               0.000000000              -0.066525138               0.197159365               0.000000000              -0.075830897               0.220454798               0.000000000              -0.085136655               0.243750232               0.000000000              -0.094442414               0.267045665               0.000000000              -0.103748172               0.290341099               0.000000000              -0.113053931               0.313636532               0.000000000              -0.122359690               0.336931966               0.000000000              -0.131665448               0.360227399               0.000000000              -0.140971207               0.383522833               0.000000000              -0.150276966               0.406818266               0.000000000              -0.159582724               0.430113700               0.000000000              -0.168888483               0.453409133               0.000000000              -0.178194241               0.476704567               0.000000000              -0.187500000               0.500000000               0.000000000              -0.025947013               0.130444442               0.000000000              -0.032137825               0.153541665               0.000000000              -0.038328636               0.176638887               0.000000000              -0.044519448               0.199736109               0.000000000              -0.050710260               0.222833332               0.000000000              -0.056901071               0.245930554               0.000000000              -0.063091883               0.269027776               0.000000000              -0.069282695               0.292124999               0.000000000              -0.075473506               0.315222221               0.000000000              -0.081664318               0.338319444               0.000000000              -0.087855130               0.361416666               0.000000000              -0.094045942               0.384513888               0.000000000              -0.100236753               0.407611111               0.000000000              -0.106427565               0.430708333               0.000000000              -0.112618377               0.453805555               0.000000000              -0.118809188               0.476902778               0.000000000              -0.125000000               0.500000000               0.000000000              -0.013036280               0.132359569               0.000000000              -0.016127762               0.155337096               0.000000000              -0.019219245               0.178314623               0.000000000              -0.022310727               0.201292150               0.000000000              -0.025402210               0.224269676               0.000000000              -0.028493692               0.247247203               0.000000000              -0.031585175               0.270224730               0.000000000              -0.034676657               0.293202257               0.000000000              -0.037768140               0.316179784               0.000000000              -0.040859622               0.339157311               0.000000000              -0.043951105               0.362134838               0.000000000              -0.047042587               0.385112365               0.000000000              -0.050134070               0.408089892               0.000000000              -0.053225552               0.431067419               0.000000000              -0.056317035               0.454044946               0.000000000              -0.059408517               0.477022473               0.000000000              -0.062500000               0.500000000               0.000000000               0.000000000               0.133000000               0.000000000               0.000000000               0.155937500               0.000000000               0.000000000               0.178875000               0.000000000               0.000000000               0.201812500               0.000000000               0.000000000               0.224750000               0.000000000               0.000000000               0.247687500               0.000000000               0.000000000               0.270625000               0.000000000               0.000000000               0.293562500               0.000000000               0.000000000               0.316500000               0.000000000               0.000000000               0.339437500               0.000000000               0.000000000               0.362375000               0.000000000               0.000000000               0.385312500               0.000000000               0.000000000               0.408250000               0.000000000               0.000000000               0.431187500               0.000000000               0.000000000               0.454125000               0.000000000               0.000000000               0.477062500               0.000000000               0.000000000               0.500000000               0.000000000 </DataArray>
</Points>
<Cells>
<DataArray type="Int32"                                    Name="connectivity"                                                      NumberOfComponents=" 1" format="ascii">
         0          1         18         17          1          2         19         18          2          3         20         19          3          4         21         20          4          5         22         21          5          6         23         22          6          7         24         23          7          8         25         24          8          9         26         25          9         10         27         26         10         11         28         27         11         12         29         28         12         13         30         29         13         14         31         30         14         15         32         31         15         16         33         32         17         18         35         34         18         19         36         35         19         20         37         36         20         21         38         37         21         22         39         38         22         23         40         39         23         24         41         40         24         25         42         41         25         26         43         42         26         27         44         43         27         28         45         44         28         29         46         45         29         30         47         46         30         31         48         47         31         32         49         48         32         33         50         49         34         35         52         51         35         36         53         52         36         37         54         53         37         38         55         54         38         39         56         55         39         40         57         56         40         41         58         57         41         42         59         58         42         43         60         59         43         44         61         60         44         45         62         61         45         46         63         62         46         47         64         63         47         48         65         64         48         49         66         65         49         50         67         66         51         52         69         68         52         53         70         69         53         54         71         70         54         55         72         71         55         56         73         72         56         57         74         73         57         58         75         74         58         59         76         75         59         60         77         76         60         61         78         77         61         62         79         78         62         63         80         79         63         64         81         80         64         65         82         81         65         66         83         82         66         67         84         83         68         69         86         85         69         70         87         86         70         71         88         87         71         72         89         88         72         73         90         89         73         74         91         90         74         75         92         91         75         76         93         92         76         77         94         93         77         78         95         94         78         79         96         95         79         80         97         96         80         81         98         97         81         82         99         98         82         83        100         99         83         84        101        100         85         86        103        102         86         87        104        103         87         88        105        104         88         89        106        105         89         90        107        106         90         91        108        107         91         92        109        108         92         93        110        109         93         94        111        110         94         95        112        111         95         96        113        112         96         97        114        113         97         98        115        114         98         99        116        115         99        100        117        116        100        101        118        117        102        103        120        119        103        104        121        120        104        105        122        121        105        106        123        122        106        107        124        123        107        108        125        124        108        109        126        125        109        110        127        126        110        111        128        127        111        112        129        128        112        113        130        129        113        114        131        130        114        115        132        131        115        116        133        132        116        117        134        133        117        118        135        134        119        120        137        136        120        121        138        137        121        122        139        138        122        123        140        139        123        124        141        140        124        125        142        141        125        126        143        142        126        127        144        143        127        128        145        144        128        129        146        145        129        130        147        146        130        131        148        147        131        132        149        148        132        133        150        149        133        134        151        150        134        135        152        151        136        137        154        153        137        138        155        154        138        139        156        155        139        140        157        156        140        141        158        157        141        142        159        158        142        143        160        159        143        144        161        160        144        145        162        161        145        146        163        162        146        147        164        163        147        148        165        164        148        149        166        165        149        150        167        166        150        151        168        167        151        152        169        168        153        154        171        170        154        155        172        171        155        156        173        172        156        157        174        173        157        158        175        174        158        159        176        175        159        160        177        176        160        161        178        177        161        162        179        178        162        163        180        179        163        164        181        180        164        165        182        181        165        166        183        182        166        167        184        183        167        168        185        184        168        169        186        185        170        171        188        187        171        172        189        188        172        173        190        189        173        174        191        190        174        175        192        191        175        176        193        192        176        177        194        193        177        178        195        194        178        179        196        195        179        180        197        196        180        181        198        197        181        182        199        198        182        183        200        199        183        184        201        200        184        185        202        201        185        186        203        202        187        188        205        204        188        189        206        205        189        190        207        206        190        191        208        207        191        192        209        208        192        193        210        209        193        194        211        210        194        195        212        211        195        196        213        212        196        197        214        213        197        198        215        214        198        199        216        215        199        200        217        216        200        201        218        217        201        202        219        218        202        203        220        219        204        205        222        221        205        206        223        222        206        207        224        223        207        208        225        224        208        209        226        225        209        210        227        226        210        211        228        227        211        212        229        228        212        213        230        229        213        214        231        230        214        215        232        231        215        216        233        232        216        217        234        233        217        218        235        234        218        219        236        235        219        220        237        236        221        222        239        238        222        223        240        239        223        224        241        240        224        225        242        241        225        226        243        242        226        227        244        243        227        228        245        244        228        229        246        245        229        230        247        246        230        231        248        247        231        232        249        248        232        233        250        249        233        234        251        250        234        235        252        251        235        236        253        252        236        237        254        253        238        239        256        255        239        240        257        256        240        241        258        257        241        242        259        258        242        243        260        259        243        244        261        260        244        245        262        261        245        246        263        262        246        247        264        263        247        248        265        264        248        249        266        265        249        250        267        266        250        251        268        267        251        252        269        268        252        253        270        269        253        254        271        270        255        256        273        272        256        257        274        273        257        258        275        274        258        259        276        275        259        260        277        276        260        261        278        277        261        262        279        278        262        263        280        279        263        264        281        280        264        265        282        281        265        266        283        282        266        267        284        283        267        268        285        284        268        269        286        285        269        270        287        286        270        271        288        287        306        307          1          0        307        308          2          1        308        309          3          2        309        310          4          3        310        311          5          4        311        312          6          5        312        313          7          6        313        314          8          7        314        315          9          8        315        316         10          9        316        317         11         10        317        318         12         11        318        319         13         12        319        320         14         13        320        321         15         14        321        322         16         15        323        324        307        306        324        325        308        307        325        326        309        308        326        327        310        309        327        328        311        310        328        329        312        311        329        330        313        312        330        331        314        313        331        332        315        314        332        333        316        315        333        334        317        316        334        335        318        317        335        336        319        318        336        337        320        319        337        338        321        320        338        339        322        321        340        341        324        323        341        342        325        324        342        343        326        325        343        344        327        326        344        345        328        327        345        346        329        328        346        347        330        329        347        348        331        330        348        349        332        331        349        350        333        332        350        351        334        333        351        352        335        334        352        353        336        335        353        354        337        336        354        355        338        337        355        356        339        338        357        358        341        340        358        359        342        341        359        360        343        342        360        361        344        343        361        362        345        344        362        363        346        345        363        364        347        346        364        365        348        347        365        366        349        348        366        367        350        349        367        368        351        350        368        369        352        351        369        370        353        352        370        371        354        353        371        372        355        354        372        373        356        355        374        375        358        357        375        376        359        358        376        377        360        359        377        378        361        360        378        379        362        361        379        380        363        362        380        381        364        363        381        382        365        364        382        383        366        365        383        384        367        366        384        385        368        367        385        386        369        368        386        387        370        369        387        388        371        370        388        389        372        371        389        390        373        372        391        392        375        374        392        393        376        375        393        394        377        376        394        395        378        377        395        396        379        378        396        397        380        379        397        398        381        380        398        399        382        381        399        400        383        382        400        401        384        383        401        402        385        384        402        403        386        385        403        404        387        386        404        405        388        387        405        406        389        388        406        407        390        389        408        409        392        391        409        410        393        392        410        411        394        393        411        412        395        394        412        413        396        395        413        414        397        396        414        415        398        397        415        416        399        398        416        417        400        399        417        418        401        400        418        419        402        401        419        420        403        402        420        421        404        403        421        422        405        404        422        423        406        405        423        424        407        406        425        426        409        408        426        427        410        409        427        428        411        410        428        429        412        411        429        430        413        412        430        431        414        413        431        432        415        414        432        433        416        415        433        434        417        416        434        435        418        417        435        436        419        418        436        437        420        419        437        438        421        420        438        439        422        421        439        440        423        422        440        441        424        423        442        443        426        425        443        444        427        426        444        445        428        427        445        446        429        428        446        447        430        429        447        448        431        430        448        449        432        431        449        450        433        432        450        451        434        433        451        452        435        434        452        453        436        435        453        454        437        436        454        455        438        437        455        456        439        438        456        457        440        439        457        458        441        440        459        460        443        442        460        461        444        443        461        462        445        444        462        463        446        445        463        464        447        446        464        465        448        447        465        466        449        448        466        467        450        449        467        468        451        450        468        469        452        451        469        470        453        452        470        471        454        453        471        472        455        454        472        473        456        455        473        474        457        456        474        475        458        457        476        477        460        459        477        478        461        460        478        479        462        461        479        480        463        462        480        481        464        463        481        482        465        464        482        483        466        465        483        484        467        466        484        485        468        467        485        486        469        468        486        487        470        469        487        488        471        470        488        489        472        471        489        490        473        472        490        491        474        473        491        492        475        474        493        494        477        476        494        495        478        477        495        496        479        478        496        497        480        479        497        498        481        480        498        499        482        481        499        500        483        482        500        501        484        483        501        502        485        484        502        503        486        485        503        504        487        486        504        505        488        487        505        506        489        488        506        507        490        489        507        508        491        490        508        509        492        491        510        511        494        493        511        512        495        494        512        513        496        495        513        514        497        496        514        515        498        497        515        516        499        498        516        517        500        499        517        518        501        500        518        519        502        501        519        520        503        502        520        521        504        503        521        522        505        504        522        523        506        505        523        524        507        506        524        525        508        507        525        526        509        508        527        528        511        510        528        529        512        511        529        530        513        512        530        531        514        513        531        532        515        514        532        533        516        515        533        534        517        516        534        535        518        517        535        536        519        518        536        537        520        519        537        538        521        520        538        539        522        521        539        540        523        522        540        541        524        523        541        542        525        524        542        543        526        525        544        545        528        527        545        546        529        528        546        547        530        529        547        548        531        530        548        549        532        531        549        550        533        532        550        551        534        533        551        552        535        534        552        553        536        535        553        554        537        536        554        555        538        537        555        556        539        538        556        557        540        539        557        558        541        540        558        559        542        541        559        560        543        542        561        562        545        544        562        563        546        545        563        564        547        546        564        565        548        547        565        566        549        548        566        567        550        549        567        568        551        550        568        569        552        551        569        570        553        552        570        571        554        553        571        572        555        554        572        573        556        555        573        574        557        556        574        575        558        557        575        576        559        558        576        577        560        559        578        579        596        595        579        580        597        596        580        581        598        597        581        582        599        598        582        583        600        599        583        584        601        600        584        585        602        601        585        586        603        602        586        587        604        603        587        588        605        604        588        589        606        605        589        590        607        606        590        591        608        607        591        592        609        608        592        593        610        609        593        594        611        610        595        596        613        612        596        597        614        613        597        598        615        614        598        599        616        615        599        600        617        616        600        601        618        617        601        602        619        618        602        603        620        619        603        604        621        620        604        605        622        621        605        606        623        622        606        607        624        623        607        608        625        624        608        609        626        625        609        610        627        626        610        611        628        627        612        613        630        629        613        614        631        630        614        615        632        631        615        616        633        632        616        617        634        633        617        618        635        634        618        619        636        635        619        620        637        636        620        621        638        637        621        622        639        638        622        623        640        639        623        624        641        640        624        625        642        641        625        626        643        642        626        627        644        643        627        628        645        644        629        630        647        646        630        631        648        647        631        632        649        648        632        633        650        649        633        634        651        650        634        635        652        651        635        636        653        652        636        637        654        653        637        638        655        654        638        639        656        655        639        640        657        656        640        641        658        657        641        642        659        658        642        643        660        659        643        644        661        660        644        645        662        661        646        647        664        663        647        648        665        664        648        649        666        665        649        650        667        666        650        651        668        667        651        652        669        668        652        653        670        669        653        654        671        670        654        655        672        671        655        656        673        672        656        657        674        673        657        658        675        674        658        659        676        675        659        660        677        676        660        661        678        677        661        662        679        678        663        664        681        680        664        665        682        681        665        666        683        682        666        667        684        683        667        668        685        684        668        669        686        685        669        670        687        686        670        671        688        687        671        672        689        688        672        673        690        689        673        674        691        690        674        675        692        691        675        676        693        692        676        677        694        693        677        678        695        694        678        679        696        695        680        681        698        697        681        682        699        698        682        683        700        699        683        684        701        700        684        685        702        701        685        686        703        702        686        687        704        703        687        688        705        704        688        689        706        705        689        690        707        706        690        691        708        707        691        692        709        708        692        693        710        709        693        694        711        710        694        695        712        711        695        696        713        712        697        698        715        714        698        699        716        715        699        700        717        716        700        701        718        717        701        702        719        718        702        703        720        719        703        704        721        720        704        705        722        721        705        706        723        722        706        707        724        723        707        708        725        724        708        709        726        725        709        710        727        726        710        711        728        727        711        712        729        728        712        713        730        729        714        715        732        731        715        716        733        732        716        717        734        733        717        718        735        734        718        719        736        735        719        720        737        736        720        721        738        737        721        722        739        738        722        723        740        739        723        724        741        740        724        725        742        741        725        726        743        742        726        727        744        743        727        728        745        744        728        729        746        745        729        730        747        746        731        732        749        748        732        733        750        749        733        734        751        750        734        735        752        751        735        736        753        752        736        737        754        753        737        738        755        754        738        739        756        755        739        740        757        756        740        741        758        757        741        742        759        758        742        743        760        759        743        744        761        760        744        745        762        761        745        746        763        762        746        747        764        763        748        749        766        765        749        750        767        766        750        751        768        767        751        752        769        768        752        753        770        769        753        754        771        770        754        755        772        771        755        756        773        772        756        757        774        773        757        758        775        774        758        759        776        775        759        760        777        776        760        761        778        777        761        762        779        778        762        763        780        779        763        764        781        780        765        766        783        782        766        767        784        783        767        768        785        784        768        769        786        785        769        770        787        786        770        771        788        787        771        772        789        788        772        773        790        789        773        774        791        790        774        775        792        791        775        776        793        792        776        777        794        793        777        778        795        794        778        779        796        795        779        780        797        796        780        781        798        797        782        783        800        799        783        784        801        800        784        785        802        801        785        786        803        802        786        787        804        803        787        788        805        804        788        789        806        805        789        790        807        806        790        791        808        807        791        792        809        808        792        793        810        809        793        794        811        810        794        795        812        811        795        796        813        812        796        797        814        813        797        798        815        814        799        800        817        816        800        801        818        817        801        802        819        818        802        803        820        819        803        804        821        820        804        805        822        821        805        806        823        822        806        807        824        823        807        808        825        824        808        809        826        825        809        810        827        826        810        811        828        827        811        812        829        828        812        813        830        829        813        814        831        830        814        815        832        831        816        817        834        833        817        818        835        834        818        819        836        835        819        820        837        836        820        821        838        837        821        822        839        838        822        823        840        839        823        824        841        840        824        825        842        841        825        826        843        842        826        827        844        843        827        828        845        844        828        829        846        845        829        830        847        846        830        831        848        847        831        832        849        848        833        834        562        561        834        835        563        562        835        836        564        563        836        837        565        564        837        838        566        565        838        839        567        566        839        840        568        567        840        841        569        568        841        842        570        569        842        843        571        570        843        844        572        571        844        845        573        572        845        846        574        573        846        847        575        574        847        848        576        575        848        849        577        576        884        885        579        578        885        886        580        579        886        887        581        580        887        888        582        581        888        889        583        582        889        890        584        583        890        891        585        584        891        892        586        585        892        893        587        586        893        894        588        587        894        895        589        588        895        896        590        589        896        897        591        590        897        898        592        591        898        899        593        592        899        900        594        593        901        902        885        884        902        903        886        885        903        904        887        886        904        905        888        887        905        906        889        888        906        907        890        889        907        908        891        890        908        909        892        891        909        910        893        892        910        911        894        893        911        912        895        894        912        913        896        895        913        914        897        896        914        915        898        897        915        916        899        898        916        917        900        899        918        919        902        901        919        920        903        902        920        921        904        903        921        922        905        904        922        923        906        905        923        924        907        906        924        925        908        907        925        926        909        908        926        927        910        909        927        928        911        910        928        929        912        911        929        930        913        912        930        931        914        913        931        932        915        914        932        933        916        915        933        934        917        916        935        936        919        918        936        937        920        919        937        938        921        920        938        939        922        921        939        940        923        922        940        941        924        923        941        942        925        924        942        943        926        925        943        944        927        926        944        945        928        927        945        946        929        928        946        947        930        929        947        948        931        930        948        949        932        931        949        950        933        932        950        951        934        933        952        953        936        935        953        954        937        936        954        955        938        937        955        956        939        938        956        957        940        939        957        958        941        940        958        959        942        941        959        960        943        942        960        961        944        943        961        962        945        944        962        963        946        945        963        964        947        946        964        965        948        947        965        966        949        948        966        967        950        949        967        968        951        950        969        970        953        952        970        971        954        953        971        972        955        954        972        973        956        955        973        974        957        956        974        975        958        957        975        976        959        958        976        977        960        959        977        978        961        960        978        979        962        961        979        980        963        962        980        981        964        963        981        982        965        964        982        983        966        965        983        984        967        966        984        985        968        967        986        987        970        969        987        988        971        970        988        989        972        971        989        990        973        972        990        991        974        973        991        992        975        974        992        993        976        975        993        994        977        976        994        995        978        977        995        996        979        978        996        997        980        979        997        998        981        980        998        999        982        981        999       1000        983        982       1000       1001        984        983       1001       1002        985        984       1003       1004        987        986       1004       1005        988        987       1005       1006        989        988       1006       1007        990        989       1007       1008        991        990       1008       1009        992        991       1009       1010        993        992       1010       1011        994        993       1011       1012        995        994       1012       1013        996        995       1013       1014        997        996       1014       1015        998        997       1015       1016        999        998       1016       1017       1000        999       1017       1018       1001       1000       1018       1019       1002       1001       1020       1021       1004       1003       1021       1022       1005       1004       1022       1023       1006       1005       1023       1024       1007       1006       1024       1025       1008       1007       1025       1026       1009       1008       1026       1027       1010       1009       1027       1028       1011       1010       1028       1029       1012       1011       1029       1030       1013       1012       1030       1031       1014       1013       1031       1032       1015       1014       1032       1033       1016       1015       1033       1034       1017       1016       1034       1035       1018       1017       1035       1036       1019       1018       1037       1038       1021       1020       1038       1039       1022       1021       1039       1040       1023       1022       1040       1041       1024       1023       1041       1042       1025       1024       1042       1043       1026       1025       1043       1044       1027       1026       1044       1045       1028       1027       1045       1046       1029       1028       1046       1047       1030       1029       1047       1048       1031       1030       1048       1049       1032       1031       1049       1050       1033       1032       1050       1051       1034       1033       1051       1052       1035       1034       1052       1053       1036       1035       1054       1055       1038       1037       1055       1056       1039       1038       1056       1057       1040       1039       1057       1058       1041       1040       1058       1059       1042       1041       1059       1060       1043       1042       1060       1061       1044       1043       1061       1062       1045       1044       1062       1063       1046       1045       1063       1064       1047       1046       1064       1065       1048       1047       1065       1066       1049       1048       1066       1067       1050       1049       1067       1068       1051       1050       1068       1069       1052       1051       1069       1070       1053       1052       1071       1072       1055       1054       1072       1073       1056       1055       1073       1074       1057       1056       1074       1075       1058       1057       1075       1076       1059       1058       1076       1077       1060       1059       1077       1078       1061       1060       1078       1079       1062       1061       1079       1080       1063       1062       1080       1081       1064       1063       1081       1082       1065       1064       1082       1083       1066       1065       1083       1084       1067       1066       1084       1085       1068       1067       1085       1086       1069       1068       1086       1087       1070       1069       1088       1089       1072       1071       1089       1090       1073       1072       1090       1091       1074       1073       1091       1092       1075       1074       1092       1093       1076       1075       1093       1094       1077       1076       1094       1095       1078       1077       1095       1096       1079       1078       1096       1097       1080       1079       1097       1098       1081       1080       1098       1099       1082       1081       1099       1100       1083       1082       1100       1101       1084       1083       1101       1102       1085       1084       1102       1103       1086       1085       1103       1104       1087       1086       1105       1106       1089       1088       1106       1107       1090       1089       1107       1108       1091       1090       1108       1109       1092       1091       1109       1110       1093       1092       1110       1111       1094       1093       1111       1112       1095       1094       1112       1113       1096       1095       1113       1114       1097       1096       1114       1115       1098       1097       1115       1116       1099       1098       1116       1117       1100       1099       1117       1118       1101       1100       1118       1119       1102       1101       1119       1120       1103       1102       1120       1121       1104       1103       1122       1123       1106       1105       1123       1124       1107       1106       1124       1125       1108       1107       1125       1126       1109       1108       1126       1127       1110       1109       1127       1128       1111       1110       1128       1129       1112       1111       1129       1130       1113       1112       1130       1131       1114       1113       1131       1132       1115       1114       1132       1133       1116       1115       1133       1134       1117       1116       1134       1135       1118       1117       1135       1136       1119       1118       1136       1137       1120       1119       1137       1138       1121       1120        272        273       1123       1122        273        274       1124       1123        274        275       1125       1124        275        276       1126       1125        276        277       1127       1126        277        278       1128       1127        278        279       1129       1128        279        280       1130       1129        280        281       1131       1130        281        282       1132       1131        282        283       1133       1132        283        284       1134       1133        284        285       1135       1134        285        286       1136       1135        286        287       1137       1136        287        288       1138       1137 </DataArray>
<DataArray type="Int32"                                    Name="offsets"                                                      NumberOfComponents=" 1" format="ascii">
         4          8         12         16         20         24         28         32         36         40         44         48         52         56         60         64         68         72         76         80         84         88         92         96        100        104        108        112        116        120        124        128        132        136        140        144        148        152        156        160        164        168        172        176        180        184        188        192        196        200        204        208        212        216        220        224        228        232        236        240        244        248        252        256        260        264        268        272        276        280        284        288        292        296        300        304        308        312        316        320        324        328        332        336        340        344        348        352        356        360        364        368        372        376        380        384        388        392        396        400        404        408        412        416        420        424        428        432        436        440        444        448        452        456        460        464        468        472        476        480        484        488        492        496        500        504        508        512        516        520        524        528        532        536        540        544        548        552        556        560        564        568        572        576        580        584        588        592        596        600        604        608        612        616        620        624        628        632        636        640        644        648        652        656        660        664        668        672        676        680        684        688        692        696        700        704        708        712        716        720        724        728        732        736        740        744        748        752        756        760        764        768        772        776        780        784        788        792        796        800        804        808        812        816        820        824        828        832        836        840        844        848        852        856        860        864        868        872        876        880        884        888        892        896        900        904        908        912        916        920        924        928        932        936        940        944        948        952        956        960        964        968        972        976        980        984        988        992        996       1000       1004       1008       1012       1016       1020       1024       1028       1032       1036       1040       1044       1048       1052       1056       1060       1064       1068       1072       1076       1080       1084       1088       1092       1096       1100       1104       1108       1112       1116       1120       1124       1128       1132       1136       1140       1144       1148       1152       1156       1160       1164       1168       1172       1176       1180       1184       1188       1192       1196       1200       1204       1208       1212       1216       1220       1224       1228       1232       1236       1240       1244       1248       1252       1256       1260       1264       1268       1272       1276       1280       1284       1288       1292       1296       1300       1304       1308       1312       1316       1320       1324       1328       1332       1336       1340       1344       1348       1352       1356       1360       1364       1368       1372       1376       1380       1384       1388       1392       1396       1400       1404       1408       1412       1416       1420       1424       1428       1432       1436       1440       1444       1448       1452       1456       1460       1464       1468       1472       1476       1480       1484       1488       1492       1496       1500       1504       1508       1512       1516       1520       1524       1528       1532       1536       1540       1544       1548       1552       1556       1560       1564       1568       1572       1576       1580       1584       1588       1592       1596       1600       1604       1608       1612       1616       1620       1624       1628       1632       1636       1640       1644       1648       1652       1656       1660       1664       1668       1672       1676       1680       1684       1688       1692       1696       1700       1704       1708       1712       1716       1720       1724       1728       1732       1736       1740       1744       1748       1752       1756       1760       1764       1768       1772       1776       1780       1784       1788       1792       1796       1800       1804       1808       1812       1816       1820       1824       1828       1832       1836       1840       1844       1848       1852       1856       1860       1864       1868       1872       1876       1880       1884       1888       1892       1896       1900       1904       1908       1912       1916       1920       1924       1928       1932       1936       1940       1944       1948       1952       1956       1960       1964       1968       1972       1976       1980       1984       1988       1992       1996       2000       2004       2008       2012       2016       2020       2024       2028       2032       2036       2040       2044       2048       2052       2056       2060       2064       2068       2072       2076       2080       2084       2088       2092       2096       2100       2104       2108       2112       2116       2120       2124       2128       2132       2136       2140       2144       2148       2152       2156       2160       2164       2168       2172       2176       2180       2184       2188       2192       2196       2200       2204       2208       2212       2216       2220       2224       2228       2232       2236       2240       2244       2248       2252       2256       2260       2264       2268       2272       2276       2280       2284       2288       2292       2296       2300       2304       2308       2312       2316       2320       2324       2328       2332       2336       2340       2344       2348       2352       2356       2360       2364       2368       2372       2376       2380       2384       2388       2392       2396       2400       2404       2408       2412       2416       2420       2424       2428       2432       2436       2440       2444       2448       2452       2456       2460       2464       2468       2472       2476       2480       2484       2488       2492       2496       2500       2504       2508       2512       2516       2520       2524       2528       2532       2536       2540       2544       2548       2552       2556       2560       2564       2568       2572       2576       2580       2584       2588       2592       2596       2600       2604       2608       2612       2616       2620       2624       2628       2632       2636       2640       2644       2648       2652       2656       2660       2664       2668       2672       2676       2680       2684       2688       2692       2696       2700       2704       2708       2712       2716       2720       2724       2728       2732       2736       2740       2744       2748       2752       2756       2760       2764       2768       2772       2776       2780       2784       2788       2792       2796       2800       2804       2808       2812       2816       2820       2824       2828       2832       2836       2840       2844       2848       2852       2856       2860       2864       2868       2872       2876       2880       2884       2888       2892       2896       2900       2904       2908       2912       2916       2920       2924       2928       2932       2936       2940       2944       2948       2952       2956       2960       2964       2968       2972       2976       2980       2984       2988       2992       2996       3000       3004       3008       3012       3016       3020       3024       3028       3032       3036       3040       3044       3048       3052       3056       3060       3064       3068       3072       3076       3080       3084       3088       3092       3096       3100       3104       3108       3112       3116       3120       3124       3128       3132       3136       3140       3144       3148       3152       3156       3160       3164       3168       3172       3176       3180       3184       3188       3192       3196       3200       3204       3208       3212       3216       3220       3224       3228       3232       3236       3240       3244       3248       3252       3256       3260       3264       3268       3272       3276       3280       3284       3288       3292       3296       3300       3304       3308       3312       3316       3320       3324       3328       3332       3336       3340       3344       3348       3352       3356       3360       3364       3368       3372       3376       3380       3384       3388       3392       3396       3400       3404       3408       3412       3416       3420       3424       3428       3432       3436       3440       3444       3448       3452       3456       3460       3464       3468       3472       3476       3480       3484       3488       3492       3496       3500       3504       3508       3512       3516       3520       3524       3528       3532       3536       3540       3544       3548       3552       3556       3560       3564       3568       3572       3576       3580       3584       3588       3592       3596       3600       3604       3608       3612       3616       3620       3624       3628       3632       3636       3640       3644       3648       3652       3656       3660       3664       3668       3672       3676       3680       3684       3688       3692       3696       3700       3704       3708       3712       3716       3720       3724       3728       3732       3736       3740       3744       3748       3752       3756       3760       3764       3768       3772       3776       3780       3784       3788       3792       3796       3800       3804       3808       3812       3816       3820       3824       3828       3832       3836       3840       3844       3848       3852       3856       3860       3864       3868       3872       3876       3880       3884       3888       3892       3896       3900       3904       3908       3912       3916       3920       3924       3928       3932       3936       3940       3944       3948       3952       3956       3960       3964       3968       3972       3976       3980       3984       3988       3992       3996       4000       4004       4008       4012       4016       4020       4024       4028       4032       4036       4040       4044       4048       4052       4056       4060       4064       4068       4072       4076       4080       4084       4088       4092       4096 </DataArray>
<DataArray type="UInt8"                                    Name="types"                                                      NumberOfComponents=" 1" format="ascii">
         9          9          9          9          9          9          9          9          9          9          9          9          9          9          9          9          9          9          9          9          9          9          9          9          9          9          9          9          9          9          9          9          9          9          9          9          9          9          9          9          9          9          9          9          9          9          9          9          9          9          9          9          9          9          9          9          9          9          9          9          9          9          9          9          9          9          9          9          9          9          9          9          9          9          9          9          9          9          9          9          9          9          9          9          9          9          9          9          9          9          9          9          9          9          9          9          9          9          9          9          9          9          9          9          9          9          9          9          9          9          9          9          9          9          9          9          9          9          9          9          9          9          9          9          9          9          9          9          9          9          9          9          9          9          9          9          9          9          9          9          9          9          9          9          9          9          9          9          9          9          9          9          9          9          9          9          9          9          9          9          9          9          9          9          9          9          9          9          9          9          9          9          9          9          9          9          9          9          9          9          9          9          9          9          9          9          9          9          9          9          9          9          9          9          9          9          9          9          9          9          9          9          9          9          9          9          9          9          9          9          9          9          9          9          9          9          9          9          9          9          9          9          9          9          9          9          9          9          9          9          9          9          9          9          9          9          9          9          9          9          9          9          9          9          9          9          9          9          9          9          9          9          9          9          9          9          9          9          9          9          9          9          9          9          9          9          9          9          9          9          9          9          9          9          9          9          9          9          9          9          9          9          9          9          9          9          9          9          9          9          9          9          9          9          9          9          9          9          9          9          9          9          9          9          9          9          9          9          9          9          9          9          9          9          9          9          9          9          9          9          9          9          9          9          9          9          9          9          9          9          9          9          9          9          9          9          9          9          9          9          9          9          9          9          9          9          9          9          9          9          9          9          9          9          9          9          9          9          9          9          9          9          9          9          9          9          9          9          9          9          9          9          9          9          9          9          9          9          9          9          9          9          9          9          9          9          9          9          9          9          9          9          9          9          9          9          9          9          9          9          9          9          9          9          9          9          9          9          9          9          9          9          9          9          9          9          9          9          9          9          9          9          9          9          9          9          9          9          9          9          9          9          9          9          9          9          9          9          9          9          9          9          9          9          9          9          9          9          9          9          9          9          9          9          9          9          9          9          9          9          9          9          9          9          9          9          9          9          9          9          9          9          9          9          9          9          9          9          9          9          9          9          9          9          9          9          9          9          9          9          9          9          9          9          9          9          9          9          9          9          9          9          9          9          9          9          9          9          9          9          9          9          9          9          9          9          9          9          9          9          9          9          9          9          9          9          9          9          9          9          9          9          9          9          9          9          9          9          9          9          9          9          9          9          9          9          9          9          9          9          9          9          9          9          9          9          9          9          9          9          9          9          9          9          9          9          9          9          9          9          9          9          9          9          9          9          9          9          9          9          9          9          9          9          9          9          9          9          9          9          9          9          9          9          9          9          9          9          9          9          9          9          9          9          9          9          9          9          9          9          9          9          9          9          9          9          9          9          9          9          9          9          9          9          9          9          9          9          9          9          9          9          9          9          9          9          9          9          9          9          9          9          9          9          9          9          9          9          9          9          9          9          9          9          9          9          9          9          9          9          9          9          9          9          9          9          9          9          9          9          9          9          9          9          9          9          9          9          9          9          9          9          9          9          9          9          9          9          9          9          9          9          9          9          9          9          9          9          9          9          9          9          9          9          9          9          9          9          9          9          9          9          9          9          9          9          9          9          9          9          9          9          9          9          9          9          9          9          9          9          9          9          9          9          9          9          9          9          9          9          9          9          9          9          9          9          9          9          9          9          9          9          9          9          9          9          9          9          9          9          9          9          9          9          9          9          9          9          9          9          9          9          9          9          9          9          9          9          9          9          9          9          9          9          9          9          9          9          9          9          9          9          9          9          9          9          9          9          9          9          9          9          9          9          9          9          9          9          9          9          9          9          9          9          9          9          9          9          9          9          9          9          9          9          9          9          9          9          9          9          9          9          9          9          9          9          9          9          9          9          9          9          9          9          9          9          9          9          9          9          9          9          9          9          9          9          9          9          9          9          9          9          9          9          9          9          9          9          9          9          9          9          9          9          9          9          9          9          9          9          9          9          9          9          9          9          9          9          9          9          9          9          9          9          9          9          9          9          9          9          9          9          9          9          9          9          9          9          9          9          9          9          9          9          9          9          9          9          9          9          9          9          9          9          9          9          9          9          9          9          9          9          9          9          9          9          9          9          9          9          9          9          9          9          9          9          9          9          9          9          9          9          9          9          9          9          9          9          9          9          9          9          9          9          9          9          9          9          9          9          9          9          9          9          9          9          9          9          9          9          9          9          9          9          9          9          9          9          9          9          9          9          9          9          9          9          9          9          9          9          9          9          9          9          9          9          9          9          9          9          9          9          9          9          9          9          9          9          9          9          9          9          9          9 </DataArray>
</Cells>
<CellData>
<DataArray type="Int32"                                    Name="material"                                                      NumberOfComponents=" 1" format="ascii">
         1          1          1          1          1          1          1          1          1          1          1          1          1          1          1          1          1          1          1          1          1          1          1          1          1          1          1          1          1          1          1          1          1          1          1          1          1          1          1          1          1          1          1          1          1          1          1          1          1          1          1          1          1          1          1          1          1          1          1          1          1          1          1          1          1          1          1          1          1          1          1          1          1          1          1          1          1          1          1          1          1          1          1          1          1          1          1          1          1          1          1          1          1          1          1          1          1          1          1          1          1          1          1          1          1          1          1          1          1          1          1          1          1          1          1          1          1          1          1          1          1          1          1          1          1          1          1          1          1          1          1          1          1          1          1          1          1          1          1          1          1          1          1          1          1          1          1          1          1          1          1          1          1          1          1          1          1          1          1          1          1          1          1          1          1          1          1          1          1          1          1          1          1          1          1          1          1          1          1          1          1          1          1          1          1          1          1          1          1          1          1          1          1          1          1          1          1          1          1          1          1          1          1          1          1          1          1          1          1          1          1          1          1          1          1          1          1          1          1          1          1          1          1          1          1          1          1          1          1          1          1          1          1          1          1          1          1          1          1          1          1          1          1          1          1          1          1          1          1          1          1          1          1          1          1          1          1          1          1          1          1          1          1          1          1          1          1          1          1          1          1          1          1          1          1          1          1          1          1          1          1          1          1          1          1          1          1          1          1          1          1          1          1          1          1          1          1          1          1          1          1          1          1          1          1          1          1          1          1          1          1          1          1          1          1          1          1          1          1          1          1          1          1          1          1          1          1          1          1          1          1          1          1          1          1          1          1          1          1          1          1          1          1          1          1          1          1          1          1          1          1          1          1          1          1          1          1          1          1          1          1          1          1          1          1          1          1          1          1          1          1          1          1          1          1          1          1          1          1          1          1          1          1          1          1          1          1          1          1          1          1          1          1          1          1          1          1          1          1          1          1          1          1          1          1          1          1          1          1          1          1          1          1          1          1          1          1          1          1          1          1          1          1          1          1          1          1          1          1          1          1          1          1          1          1          1          1          1          1          1          1          1          1          1          1          1          1          1          1          1          1          1          1          1          1          1          1          1          1          1          1          1          1          1          1          1          1          1          1          1          1          1          1          1          1          1          1          1          1          1          1          1          1          1          1          1          1          1          1          1          1          1          1          1          1          1          1          1          1          1          1          1          1          1          1          1          1          1          1          1          1          1          1          1          1          1          1          1          1          1          1          1          1          1          1          1          1          1          1          1          1          1          1          1          1          1          1          1          1          1          1          1          1          1          1          1          1          1          1          1          1          1          1          1          1          1          1          1          1          1          1          1          1          1          1          1          1          1          1          1          1          1          1          1          1          1          1          1          1          1          1          1          1          1          1          1          1          1          1          1          1          1          1          1          1          1          1          1          1          1          1          1          1          1          1          1          1          1          1          1          1          1          1          1          1          1          1          1          1          1          1          1          1          1          1          1          1          1          1          1          1          1          1          1          1          1          1          1          1          1          1          1          1          1          1          1          1          1          1          1          1          1          1          1          1          1          1          1          1          1          1          1          1          1          1          1          1          1          1          1          1          1          1          1          1          1          1          1          1          1          1          1          1          1          1          1          1          1          1          1          1          1          1          1          1          1          1          1          1          1          1          1          1          1          1          1          1          1          1          1          1          1          1          1          1          1          1          1          1          1          1          1          1          1          1          1          1          1          1          1          1          1          1          1          1          1          1          1          1          1          1          1          1          1          1          1          1          1          1          1          1          1          1          1          1          1          1          1          1          1          1          1          1          1          1          1          1          1          1          1          1          1          1          1          1          1          1          1          1          1          1          1          1          1          1          1          1          1          1          1          1          1          1          1          1          1          1          1          1          1          1          1          1          1          1          1          1          1          1          1          1          1          1          1          1          1          1          1          1          1          1          1          1          1          1          1          1          1          1          1          1          1          1          1          1          1          1          1          1          1          1          1          1          1          1          1          1          1          1          1          1          1          1          1          1          1          1          1          1          1          1          1          1          1          1          1          1          1          1          1          1          1          1          1          1          1          1          1          1          1          1          1          1          1          1          1          1          1          1          1          1          1          1          1          1          1          1          1          1          1          1          1          1          1          1          1          1          1          1          1          1          1          1          1          1          1          1          1          1          1          1          1          1          1          1          1          1          1          1          1          1          1          1          1          1          1          1          1          1          1          1          1          1          1          1          1          1          1          1          1          1          1          1          1          1          1          1          1          1          1          1          1          1          1          1          1          1          1          1          1          1          1          1          1          1          1          1          1          1          1          1          1          1          1          1          1          1          1          1          1          1          1          1          1          1          1          1          1          1          1          1          1          1          1          1          1          1          1          1          1          1          1          1          1          1          1          1          1          1          1          1          1          1          1 </DataArray>
</CellData>
<PointData>
<DataArray type="Float64"                                    Name="u"                                                      NumberOfComponents=" 3" format="ascii">
             -0.000916455              -0.000000000               0.999999987              -0.000964140              -0.000000000               0.999999987              -0.000983453               0.000000000               0.999999987              -0.000993536               0.000000000               0.999999987              -0.001001095               0.000000000               0.999999987              -0.001008678               0.000000000               0.999999987              -0.001017264              -0.000000000               0.999999987              -0.001026885               0.000000000               0.999999987              -0.001037411              -0.000000000               0.999999987              -0.001048452              -0.000000000               0.999999987              -0.001059604               0.000000000               0.999999987              -0.001070509               0.000000000               0.999999987              -0.001080938               0.000000000               0.999999987              -0.001090264              -0.000000000               0.999999987              -0.001097836              -0.000000000               0.999999987              -0.001102958              -0.000000000               0.999999987              -0.001104719              -0.000000000               0.999999987              -0.000911265               0.000125832               0.999999987              -0.000954686               0.000098914               0.999999987              -0.000971319               0.000086436               0.999999987              -0.000979683               0.000080849               0.999999987              -0.000986125               0.000078601               0.999999987              -0.000992830               0.000078095               0.999999987              -0.001000510               0.000078166               0.999999987              -0.001009226               0.000077968               0.999999987              -0.001018655               0.000077073               0.999999987              -0.001028382               0.000075052               0.999999987              -0.001038009               0.000071645               0.999999987              -0.001047163               0.000066701               0.999999987              -0.001055463               0.000059774               0.999999987              -0.001062428               0.000050207               0.999999987              -0.001067506               0.000037331               0.999999987              -0.001070018               0.000020228               0.999999987              -0.001069314              -0.000002113               0.999999987              -0.000895905               0.000250416               0.999999987              -0.000926976               0.000197553               0.999999987              -0.000936100               0.000173912               0.999999987              -0.000939763               0.000163882               0.999999987              -0.000943020               0.000160349               0.999999987              -0.000947294               0.000159838               0.999999987              -0.000952743               0.000160315               0.999999987              -0.000958939               0.000160154               0.999999987              -0.000965282               0.000158345               0.999999987              -0.000971328               0.000154378               0.999999987              -0.000976611               0.000147623               0.999999987              -0.000980810               0.000138016               0.999999987              -0.000983506               0.000124544               0.999999987              -0.000984147               0.000106162               0.999999987              -0.000982387               0.000082008               0.999999987              -0.000977840               0.000051047               0.999999987              -0.000970383               0.000011806               0.999999987              -0.000870725               0.000372702               0.999999987              -0.000882513               0.000295722               0.999999987              -0.000880667               0.000263311               0.999999987              -0.000877882               0.000250851               0.999999987              -0.000877022               0.000247412               0.999999987              -0.000878037               0.000247838               0.999999987              -0.000880325               0.000249041               0.999999987              -0.000882783               0.000248847               0.999999987              -0.000884620               0.000246176               0.999999987              -0.000885319               0.000240188               0.999999987              -0.000884391               0.000230387               0.999999987              -0.000881339               0.000216307               0.999999987              -0.000875747               0.000197021               0.999999987              -0.000867362               0.000171467               0.999999987              -0.000856056               0.000138989               0.999999987              -0.000842031               0.000098802               0.999999987              -0.000825754               0.000050602               0.999999987              -0.000836071               0.000491680               0.999999987              -0.000823309               0.000393529               0.999999987              -0.000809240               0.000355350               0.999999987              -0.000800100               0.000342600               0.999999987              -0.000795332               0.000340547               0.999999987              -0.000793095               0.000342591               0.999999987              -0.000791663               0.000344815               0.999999987              -0.000789607               0.000344684               0.999999987              -0.000786104               0.000341040               0.999999987              -0.000780315               0.000333106               0.999999987              -0.000771656               0.000320320               0.999999987              -0.000759667               0.000302140               0.999999987              -0.000744217               0.000278086               0.999999987              -0.000725427               0.000247386               0.999999987              -0.000703658               0.000209777               0.999999987              -0.000679553               0.000165770               0.999999987              -0.000654120               0.000116189               0.999999987              -0.000792700               0.000606132               0.999999987              -0.000752451               0.000491110               0.999999987              -0.000727151               0.000450274               0.999999987              -0.000713205               0.000438932               0.999999987              -0.000705593               0.000439159               0.999999987              -0.000700573               0.000443023               0.999999987              -0.000695471               0.000446042               0.999999987              -0.000688666               0.000445966               0.999999987              -0.000679009               0.000441397               0.999999987              -0.000665699               0.000431483               0.999999987              -0.000648281               0.000415828               0.999999987              -0.000626604               0.000394002               0.999999987              -0.000600916               0.000366114               0.999999987              -0.000571745               0.000332299               0.999999987              -0.000539916               0.000292697               0.999999987              -0.000506408               0.000248641               0.999999987              -0.000472277               0.000201950               0.999999987              -0.000741595               0.000714873               0.999999987              -0.000673743               0.000588425               0.999999987              -0.000639977               0.000547541               0.999999987              -0.000623444               0.000538706               0.999999987              -0.000614404               0.000541442               0.999999987              -0.000607207               0.000546834               0.999999987              -0.000598480               0.000550472               0.999999987              -0.000586433               0.000550313               0.999999987              -0.000569937               0.000544665               0.999999987              -0.000548354               0.000532784               0.999999987              -0.000521646               0.000514521               0.999999987              -0.000490073               0.000489680               0.999999987              -0.000454068               0.000459141               0.999999987              -0.000414649               0.000423701               0.999999987              -0.000372803               0.000384180               0.999999987              -0.000329674               0.000342188               0.999999987              -0.000286085               0.000299446               0.999999987              -0.000683909               0.000816824               0.999999987              -0.000590924               0.000685231               0.999999987              -0.000552443               0.000646194               0.999999987              -0.000536057               0.000639909               0.999999987              -0.000526774               0.000644813               0.999999987              -0.000517637               0.000651535               0.999999987              -0.000504979               0.000655673               0.999999987              -0.000487127               0.000655268               0.999999987              -0.000463133               0.000648390               0.999999987              -0.000432585               0.000634604               0.999999987              -0.000395752               0.000613946               0.999999987              -0.000353152               0.000587001               0.999999987              -0.000305920               0.000555080               0.999999987              -0.000255212               0.000519631               0.999999987              -0.000202329               0.000481778               0.999999987              -0.000148619               0.000443179               0.999999987              -0.000094734               0.000404616               0.999999987              -0.000621593               0.000910167               0.999999987              -0.000506827               0.000781316               0.999999987              -0.000468923               0.000744592               0.999999987              -0.000454642               0.000740285               0.999999987              -0.000445866               0.000746815               0.999999987              -0.000434601               0.000754665               0.999999987              -0.000417675               0.000759209               0.999999987              -0.000393291               0.000758182               0.999999987              -0.000360674               0.000750057               0.999999987              -0.000319818               0.000734478               0.999999987              -0.000271301               0.000711914               0.999999987              -0.000216375               0.000683678               0.999999987              -0.000156403               0.000651715               0.999999987              -0.000093224               0.000617809               0.999999987              -0.000028676               0.000583456               0.999999987               0.000035926               0.000549734               0.999999987               0.000100265               0.000516806               0.999999987              -0.000557091               0.000998707               0.999999987              -0.000436054               0.000889543               0.999999987              -0.000395960               0.000849888               0.999999987              -0.000381593               0.000841499               0.999999987              -0.000374062               0.000845977               0.999999987              -0.000365299               0.000854419               0.999999987              -0.000352027               0.000862255               0.999999987              -0.000332158               0.000866886               0.999999987              -0.000304725               0.000866774               0.999999987              -0.000269499               0.000861039               0.999999987              -0.000226758               0.000849268               0.999999987              -0.000176814               0.000832078               0.999999987              -0.000120416               0.000810628               0.999999987              -0.000059047               0.000786525               0.999999987               0.000005561               0.000761349               0.999999987               0.000071536               0.000736580               0.999999987               0.000137284               0.000712895               0.999999987              -0.000486896               0.001079524               0.999999987              -0.000367732               0.000994405               0.999999987              -0.000325665               0.000957989               0.999999987              -0.000310347               0.000947777               0.999999987              -0.000303230               0.000951014               0.999999987              -0.000296368               0.000960055               0.999999987              -0.000286084               0.000970630               0.999999987              -0.000270236               0.000980237               0.999999987              -0.000247530               0.000987125               0.999999987              -0.000217737               0.000990287               0.999999987              -0.000180937               0.000988730               0.999999987              -0.000136850               0.000982337               0.999999987              -0.000085547               0.000971596               0.999999987              -0.000027565               0.000957577               0.999999987               0.000035672               0.000941574               0.999999987               0.000102182               0.000925064               0.999999987               0.000170160               0.000909243               0.999999987              -0.000412371               0.001150589               0.999999987              -0.000301843               0.001092765               0.999999987              -0.000259708               0.001063873               0.999999987              -0.000243215               0.001055065               0.999999987              -0.000235996               0.001058499               0.999999987              -0.000230129               0.001068606               0.999999987              -0.000222129               0.001081837               0.999999987              -0.000209559               0.001095917               0.999999987              -0.000191251               0.001109019               0.999999987              -0.000166702               0.001119949               0.999999987              -0.000135810               0.001127887               0.999999987              -0.000098103               0.001132087               0.999999987              -0.000053131               0.001132344               0.999999987              -0.000000529               0.001129081               0.999999987               0.000059281               0.001123126               0.999999987               0.000124880               0.001115757               0.999999987               0.000194756               0.001108056               0.999999987              -0.000334248               0.001210547               0.999999987              -0.000238413               0.001180476               0.999999987              -0.000198868               0.001162343               0.999999987              -0.000182135               0.001157489               0.999999987              -0.000174469               0.001162994               0.999999987              -0.000169151               0.001175160               0.999999987              -0.000162716               0.001191302               0.999999987              -0.000153041               0.001209431               0.999999987              -0.000138695               0.001228042               0.999999987              -0.000119155               0.001245966               0.999999987              -0.000094196               0.001262292               0.999999987              -0.000063243               0.001276194               0.999999987              -0.000025573               0.001287137               0.999999987               0.000019884               0.001294959               0.999999987               0.000073435               0.001299906               0.999999987               0.000134795               0.001302682               0.999999987               0.000203714               0.001304155               0.999999987              -0.000253189               0.001258317               0.999999987              -0.000177138               0.001253358               0.999999987              -0.000143430               0.001247281               0.999999987              -0.000128023               0.001248446               0.999999987              -0.000120484               0.001257215               0.999999987              -0.000115713               0.001272215               0.999999987              -0.000110507               0.001291501               0.999999987              -0.000103257               0.001313662               0.999999987              -0.000092473               0.001337421               0.999999987              -0.000077735               0.001361505               0.999999987              -0.000058817               0.001385086               0.999999987              -0.000035128               0.001407427               0.999999987              -0.000005664               0.001428009               0.999999987               0.000030671               0.001446217               0.999999987               0.000074893               0.001461918               0.999999987               0.000127831               0.001475192               0.999999987               0.000190205               0.001486454               0.999999987              -0.000169965               0.001292852               0.999999987              -0.000117367               0.001307929               0.999999987              -0.000092734               0.001312864               0.999999987              -0.000080789               0.001320330               0.999999987              -0.000074554               0.001333043               0.999999987              -0.000070613               0.001351030               0.999999987              -0.000066783               0.001373359               0.999999987              -0.000061809               0.001399018               0.999999987              -0.000054687               0.001426870               0.999999987              -0.000044881               0.001455902               0.999999987              -0.000032094               0.001485365               0.999999987              -0.000015886               0.001514624               0.999999987               0.000004304               0.001542992               0.999999987               0.000029536               0.001569855               0.999999987               0.000061304               0.001594842               0.999999987               0.000100840               0.001617652               0.999999987               0.000149488               0.001638123               0.999999987              -0.000085326               0.001313709               0.999999987              -0.000058453               0.001341574               0.999999987              -0.000045483               0.001354284               0.999999987              -0.000038922               0.001366470               0.999999987              -0.000035321               0.001382351               0.999999987              -0.000033064               0.001402756               0.999999987              -0.000030934               0.001427237               0.999999987              -0.000028416               0.001455211               0.999999987              -0.000024920               0.001485752               0.999999987              -0.000020089               0.001518111               0.999999987              -0.000013541               0.001551606               0.999999987              -0.000005253               0.001585590               0.999999987               0.000004807               0.001619397               0.999999987               0.000017752               0.001652457               0.999999987               0.000034568               0.001684166               0.999999987               0.000055964               0.001713942               0.999999987               0.000083174               0.001741171               0.999999987              -0.000000000               0.001320767               0.999999987              -0.000000000               0.001352907               0.999999987              -0.000000000               0.001368324               0.999999987               0.000000000               0.001382347               0.999999987               0.000000000               0.001399418               0.999999987              -0.000000000               0.001420808               0.999999987               0.000000000               0.001446118               0.999999987              -0.000000000               0.001474748               0.999999987              -0.000000000               0.001506135               0.999999987               0.000000000               0.001539734               0.999999987              -0.000000000               0.001574702               0.999999987               0.000000000               0.001610385               0.999999987              -0.000000000               0.001646254               0.999999987              -0.000000000               0.001681715               0.999999987              -0.000000000               0.001716178               0.999999987               0.000000000               0.001748765               0.999999987               0.000000000               0.001778567               0.999999987              -0.000916455              -0.000000000               0.999999987              -0.000964140              -0.000000000               0.999999987              -0.000983453               0.000000000               0.999999987              -0.000993536               0.000000000               0.999999987              -0.001001095               0.000000000               0.999999987              -0.001008678               0.000000000               0.999999987              -0.001017264              -0.000000000               0.999999987              -0.001026885               0.000000000               0.999999987              -0.001037411              -0.000000000               0.999999987              -0.001048452              -0.000000000               0.999999987              -0.001059604               0.000000000               0.999999987              -0.001070509               0.000000000               0.999999987              -0.001080938               0.000000000               0.999999987              -0.001090264              -0.000000000               0.999999987              -0.001097836              -0.000000000               0.999999987              -0.001102958              -0.000000000               0.999999987              -0.001104719              -0.000000000               0.999999987              -0.000911265              -0.000125832               0.999999987              -0.000954686              -0.000098914               0.999999987              -0.000971319              -0.000086436               0.999999987              -0.000979683              -0.000080849               0.999999987              -0.000986125              -0.000078601               0.999999987              -0.000992830              -0.000078095               0.999999987              -0.001000510              -0.000078166               0.999999987              -0.001009226              -0.000077968               0.999999987              -0.001018655              -0.000077073               0.999999987              -0.001028382              -0.000075052               0.999999987              -0.001038009              -0.000071645               0.999999987              -0.001047163              -0.000066701               0.999999987              -0.001055463              -0.000059774               0.999999987              -0.001062428              -0.000050207               0.999999987              -0.001067506              -0.000037331               0.999999987              -0.001070018              -0.000020228               0.999999987              -0.001069314               0.000002113               0.999999987              -0.000895905              -0.000250416               0.999999987              -0.000926976              -0.000197553               0.999999987              -0.000936100              -0.000173912               0.999999987              -0.000939763              -0.000163882               0.999999987              -0.000943020              -0.000160349               0.999999987              -0.000947294              -0.000159838               0.999999987              -0.000952743              -0.000160315               0.999999987              -0.000958939              -0.000160154               0.999999987              -0.000965282              -0.000158345               0.999999987              -0.000971328              -0.000154378               0.999999987              -0.000976611              -0.000147623               0.999999987              -0.000980810              -0.000138016               0.999999987              -0.000983506              -0.000124544               0.999999987              -0.000984147              -0.000106162               0.999999987              -0.000982387              -0.000082008               0.999999987              -0.000977840              -0.000051047               0.999999987              -0.000970383              -0.000011806               0.999999987              -0.000870725              -0.000372702               0.999999987              -0.000882513              -0.000295722               0.999999987              -0.000880667              -0.000263311               0.999999987              -0.000877882              -0.000250851               0.999999987              -0.000877022              -0.000247412               0.999999987              -0.000878037              -0.000247838               0.999999987              -0.000880325              -0.000249041               0.999999987              -0.000882783              -0.000248847               0.999999987              -0.000884620              -0.000246176               0.999999987              -0.000885319              -0.000240188               0.999999987              -0.000884391              -0.000230387               0.999999987              -0.000881339              -0.000216307               0.999999987              -0.000875747              -0.000197021               0.999999987              -0.000867362              -0.000171467               0.999999987              -0.000856056              -0.000138989               0.999999987              -0.000842031              -0.000098802               0.999999987              -0.000825754              -0.000050602               0.999999987              -0.000836071              -0.000491680               0.999999987              -0.000823309              -0.000393529               0.999999987              -0.000809240              -0.000355350               0.999999987              -0.000800100              -0.000342600               0.999999987              -0.000795332              -0.000340547               0.999999987              -0.000793095              -0.000342591               0.999999987              -0.000791663              -0.000344815               0.999999987              -0.000789607              -0.000344684               0.999999987              -0.000786104              -0.000341040               0.999999987              -0.000780315              -0.000333106               0.999999987              -0.000771656              -0.000320320               0.999999987              -0.000759667              -0.000302140               0.999999987              -0.000744217              -0.000278086               0.999999987              -0.000725427              -0.000247386               0.999999987              -0.000703658              -0.000209777               0.999999987              -0.000679553              -0.000165770               0.999999987              -0.000654120              -0.000116189               0.999999987              -0.000792700              -0.000606132               0.999999987              -0.000752451              -0.000491110               0.999999987              -0.000727151              -0.000450274               0.999999987              -0.000713205              -0.000438932               0.999999987              -0.000705593              -0.000439159               0.999999987              -0.000700573              -0.000443023               0.999999987              -0.000695471              -0.000446042               0.999999987              -0.000688666              -0.000445966               0.999999987              -0.000679009              -0.000441397               0.999999987              -0.000665699              -0.000431483               0.999999987              -0.000648281              -0.000415828               0.999999987              -0.000626604              -0.000394002               0.999999987              -0.000600916              -0.000366114               0.999999987              -0.000571745              -0.000332299               0.999999987              -0.000539916              -0.000292697               0.999999987              -0.000506408              -0.000248641               0.999999987              -0.000472277              -0.000201950               0.999999987              -0.000741595              -0.000714873               0.999999987              -0.000673743              -0.000588425               0.999999987              -0.000639977              -0.000547541               0.999999987              -0.000623444              -0.000538706               0.999999987              -0.000614404              -0.000541442               0.999999987              -0.000607207              -0.000546834               0.999999987              -0.000598480              -0.000550472               0.999999987              -0.000586433              -0.000550313               0.999999987              -0.000569937              -0.000544665               0.999999987              -0.000548354              -0.000532784               0.999999987              -0.000521646              -0.000514521               0.999999987              -0.000490073              -0.000489680               0.999999987              -0.000454068              -0.000459141               0.999999987              -0.000414649              -0.000423701               0.999999987              -0.000372803              -0.000384180               0.999999987              -0.000329674              -0.000342188               0.999999987              -0.000286085              -0.000299446               0.999999987              -0.000683909              -0.000816824               0.999999987              -0.000590924              -0.000685231               0.999999987              -0.000552443              -0.000646194               0.999999987              -0.000536057              -0.000639909               0.999999987              -0.000526774              -0.000644813               0.999999987              -0.000517637              -0.000651535               0.999999987              -0.000504979              -0.000655673               0.999999987              -0.000487127              -0.000655268               0.999999987              -0.000463133              -0.000648390               0.999999987              -0.000432585              -0.000634604               0.999999987              -0.000395752              -0.000613946               0.999999987              -0.000353152              -0.000587001               0.999999987              -0.000305920              -0.000555080               0.999999987              -0.000255212              -0.000519631               0.999999987              -0.000202329              -0.000481778               0.999999987              -0.000148619              -0.000443179               0.999999987              -0.000094734              -0.000404616               0.999999987              -0.000621593              -0.000910167               0.999999987              -0.000506827              -0.000781316               0.999999987              -0.000468923              -0.000744592               0.999999987              -0.000454642              -0.000740285               0.999999987              -0.000445866              -0.000746815               0.999999987              -0.000434601              -0.000754665               0.999999987              -0.000417675              -0.000759209               0.999999987              -0.000393291              -0.000758182               0.999999987              -0.000360674              -0.000750057               0.999999987              -0.000319818              -0.000734478               0.999999987              -0.000271301              -0.000711914               0.999999987              -0.000216375              -0.000683678               0.999999987              -0.000156403              -0.000651715               0.999999987              -0.000093224              -0.000617809               0.999999987              -0.000028676              -0.000583456               0.999999987               0.000035926              -0.000549734               0.999999987               0.000100265              -0.000516806               0.999999987              -0.000557091              -0.000998707               0.999999987              -0.000436054              -0.000889543               0.999999987              -0.000395960              -0.000849888               0.999999987              -0.000381593              -0.000841499               0.999999987              -0.000374062              -0.000845977               0.999999987              -0.000365299              -0.000854419               0.999999987              -0.000352027              -0.000862255               0.999999987              -0.000332158              -0.000866886               0.999999987              -0.000304725              -0.000866774               0.999999987              -0.000269499              -0.000861039               0.999999987              -0.000226758              -0.000849268               0.999999987              -0.000176814              -0.000832078               0.999999987              -0.000120416              -0.000810628               0.999999987              -0.000059047              -0.000786525               0.999999987               0.000005561              -0.000761349               0.999999987               0.000071536              -0.000736580               0.999999987               0.000137284              -0.000712895               0.999999987              -0.000486896              -0.001079524               0.999999987              -0.000367732              -0.000994405               0.999999987              -0.000325665              -0.000957989               0.999999987              -0.000310347              -0.000947777               0.999999987              -0.000303230              -0.000951014               0.999999987              -0.000296368              -0.000960055               0.999999987              -0.000286084              -0.000970630               0.999999987              -0.000270236              -0.000980237               0.999999987              -0.000247530              -0.000987125               0.999999987              -0.000217737              -0.000990287               0.999999987              -0.000180937              -0.000988730               0.999999987              -0.000136850              -0.000982337               0.999999987              -0.000085547              -0.000971596               0.999999987              -0.000027565              -0.000957577               0.999999987               0.000035672              -0.000941574               0.999999987               0.000102182              -0.000925064               0.999999987               0.000170160              -0.000909243               0.999999987              -0.000412371              -0.001150589               0.999999987              -0.000301843              -0.001092765               0.999999987              -0.000259708              -0.001063873               0.999999987              -0.000243215              -0.001055065               0.999999987              -0.000235996              -0.001058499               0.999999987              -0.000230129              -0.001068606               0.999999987              -0.000222129              -0.001081837               0.999999987              -0.000209559              -0.001095917               0.999999987              -0.000191251              -0.001109019               0.999999987              -0.000166702              -0.001119949               0.999999987              -0.000135810              -0.001127887               0.999999987              -0.000098103              -0.001132087               0.999999987              -0.000053131              -0.001132344               0.999999987              -0.000000529              -0.001129081               0.999999987               0.000059281              -0.001123126               0.999999987               0.000124880              -0.001115757               0.999999987               0.000194756              -0.001108056               0.999999987              -0.000334248              -0.001210547               0.999999987              -0.000238413              -0.001180476               0.999999987              -0.000198868              -0.001162343               0.999999987              -0.000182135              -0.001157489               0.999999987              -0.000174469              -0.001162994               0.999999987              -0.000169151              -0.001175160               0.999999987              -0.000162716              -0.001191302               0.999999987              -0.000153041              -0.001209431               0.999999987              -0.000138695              -0.001228042               0.999999987              -0.000119155              -0.001245966               0.999999987              -0.000094196              -0.001262292               0.999999987              -0.000063243              -0.001276194               0.999999987              -0.000025573              -0.001287137               0.999999987               0.000019884              -0.001294959               0.999999987               0.000073435              -0.001299906               0.999999987               0.000134795              -0.001302682               0.999999987               0.000203714              -0.001304155               0.999999987              -0.000253189              -0.001258317               0.999999987              -0.000177138              -0.001253358               0.999999987              -0.000143430              -0.001247281               0.999999987              -0.000128023              -0.001248446               0.999999987              -0.000120484              -0.001257215               0.999999987              -0.000115713              -0.001272215               0.999999987              -0.000110507              -0.001291501               0.999999987              -0.000103257              -0.001313662               0.999999987              -0.000092473              -0.001337421               0.999999987              -0.000077735              -0.001361505               0.999999987              -0.000058817              -0.001385086               0.999999987              -0.000035128              -0.001407427               0.999999987              -0.000005664              -0.001428009               0.999999987               0.000030671              -0.001446217               0.999999987               0.000074893              -0.001461918               0.999999987               0.000127831              -0.001475192               0.999999987               0.000190205              -0.001486454               0.999999987              -0.000169965              -0.001292852               0.999999987              -0.000117367              -0.001307929               0.999999987              -0.000092734              -0.001312864               0.999999987              -0.000080789              -0.001320330               0.999999987              -0.000074554              -0.001333043               0.999999987              -0.000070613              -0.001351030               0.999999987              -0.000066783              -0.001373359               0.999999987              -0.000061809              -0.001399018               0.999999987              -0.000054687              -0.001426870               0.999999987              -0.000044881              -0.001455902               0.999999987              -0.000032094              -0.001485365               0.999999987              -0.000015886              -0.001514624               0.999999987               0.000004304              -0.001542992               0.999999987               0.000029536              -0.001569855               0.999999987               0.000061304              -0.001594842               0.999999987               0.000100840              -0.001617652               0.999999987               0.000149488              -0.001638123               0.999999987              -0.000085326              -0.001313709               0.999999987              -0.000058453              -0.001341574               0.999999987              -0.000045483              -0.001354284               0.999999987              -0.000038922              -0.001366470               0.999999987              -0.000035321              -0.001382351               0.999999987              -0.000033064              -0.001402756               0.999999987              -0.000030934              -0.001427237               0.999999987              -0.000028416              -0.001455211               0.999999987              -0.000024920              -0.001485752               0.999999987              -0.000020089              -0.001518111               0.999999987              -0.000013541              -0.001551606               0.999999987              -0.000005253              -0.001585590               0.999999987               0.000004807              -0.001619397               0.999999987               0.000017752              -0.001652457               0.999999987               0.000034568              -0.001684166               0.999999987               0.000055964              -0.001713942               0.999999987               0.000083174              -0.001741171               0.999999987               0.000000000              -0.001320767               0.999999987              -0.000000000              -0.001352907               0.999999987               0.000000000              -0.001368324               0.999999987               0.000000000              -0.001382347               0.999999987              -0.000000000              -0.001399418               0.999999987              -0.000000000              -0.001420808               0.999999987               0.000000000              -0.001446118               0.999999987              -0.000000000              -0.001474748               0.999999987              -0.000000000              -0.001506135               0.999999987              -0.000000000              -0.001539734               0.999999987               0.000000000              -0.001574702               0.999999987              -0.000000000              -0.001610385               0.999999987               0.000000000              -0.001646254               0.999999987              -0.000000000              -0.001681715               0.999999987               0.000000000              -0.001716178               0.999999987               0.000000000              -0.001748765               0.999999987              -0.000000000              -0.001778567               0.999999987               0.000916455              -0.000000000               0.999999987               0.000964140              -0.000000000               0.999999987               0.000983453               0.000000000               0.999999987               0.000993536              -0.000000000               0.999999987               0.001001095               0.000000000               0.999999987               0.001008678               0.000000000               0.999999987               0.001017264               0.000000000               0.999999987               0.001026885               0.000000000               0.999999987               0.001037411              -0.000000000               0.999999987               0.001048452              -0.000000000               0.999999987               0.001059604              -0.000000000               0.999999987               0.001070509               0.000000000               0.999999987               0.001080938              -0.000000000               0.999999987               0.001090264               0.000000000               0.999999987               0.001097836               0.000000000               0.999999987               0.001102958              -0.000000000               0.999999987               0.001104719              -0.000000000               0.999999987               0.000911265              -0.000125832               0.999999987               0.000954686              -0.000098914               0.999999987               0.000971319              -0.000086436               0.999999987               0.000979683              -0.000080849               0.999999987               0.000986125              -0.000078601               0.999999987               0.000992830              -0.000078095               0.999999987               0.001000510              -0.000078166               0.999999987               0.001009226              -0.000077968               0.999999987               0.001018655              -0.000077073               0.999999987               0.001028382              -0.000075052               0.999999987               0.001038009              -0.000071645               0.999999987               0.001047163              -0.000066701               0.999999987               0.001055463              -0.000059774               0.999999987               0.001062428              -0.000050207               0.999999987               0.001067506              -0.000037331               0.999999987               0.001070018              -0.000020228               0.999999987               0.001069314               0.000002113               0.999999987               0.000895905              -0.000250416               0.999999987               0.000926976              -0.000197553               0.999999987               0.000936100              -0.000173912               0.999999987               0.000939763              -0.000163882               0.999999987               0.000943020              -0.000160349               0.999999987               0.000947294              -0.000159838               0.999999987               0.000952743              -0.000160315               0.999999987               0.000958939              -0.000160154               0.999999987               0.000965282              -0.000158345               0.999999987               0.000971328              -0.000154378               0.999999987               0.000976611              -0.000147623               0.999999987               0.000980810              -0.000138016               0.999999987               0.000983506              -0.000124544               0.999999987               0.000984147              -0.000106162               0.999999987               0.000982387              -0.000082008               0.999999987               0.000977840              -0.000051047               0.999999987               0.000970383              -0.000011806               0.999999987               0.000870725              -0.000372702               0.999999987               0.000882513              -0.000295722               0.999999987               0.000880667              -0.000263311               0.999999987               0.000877882              -0.000250851               0.999999987               0.000877022              -0.000247412               0.999999987               0.000878037              -0.000247838               0.999999987               0.000880325              -0.000249041               0.999999987               0.000882783              -0.000248847               0.999999987               0.000884620              -0.000246176               0.999999987               0.000885319              -0.000240188               0.999999987               0.000884391              -0.000230387               0.999999987               0.000881339              -0.000216307               0.999999987               0.000875747              -0.000197021               0.999999987               0.000867362              -0.000171467               0.999999987               0.000856056              -0.000138989               0.999999987               0.000842031              -0.000098802               0.999999987               0.000825754              -0.000050602               0.999999987               0.000836071              -0.000491680               0.999999987               0.000823309              -0.000393529               0.999999987               0.000809240              -0.000355350               0.999999987               0.000800100              -0.000342600               0.999999987               0.000795332              -0.000340547               0.999999987               0.000793095              -0.000342591               0.999999987               0.000791663              -0.000344815               0.999999987               0.000789607              -0.000344684               0.999999987               0.000786104              -0.000341040               0.999999987               0.000780315              -0.000333106               0.999999987               0.000771656              -0.000320320               0.999999987               0.000759667              -0.000302140               0.999999987               0.000744217              -0.000278086               0.999999987               0.000725427              -0.000247386               0.999999987               0.000703658              -0.000209777               0.999999987               0.000679553              -0.000165770               0.999999987               0.000654120              -0.000116189               0.999999987               0.000792700              -0.000606132               0.999999987               0.000752451              -0.000491110               0.999999987               0.000727151              -0.000450274               0.999999987               0.000713205              -0.000438932               0.999999987               0.000705593              -0.000439159               0.999999987               0.000700573              -0.000443023               0.999999987               0.000695471              -0.000446042               0.999999987               0.000688666              -0.000445966               0.999999987               0.000679009              -0.000441397               0.999999987               0.000665699              -0.000431483               0.999999987               0.000648281              -0.000415828               0.999999987               0.000626604              -0.000394002               0.999999987               0.000600916              -0.000366114               0.999999987               0.000571745              -0.000332299               0.999999987               0.000539916              -0.000292697               0.999999987               0.000506408              -0.000248641               0.999999987               0.000472277              -0.000201950               0.999999987               0.000741595              -0.000714873               0.999999987               0.000673743              -0.000588425               0.999999987               0.000639977              -0.000547541               0.999999987               0.000623444              -0.000538706               0.999999987               0.000614404              -0.000541442               0.999999987               0.000607207              -0.000546834               0.999999987               0.000598480              -0.000550472               0.999999987               0.000586433              -0.000550313               0.999999987               0.000569937              -0.000544665               0.999999987               0.000548354              -0.000532784               0.999999987               0.000521646              -0.000514521               0.999999987               0.000490073              -0.000489680               0.999999987               0.000454068              -0.000459141               0.999999987               0.000414649              -0.000423701               0.999999987               0.000372803              -0.000384180               0.999999987               0.000329674              -0.000342188               0.999999987               0.000286085              -0.000299446               0.999999987               0.000683909              -0.000816824               0.999999987               0.000590924              -0.000685231               0.999999987               0.000552443              -0.000646194               0.999999987               0.000536057              -0.000639909               0.999999987               0.000526774              -0.000644813               0.999999987               0.000517637              -0.000651535               0.999999987               0.000504979              -0.000655673               0.999999987               0.000487127              -0.000655268               0.999999987               0.000463133              -0.000648390               0.999999987               0.000432585              -0.000634604               0.999999987               0.000395752              -0.000613946               0.999999987               0.000353152              -0.000587001               0.999999987               0.000305920              -0.000555080               0.999999987               0.000255212              -0.000519631               0.999999987               0.000202329              -0.000481778               0.999999987               0.000148619              -0.000443179               0.999999987               0.000094734              -0.000404616               0.999999987               0.000621593              -0.000910167               0.999999987               0.000506827              -0.000781316               0.999999987               0.000468923              -0.000744592               0.999999987               0.000454642              -0.000740285               0.999999987               0.000445866              -0.000746815               0.999999987               0.000434601              -0.000754665               0.999999987               0.000417675              -0.000759209               0.999999987               0.000393291              -0.000758182               0.999999987               0.000360674              -0.000750057               0.999999987               0.000319818              -0.000734478               0.999999987               0.000271301              -0.000711914               0.999999987               0.000216375              -0.000683678               0.999999987               0.000156403              -0.000651715               0.999999987               0.000093224              -0.000617809               0.999999987               0.000028676              -0.000583456               0.999999987              -0.000035926              -0.000549734               0.999999987              -0.000100265              -0.000516806               0.999999987               0.000557091              -0.000998707               0.999999987               0.000436054              -0.000889543               0.999999987               0.000395960              -0.000849888               0.999999987               0.000381593              -0.000841499               0.999999987               0.000374062              -0.000845977               0.999999987               0.000365299              -0.000854419               0.999999987               0.000352027              -0.000862255               0.999999987               0.000332158              -0.000866886               0.999999987               0.000304725              -0.000866774               0.999999987               0.000269499              -0.000861039               0.999999987               0.000226758              -0.000849268               0.999999987               0.000176814              -0.000832078               0.999999987               0.000120416              -0.000810628               0.999999987               0.000059047              -0.000786525               0.999999987              -0.000005561              -0.000761349               0.999999987              -0.000071536              -0.000736580               0.999999987              -0.000137284              -0.000712895               0.999999987               0.000486896              -0.001079524               0.999999987               0.000367732              -0.000994405               0.999999987               0.000325665              -0.000957989               0.999999987               0.000310347              -0.000947777               0.999999987               0.000303230              -0.000951014               0.999999987               0.000296368              -0.000960055               0.999999987               0.000286084              -0.000970630               0.999999987               0.000270236              -0.000980237               0.999999987               0.000247530              -0.000987125               0.999999987               0.000217737              -0.000990287               0.999999987               0.000180937              -0.000988730               0.999999987               0.000136850              -0.000982337               0.999999987               0.000085547              -0.000971596               0.999999987               0.000027565              -0.000957577               0.999999987              -0.000035672              -0.000941574               0.999999987              -0.000102182              -0.000925064               0.999999987              -0.000170160              -0.000909243               0.999999987               0.000412371              -0.001150589               0.999999987               0.000301843              -0.001092765               0.999999987               0.000259708              -0.001063873               0.999999987               0.000243215              -0.001055065               0.999999987               0.000235996              -0.001058499               0.999999987               0.000230129              -0.001068606               0.999999987               0.000222129              -0.001081837               0.999999987               0.000209559              -0.001095917               0.999999987               0.000191251              -0.001109019               0.999999987               0.000166702              -0.001119949               0.999999987               0.000135810              -0.001127887               0.999999987               0.000098103              -0.001132087               0.999999987               0.000053131              -0.001132344               0.999999987               0.000000529              -0.001129081               0.999999987              -0.000059281              -0.001123126               0.999999987              -0.000124880              -0.001115757               0.999999987              -0.000194756              -0.001108056               0.999999987               0.000334248              -0.001210547               0.999999987               0.000238413              -0.001180476               0.999999987               0.000198868              -0.001162343               0.999999987               0.000182135              -0.001157489               0.999999987               0.000174469              -0.001162994               0.999999987               0.000169151              -0.001175160               0.999999987               0.000162716              -0.001191302               0.999999987               0.000153041              -0.001209431               0.999999987               0.000138695              -0.001228042               0.999999987               0.000119155              -0.001245966               0.999999987               0.000094196              -0.001262292               0.999999987               0.000063243              -0.001276194               0.999999987               0.000025573              -0.001287137               0.999999987              -0.000019884              -0.001294959               0.999999987              -0.000073435              -0.001299906               0.999999987              -0.000134795              -0.001302682               0.999999987              -0.000203714              -0.001304155               0.999999987               0.000253189              -0.001258317               0.999999987               0.000177138              -0.001253358               0.999999987               0.000143430              -0.001247281               0.999999987               0.000128023              -0.001248446               0.999999987               0.000120484              -0.001257215               0.999999987               0.000115713              -0.001272215               0.999999987               0.000110507              -0.001291501               0.999999987               0.000103257              -0.001313662               0.999999987               0.000092473              -0.001337421               0.999999987               0.000077735              -0.001361505               0.999999987               0.000058817              -0.001385086               0.999999987               0.000035128              -0.001407427               0.999999987               0.000005664              -0.001428009               0.999999987              -0.000030671              -0.001446217               0.999999987              -0.000074893              -0.001461918               0.999999987              -0.000127831              -0.001475192               0.999999987              -0.000190205              -0.001486454               0.999999987               0.000169965              -0.001292852               0.999999987               0.000117367              -0.001307929               0.999999987               0.000092734              -0.001312864               0.999999987               0.000080789              -0.001320330               0.999999987               0.000074554              -0.001333043               0.999999987               0.000070613              -0.001351030               0.999999987               0.000066783              -0.001373359               0.999999987               0.000061809              -0.001399018               0.999999987               0.000054687              -0.001426870               0.999999987               0.000044881              -0.001455902               0.999999987               0.000032094              -0.001485365               0.999999987               0.000015886              -0.001514624               0.999999987              -0.000004304              -0.001542992               0.999999987              -0.000029536              -0.001569855               0.999999987              -0.000061304              -0.001594842               0.999999987              -0.000100840              -0.001617652               0.999999987              -0.000149488              -0.001638123               0.999999987               0.000085326              -0.001313709               0.999999987               0.000058453              -0.001341574               0.999999987               0.000045483              -0.001354284               0.999999987               0.000038922              -0.001366470               0.999999987               0.000035321              -0.001382351               0.999999987               0.000033064              -0.001402756               0.999999987               0.000030934              -0.001427237               0.999999987               0.000028416              -0.001455211               0.999999987               0.000024920              -0.001485752               0.999999987               0.000020089              -0.001518111               0.999999987               0.000013541              -0.001551606               0.999999987               0.000005253              -0.001585590               0.999999987              -0.000004807              -0.001619397               0.999999987              -0.000017752              -0.001652457               0.999999987              -0.000034568              -0.001684166               0.999999987              -0.000055964              -0.001713942               0.999999987              -0.000083174              -0.001741171               0.999999987               0.000000000              -0.001320767               0.999999987              -0.000000000              -0.001352907               0.999999987               0.000000000              -0.001368324               0.999999987               0.000000000              -0.001382347               0.999999987              -0.000000000              -0.001399418               0.999999987              -0.000000000              -0.001420808               0.999999987               0.000000000              -0.001446118               0.999999987              -0.000000000              -0.001474748               0.999999987              -0.000000000              -0.001506135               0.999999987              -0.000000000              -0.001539734               0.999999987               0.000000000              -0.001574702               0.999999987              -0.000000000              -0.001610385               0.999999987               0.000000000              -0.001646254               0.999999987              -0.000000000              -0.001681715               0.999999987               0.000000000              -0.001716178               0.999999987               0.000000000              -0.001748765               0.999999987              -0.000000000              -0.001778567               0.999999987               0.000916455              -0.000000000               0.999999987               0.000964140              -0.000000000               0.999999987               0.000983453               0.000000000               0.999999987               0.000993536              -0.000000000               0.999999987               0.001001095               0.000000000               0.999999987               0.001008678               0.000000000               0.999999987               0.001017264               0.000000000               0.999999987               0.001026885               0.000000000               0.999999987               0.001037411              -0.000000000               0.999999987               0.001048452              -0.000000000               0.999999987               0.001059604              -0.000000000               0.999999987               0.001070509               0.000000000               0.999999987               0.001080938              -0.000000000               0.999999987               0.001090264               0.000000000               0.999999987               0.001097836               0.000000000               0.999999987               0.001102958              -0.000000000               0.999999987               0.001104719              -0.000000000               0.999999987               0.000911265               0.000125832               0.999999987               0.000954686               0.000098914               0.999999987               0.000971319               0.000086436               0.999999987               0.000979683               0.000080849               0.999999987               0.000986125               0.000078601               0.999999987               0.000992830               0.000078095               0.999999987               0.001000510               0.000078166               0.999999987               0.001009226               0.000077968               0.999999987               0.001018655               0.000077073               0.999999987               0.001028382               0.000075052               0.999999987               0.001038009               0.000071645               0.999999987               0.001047163               0.000066701               0.999999987               0.001055463               0.000059774               0.999999987               0.001062428               0.000050207               0.999999987               0.001067506               0.000037331               0.999999987               0.001070018               0.000020228               0.999999987               0.001069314              -0.000002113               0.999999987               0.000895905               0.000250416               0.999999987               0.000926976               0.000197553               0.999999987               0.000936100               0.000173912               0.999999987               0.000939763               0.000163882               0.999999987               0.000943020               0.000160349               0.999999987               0.000947294               0.000159838               0.999999987               0.000952743               0.000160315               0.999999987               0.000958939               0.000160154               0.999999987               0.000965282               0.000158345               0.999999987               0.000971328               0.000154378               0.999999987               0.000976611               0.000147623               0.999999987               0.000980810               0.000138016               0.999999987               0.000983506               0.000124544               0.999999987               0.000984147               0.000106162               0.999999987               0.000982387               0.000082008               0.999999987               0.000977840               0.000051047               0.999999987               0.000970383               0.000011806               0.999999987               0.000870725               0.000372702               0.999999987               0.000882513               0.000295722               0.999999987               0.000880667               0.000263311               0.999999987               0.000877882               0.000250851               0.999999987               0.000877022               0.000247412               0.999999987               0.000878037               0.000247838               0.999999987               0.000880325               0.000249041               0.999999987               0.000882783               0.000248847               0.999999987               0.000884620               0.000246176               0.999999987               0.000885319               0.000240188               0.999999987               0.000884391               0.000230387               0.999999987               0.000881339               0.000216307               0.999999987               0.000875747               0.000197021               0.999999987               0.000867362               0.000171467               0.999999987               0.000856056               0.000138989               0.999999987               0.000842031               0.000098802               0.999999987               0.000825754               0.000050602               0.999999987               0.000836071               0.000491680               0.999999987               0.000823309               0.000393529               0.999999987               0.000809240               0.000355350               0.999999987               0.000800100               0.000342600               0.999999987               0.000795332               0.000340547               0.999999987               0.000793095               0.000342591               0.999999987               0.000791663               0.000344815               0.999999987               0.000789607               0.000344684               0.999999987               0.000786104               0.000341040               0.999999987               0.000780315               0.000333106               0.999999987               0.000771656               0.000320320               0.999999987               0.000759667               0.000302140               0.999999987               0.000744217               0.000278086               0.999999987               0.000725427               0.000247386               0.999999987               0.000703658               0.000209777               0.999999987               0.000679553               0.000165770               0.999999987               0.000654120               0.000116189               0.999999987               0.000792700               0.000606132               0.999999987               0.000752451               0.000491110               0.999999987               0.000727151               0.000450274               0.999999987               0.000713205               0.000438932               0.999999987               0.000705593               0.000439159               0.999999987               0.000700573               0.000443023               0.999999987               0.000695471               0.000446042               0.999999987               0.000688666               0.000445966               0.999999987               0.000679009               0.000441397               0.999999987               0.000665699               0.000431483               0.999999987               0.000648281               0.000415828               0.999999987               0.000626604               0.000394002               0.999999987               0.000600916               0.000366114               0.999999987               0.000571745               0.000332299               0.999999987               0.000539916               0.000292697               0.999999987               0.000506408               0.000248641               0.999999987               0.000472277               0.000201950               0.999999987               0.000741595               0.000714873               0.999999987               0.000673743               0.000588425               0.999999987               0.000639977               0.000547541               0.999999987               0.000623444               0.000538706               0.999999987               0.000614404               0.000541442               0.999999987               0.000607207               0.000546834               0.999999987               0.000598480               0.000550472               0.999999987               0.000586433               0.000550313               0.999999987               0.000569937               0.000544665               0.999999987               0.000548354               0.000532784               0.999999987               0.000521646               0.000514521               0.999999987               0.000490073               0.000489680               0.999999987               0.000454068               0.000459141               0.999999987               0.000414649               0.000423701               0.999999987               0.000372803               0.000384180               0.999999987               0.000329674               0.000342188               0.999999987               0.000286085               0.000299446               0.999999987               0.000683909               0.000816824               0.999999987               0.000590924               0.000685231               0.999999987               0.000552443               0.000646194               0.999999987               0.000536057               0.000639909               0.999999987               0.000526774               0.000644813               0.999999987               0.000517637               0.000651535               0.999999987               0.000504979               0.000655673               0.999999987               0.000487127               0.000655268               0.999999987               0.000463133               0.000648390               0.999999987               0.000432585               0.000634604               0.999999987               0.000395752               0.000613946               0.999999987               0.000353152               0.000587001               0.999999987               0.000305920               0.000555080               0.999999987               0.000255212               0.000519631               0.999999987               0.000202329               0.000481778               0.999999987               0.000148619               0.000443179               0.999999987               0.000094734               0.000404616               0.999999987               0.000621593               0.000910167               0.999999987               0.000506827               0.000781316               0.999999987               0.000468923               0.000744592               0.999999987               0.000454642               0.000740285               0.999999987               0.000445866               0.000746815               0.999999987               0.000434601               0.000754665               0.999999987               0.000417675               0.000759209               0.999999987               0.000393291               0.000758182               0.999999987               0.000360674               0.000750057               0.999999987               0.000319818               0.000734478               0.999999987               0.000271301               0.000711914               0.999999987               0.000216375               0.000683678               0.999999987               0.000156403               0.000651715               0.999999987               0.000093224               0.000617809               0.999999987               0.000028676               0.000583456               0.999999987              -0.000035926               0.000549734               0.999999987              -0.000100265               0.000516806               0.999999987               0.000557091               0.000998707               0.999999987               0.000436054               0.000889543               0.999999987               0.000395960               0.000849888               0.999999987               0.000381593               0.000841499               0.999999987               0.000374062               0.000845977               0.999999987               0.000365299               0.000854419               0.999999987               0.000352027               0.000862255               0.999999987               0.000332158               0.000866886               0.999999987               0.000304725               0.000866774               0.999999987               0.000269499               0.000861039               0.999999987               0.000226758               0.000849268               0.999999987               0.000176814               0.000832078               0.999999987               0.000120416               0.000810628               0.999999987               0.000059047               0.000786525               0.999999987              -0.000005561               0.000761349               0.999999987              -0.000071536               0.000736580               0.999999987              -0.000137284               0.000712895               0.999999987               0.000486896               0.001079524               0.999999987               0.000367732               0.000994405               0.999999987               0.000325665               0.000957989               0.999999987               0.000310347               0.000947777               0.999999987               0.000303230               0.000951014               0.999999987               0.000296368               0.000960055               0.999999987               0.000286084               0.000970630               0.999999987               0.000270236               0.000980237               0.999999987               0.000247530               0.000987125               0.999999987               0.000217737               0.000990287               0.999999987               0.000180937               0.000988730               0.999999987               0.000136850               0.000982337               0.999999987               0.000085547               0.000971596               0.999999987               0.000027565               0.000957577               0.999999987              -0.000035672               0.000941574               0.999999987              -0.000102182               0.000925064               0.999999987              -0.000170160               0.000909243               0.999999987               0.000412371               0.001150589               0.999999987               0.000301843               0.001092765               0.999999987               0.000259708               0.001063873               0.999999987               0.000243215               0.001055065               0.999999987               0.000235996               0.001058499               0.999999987               0.000230129               0.001068606               0.999999987               0.000222129               0.001081837               0.999999987               0.000209559               0.001095917               0.999999987               0.000191251               0.001109019               0.999999987               0.000166702               0.001119949               0.999999987               0.000135810               0.001127887               0.999999987               0.000098103               0.001132087               0.999999987               0.000053131               0.001132344               0.999999987               0.000000529               0.001129081               0.999999987              -0.000059281               0.001123126               0.999999987              -0.000124880               0.001115757               0.999999987              -0.000194756               0.001108056               0.999999987               0.000334248               0.001210547               0.999999987               0.000238413               0.001180476               0.999999987               0.000198868               0.001162343               0.999999987               0.000182135               0.001157489               0.999999987               0.000174469               0.001162994               0.999999987               0.000169151               0.001175160               0.999999987               0.000162716               0.001191302               0.999999987               0.000153041               0.001209431               0.999999987               0.000138695               0.001228042               0.999999987               0.000119155               0.001245966               0.999999987               0.000094196               0.001262292               0.999999987               0.000063243               0.001276194               0.999999987               0.000025573               0.001287137               0.999999987              -0.000019884               0.001294959               0.999999987              -0.000073435               0.001299906               0.999999987              -0.000134795               0.001302682               0.999999987              -0.000203714               0.001304155               0.999999987               0.000253189               0.001258317               0.999999987               0.000177138               0.001253358               0.999999987               0.000143430               0.001247281               0.999999987               0.000128023               0.001248446               0.999999987               0.000120484               0.001257215               0.999999987               0.000115713               0.001272215               0.999999987               0.000110507               0.001291501               0.999999987               0.000103257               0.001313662               0.999999987               0.000092473               0.001337421               0.999999987               0.000077735               0.001361505               0.999999987               0.000058817               0.001385086               0.999999987               0.000035128               0.001407427               0.999999987               0.000005664               0.001428009               0.999999987              -0.000030671               0.001446217               0.999999987              -0.000074893               0.001461918               0.999999987              -0.000127831               0.001475192               0.999999987              -0.000190205               0.001486454               0.999999987               0.000169965               0.001292852               0.999999987               0.000117367               0.001307929               0.999999987               0.000092734               0.001312864               0.999999987               0.000080789               0.001320330               0.999999987               0.000074554               0.001333043               0.999999987               0.000070613               0.001351030               0.999999987               0.000066783               0.001373359               0.999999987               0.000061809               0.001399018               0.999999987               0.000054687               0.001426870               0.999999987               0.000044881               0.001455902               0.999999987               0.000032094               0.001485365               0.999999987               0.000015886               0.001514624               0.999999987              -0.000004304               0.001542992               0.999999987              -0.000029536               0.001569855               0.999999987              -0.000061304               0.001594842               0.999999987              -0.000100840               0.001617652               0.999999987              -0.000149488               0.001638123               0.999999987               0.000085326               0.001313709               0.999999987               0.000058453               0.001341574               0.999999987               0.000045483               0.001354284               0.999999987               0.000038922               0.001366470               0.999999987               0.000035321               0.001382351               0.999999987               0.000033064               0.001402756               0.999999987               0.000030934               0.001427237               0.999999987               0.000028416               0.001455211               0.999999987               0.000024920               0.001485752               0.999999987               0.000020089               0.001518111               0.999999987               0.000013541               0.001551606               0.999999987               0.000005253               0.001585590               0.999999987              -0.000004807               0.001619397               0.999999987              -0.000017752               0.001652457               0.999999987              -0.000034568               0.001684166               0.999999987              -0.000055964               0.001713942               0.999999987              -0.000083174               0.001741171               0.999999987              -0.000000000               0.001320767               0.999999987              -0.000000000               0.001352907               0.999999987              -0.000000000               0.001368324               0.999999987               0.000000000               0.001382347               0.999999987               0.000000000               0.001399418               0.999999987              -0.000000000               0.001420808               0.999999987               0.000000000               0.001446118               0.999999987              -0.000000000               0.001474748               0.999999987              -0.000000000               0.001506135               0.999999987               0.000000000               0.001539734               0.999999987              -0.000000000               0.001574702               0.999999987               0.000000000               0.001610385               0.999999987              -0.000000000               0.001646254               0.999999987              -0.000000000               0.001681715               0.999999987              -0.000000000               0.001716178               0.999999987               0.000000000               0.001748765               0.999999987               0.000000000               0.001778567               0.999999987 </DataArray>
<DataArray type="Float64"                                    Name="defo"                                                      NumberOfComponents=" 3" format="ascii">
             -0.000916455              -0.000000000               0.999999987              -0.000964140              -0.000000000               0.999999987              -0.000983453               0.000000000               0.999999987              -0.000993536               0.000000000               0.999999987              -0.001001095               0.000000000               0.999999987              -0.001008678               0.000000000               0.999999987              -0.001017264              -0.000000000               0.999999987              -0.001026885               0.000000000               0.999999987              -0.001037411              -0.000000000               0.999999987              -0.001048452              -0.000000000               0.999999987              -0.001059604               0.000000000               0.999999987              -0.001070509               0.000000000               0.999999987              -0.001080938               0.000000000               0.999999987              -0.001090264              -0.000000000               0.999999987              -0.001097836              -0.000000000               0.999999987              -0.001102958              -0.000000000               0.999999987              -0.001104719              -0.000000000               0.999999987              -0.000911265               0.000125832               0.999999987              -0.000954686               0.000098914               0.999999987              -0.000971319               0.000086436               0.999999987              -0.000979683               0.000080849               0.999999987              -0.000986125               0.000078601               0.999999987              -0.000992830               0.000078095               0.999999987              -0.001000510               0.000078166               0.999999987              -0.001009226               0.000077968               0.999999987              -0.001018655               0.000077073               0.999999987              -0.001028382               0.000075052               0.999999987              -0.001038009               0.000071645               0.999999987              -0.001047163               0.000066701               0.999999987              -0.001055463               0.000059774               0.999999987              -0.001062428               0.000050207               0.999999987              -0.001067506               0.000037331               0.999999987              -0.001070018               0.000020228               0.999999987              -0.001069314              -0.000002113               0.999999987              -0.000895905               0.000250416               0.999999987              -0.000926976               0.000197553               0.999999987              -0.000936100               0.000173912               0.999999987              -0.000939763               0.000163882               0.999999987              -0.000943020               0.000160349               0.999999987              -0.000947294               0.000159838               0.999999987              -0.000952743               0.000160315               0.999999987              -0.000958939               0.000160154               0.999999987              -0.000965282               0.000158345               0.999999987              -0.000971328               0.000154378               0.999999987              -0.000976611               0.000147623               0.999999987              -0.000980810               0.000138016               0.999999987              -0.000983506               0.000124544               0.999999987              -0.000984147               0.000106162               0.999999987              -0.000982387               0.000082008               0.999999987              -0.000977840               0.000051047               0.999999987              -0.000970383               0.000011806               0.999999987              -0.000870725               0.000372702               0.999999987              -0.000882513               0.000295722               0.999999987              -0.000880667               0.000263311               0.999999987              -0.000877882               0.000250851               0.999999987              -0.000877022               0.000247412               0.999999987              -0.000878037               0.000247838               0.999999987              -0.000880325               0.000249041               0.999999987              -0.000882783               0.000248847               0.999999987              -0.000884620               0.000246176               0.999999987              -0.000885319               0.000240188               0.999999987              -0.000884391               0.000230387               0.999999987              -0.000881339               0.000216307               0.999999987              -0.000875747               0.000197021               0.999999987              -0.000867362               0.000171467               0.999999987              -0.000856056               0.000138989               0.999999987              -0.000842031               0.000098802               0.999999987              -0.000825754               0.000050602               0.999999987              -0.000836071               0.000491680               0.999999987              -0.000823309               0.000393529               0.999999987              -0.000809240               0.000355350               0.999999987              -0.000800100               0.000342600               0.999999987              -0.000795332               0.000340547               0.999999987              -0.000793095               0.000342591               0.999999987              -0.000791663               0.000344815               0.999999987              -0.000789607               0.000344684               0.999999987              -0.000786104               0.000341040               0.999999987              -0.000780315               0.000333106               0.999999987              -0.000771656               0.000320320               0.999999987              -0.000759667               0.000302140               0.999999987              -0.000744217               0.000278086               0.999999987              -0.000725427               0.000247386               0.999999987              -0.000703658               0.000209777               0.999999987              -0.000679553               0.000165770               0.999999987              -0.000654120               0.000116189               0.999999987              -0.000792700               0.000606132               0.999999987              -0.000752451               0.000491110               0.999999987              -0.000727151               0.000450274               0.999999987              -0.000713205               0.000438932               0.999999987              -0.000705593               0.000439159               0.999999987              -0.000700573               0.000443023               0.999999987              -0.000695471               0.000446042               0.999999987              -0.000688666               0.000445966               0.999999987              -0.000679009               0.000441397               0.999999987              -0.000665699               0.000431483               0.999999987              -0.000648281               0.000415828               0.999999987              -0.000626604               0.000394002               0.999999987              -0.000600916               0.000366114               0.999999987              -0.000571745               0.000332299               0.999999987              -0.000539916               0.000292697               0.999999987              -0.000506408               0.000248641               0.999999987              -0.000472277               0.000201950               0.999999987              -0.000741595               0.000714873               0.999999987              -0.000673743               0.000588425               0.999999987              -0.000639977               0.000547541               0.999999987              -0.000623444               0.000538706               0.999999987              -0.000614404               0.000541442               0.999999987              -0.000607207               0.000546834               0.999999987              -0.000598480               0.000550472               0.999999987              -0.000586433               0.000550313               0.999999987              -0.000569937               0.000544665               0.999999987              -0.000548354               0.000532784               0.999999987              -0.000521646               0.000514521               0.999999987              -0.000490073               0.000489680               0.999999987              -0.000454068               0.000459141               0.999999987              -0.000414649               0.000423701               0.999999987              -0.000372803               0.000384180               0.999999987              -0.000329674               0.000342188               0.999999987              -0.000286085               0.000299446               0.999999987              -0.000683909               0.000816824               0.999999987              -0.000590924               0.000685231               0.999999987              -0.000552443               0.000646194               0.999999987              -0.000536057               0.000639909               0.999999987              -0.000526774               0.000644813               0.999999987              -0.000517637               0.000651535               0.999999987              -0.000504979               0.000655673               0.999999987              -0.000487127               0.000655268               0.999999987              -0.000463133               0.000648390               0.999999987              -0.000432585               0.000634604               0.999999987              -0.000395752               0.000613946               0.999999987              -0.000353152               0.000587001               0.999999987              -0.000305920               0.000555080               0.999999987              -0.000255212               0.000519631               0.999999987              -0.000202329               0.000481778               0.999999987              -0.000148619               0.000443179               0.999999987              -0.000094734               0.000404616               0.999999987              -0.000621593               0.000910167               0.999999987              -0.000506827               0.000781316               0.999999987              -0.000468923               0.000744592               0.999999987              -0.000454642               0.000740285               0.999999987              -0.000445866               0.000746815               0.999999987              -0.000434601               0.000754665               0.999999987              -0.000417675               0.000759209               0.999999987              -0.000393291               0.000758182               0.999999987              -0.000360674               0.000750057               0.999999987              -0.000319818               0.000734478               0.999999987              -0.000271301               0.000711914               0.999999987              -0.000216375               0.000683678               0.999999987              -0.000156403               0.000651715               0.999999987              -0.000093224               0.000617809               0.999999987              -0.000028676               0.000583456               0.999999987               0.000035926               0.000549734               0.999999987               0.000100265               0.000516806               0.999999987              -0.000557091               0.000998707               0.999999987              -0.000436054               0.000889543               0.999999987              -0.000395960               0.000849888               0.999999987              -0.000381593               0.000841499               0.999999987              -0.000374062               0.000845977               0.999999987              -0.000365299               0.000854419               0.999999987              -0.000352027               0.000862255               0.999999987              -0.000332158               0.000866886               0.999999987              -0.000304725               0.000866774               0.999999987              -0.000269499               0.000861039               0.999999987              -0.000226758               0.000849268               0.999999987              -0.000176814               0.000832078               0.999999987              -0.000120416               0.000810628               0.999999987              -0.000059047               0.000786525               0.999999987               0.000005561               0.000761349               0.999999987               0.000071536               0.000736580               0.999999987               0.000137284               0.000712895               0.999999987              -0.000486896               0.001079524               0.999999987              -0.000367732               0.000994405               0.999999987              -0.000325665               0.000957989               0.999999987              -0.000310347               0.000947777               0.999999987              -0.000303230               0.000951014               0.999999987              -0.000296368               0.000960055               0.999999987              -0.000286084               0.000970630               0.999999987              -0.000270236               0.000980237               0.999999987              -0.000247530               0.000987125               0.999999987              -0.000217737               0.000990287               0.999999987              -0.000180937               0.000988730               0.999999987              -0.000136850               0.000982337               0.999999987              -0.000085547               0.000971596               0.999999987              -0.000027565               0.000957577               0.999999987               0.000035672               0.000941574               0.999999987               0.000102182               0.000925064               0.999999987               0.000170160               0.000909243               0.999999987              -0.000412371               0.001150589               0.999999987              -0.000301843               0.001092765               0.999999987              -0.000259708               0.001063873               0.999999987              -0.000243215               0.001055065               0.999999987              -0.000235996               0.001058499               0.999999987              -0.000230129               0.001068606               0.999999987              -0.000222129               0.001081837               0.999999987              -0.000209559               0.001095917               0.999999987              -0.000191251               0.001109019               0.999999987              -0.000166702               0.001119949               0.999999987              -0.000135810               0.001127887               0.999999987              -0.000098103               0.001132087               0.999999987              -0.000053131               0.001132344               0.999999987              -0.000000529               0.001129081               0.999999987               0.000059281               0.001123126               0.999999987               0.000124880               0.001115757               0.999999987               0.000194756               0.001108056               0.999999987              -0.000334248               0.001210547               0.999999987              -0.000238413               0.001180476               0.999999987              -0.000198868               0.001162343               0.999999987              -0.000182135               0.001157489               0.999999987              -0.000174469               0.001162994               0.999999987              -0.000169151               0.001175160               0.999999987              -0.000162716               0.001191302               0.999999987              -0.000153041               0.001209431               0.999999987              -0.000138695               0.001228042               0.999999987              -0.000119155               0.001245966               0.999999987              -0.000094196               0.001262292               0.999999987              -0.000063243               0.001276194               0.999999987              -0.000025573               0.001287137               0.999999987               0.000019884               0.001294959               0.999999987               0.000073435               0.001299906               0.999999987               0.000134795               0.001302682               0.999999987               0.000203714               0.001304155               0.999999987              -0.000253189               0.001258317               0.999999987              -0.000177138               0.001253358               0.999999987              -0.000143430               0.001247281               0.999999987              -0.000128023               0.001248446               0.999999987              -0.000120484               0.001257215               0.999999987              -0.000115713               0.001272215               0.999999987              -0.000110507               0.001291501               0.999999987              -0.000103257               0.001313662               0.999999987              -0.000092473               0.001337421               0.999999987              -0.000077735               0.001361505               0.999999987              -0.000058817               0.001385086               0.999999987              -0.000035128               0.001407427               0.999999987              -0.000005664               0.001428009               0.999999987               0.000030671               0.001446217               0.999999987               0.000074893               0.001461918               0.999999987               0.000127831               0.001475192               0.999999987               0.000190205               0.001486454               0.999999987              -0.000169965               0.001292852               0.999999987              -0.000117367               0.001307929               0.999999987              -0.000092734               0.001312864               0.999999987              -0.000080789               0.001320330               0.999999987              -0.000074554               0.001333043               0.999999987              -0.000070613               0.001351030               0.999999987              -0.000066783               0.001373359               0.999999987              -0.000061809               0.001399018               0.999999987              -0.000054687               0.001426870               0.999999987              -0.000044881               0.001455902               0.999999987              -0.000032094               0.001485365               0.999999987              -0.000015886               0.001514624               0.999999987               0.000004304               0.001542992               0.999999987               0.000029536               0.001569855               0.999999987               0.000061304               0.001594842               0.999999987               0.000100840               0.001617652               0.999999987               0.000149488               0.001638123               0.999999987              -0.000085326               0.001313709               0.999999987              -0.000058453               0.001341574               0.999999987              -0.000045483               0.001354284               0.999999987              -0.000038922               0.001366470               0.999999987              -0.000035321               0.001382351               0.999999987              -0.000033064               0.001402756               0.999999987              -0.000030934               0.001427237               0.999999987              -0.000028416               0.001455211               0.999999987              -0.000024920               0.001485752               0.999999987              -0.000020089               0.001518111               0.999999987              -0.000013541               0.001551606               0.999999987              -0.000005253               0.001585590               0.999999987               0.000004807               0.001619397               0.999999987               0.000017752               0.001652457               0.999999987               0.000034568               0.001684166               0.999999987               0.000055964               0.001713942               0.999999987               0.000083174               0.001741171               0.999999987              -0.000000000               0.001320767               0.999999987              -0.000000000               0.001352907               0.999999987              -0.000000000               0.001368324               0.999999987               0.000000000               0.001382347               0.999999987               0.000000000               0.001399418               0.999999987              -0.000000000               0.001420808               0.999999987               0.000000000               0.001446118               0.999999987              -0.000000000               0.001474748               0.999999987              -0.000000000               0.001506135               0.999999987               0.000000000               0.001539734               0.999999987              -0.000000000               0.001574702               0.999999987               0.000000000               0.001610385               0.999999987              -0.000000000               0.001646254               0.999999987              -0.000000000               0.001681715               0.999999987              -0.000000000               0.001716178               0.999999987               0.000000000               0.001748765               0.999999987               0.000000000               0.001778567               0.999999987              -0.000916455              -0.000000000               0.999999987              -0.000964140              -0.000000000               0.999999987              -0.000983453               0.000000000               0.999999987              -0.000993536               0.000000000               0.999999987              -0.001001095               0.000000000               0.999999987              -0.001008678               0.000000000               0.999999987              -0.001017264              -0.000000000               0.999999987              -0.001026885               0.000000000               0.999999987              -0.001037411              -0.000000000               0.999999987              -0.001048452              -0.000000000               0.999999987              -0.001059604               0.000000000               0.999999987              -0.001070509               0.000000000               0.999999987              -0.001080938               0.000000000               0.999999987              -0.001090264              -0.000000000               0.999999987              -0.001097836              -0.000000000               0.999999987              -0.001102958              -0.000000000               0.999999987              -0.001104719              -0.000000000               0.999999987              -0.000911265              -0.000125832               0.999999987              -0.000954686              -0.000098914               0.999999987              -0.000971319              -0.000086436               0.999999987              -0.000979683              -0.000080849               0.999999987              -0.000986125              -0.000078601               0.999999987              -0.000992830              -0.000078095               0.999999987              -0.001000510              -0.000078166               0.999999987              -0.001009226              -0.000077968               0.999999987              -0.001018655              -0.000077073               0.999999987              -0.001028382              -0.000075052               0.999999987              -0.001038009              -0.000071645               0.999999987              -0.001047163              -0.000066701               0.999999987              -0.001055463              -0.000059774               0.999999987              -0.001062428              -0.000050207               0.999999987              -0.001067506              -0.000037331               0.999999987              -0.001070018              -0.000020228               0.999999987              -0.001069314               0.000002113               0.999999987              -0.000895905              -0.000250416               0.999999987              -0.000926976              -0.000197553               0.999999987              -0.000936100              -0.000173912               0.999999987              -0.000939763              -0.000163882               0.999999987              -0.000943020              -0.000160349               0.999999987              -0.000947294              -0.000159838               0.999999987              -0.000952743              -0.000160315               0.999999987              -0.000958939              -0.000160154               0.999999987              -0.000965282              -0.000158345               0.999999987              -0.000971328              -0.000154378               0.999999987              -0.000976611              -0.000147623               0.999999987              -0.000980810              -0.000138016               0.999999987              -0.000983506              -0.000124544               0.999999987              -0.000984147              -0.000106162               0.999999987              -0.000982387              -0.000082008               0.999999987              -0.000977840              -0.000051047               0.999999987              -0.000970383              -0.000011806               0.999999987              -0.000870725              -0.000372702               0.999999987              -0.000882513              -0.000295722               0.999999987              -0.000880667              -0.000263311               0.999999987              -0.000877882              -0.000250851               0.999999987              -0.000877022              -0.000247412               0.999999987              -0.000878037              -0.000247838               0.999999987              -0.000880325              -0.000249041               0.999999987              -0.000882783              -0.000248847               0.999999987              -0.000884620              -0.000246176               0.999999987              -0.000885319              -0.000240188               0.999999987              -0.000884391              -0.000230387               0.999999987              -0.000881339              -0.000216307               0.999999987              -0.000875747              -0.000197021               0.999999987              -0.000867362              -0.000171467               0.999999987              -0.000856056              -0.000138989               0.999999987              -0.000842031              -0.000098802               0.999999987              -0.000825754              -0.000050602               0.999999987              -0.000836071              -0.000491680               0.999999987              -0.000823309              -0.000393529               0.999999987              -0.000809240              -0.000355350               0.999999987              -0.000800100              -0.000342600               0.999999987              -0.000795332              -0.000340547               0.999999987              -0.000793095              -0.000342591               0.999999987              -0.000791663              -0.000344815               0.999999987              -0.000789607              -0.000344684               0.999999987              -0.000786104              -0.000341040               0.999999987              -0.000780315              -0.000333106               0.999999987              -0.000771656              -0.000320320               0.999999987              -0.000759667              -0.000302140               0.999999987              -0.000744217              -0.000278086               0.999999987              -0.000725427              -0.000247386               0.999999987              -0.000703658              -0.000209777               0.999999987              -0.000679553              -0.000165770               0.999999987              -0.000654120              -0.000116189               0.999999987              -0.000792700              -0.000606132               0.999999987              -0.000752451              -0.000491110               0.999999987              -0.000727151              -0.000450274               0.999999987              -0.000713205              -0.000438932               0.999999987              -0.000705593              -0.000439159               0.999999987              -0.000700573              -0.000443023               0.999999987              -0.000695471              -0.000446042               0.999999987              -0.000688666              -0.000445966               0.999999987              -0.000679009              -0.000441397               0.999999987              -0.000665699              -0.000431483               0.999999987              -0.000648281              -0.000415828               0.999999987              -0.000626604              -0.000394002               0.999999987              -0.000600916              -0.000366114               0.999999987              -0.000571745              -0.000332299               0.999999987              -0.000539916              -0.000292697               0.999999987              -0.000506408              -0.000248641               0.999999987              -0.000472277              -0.000201950               0.999999987              -0.000741595              -0.000714873               0.999999987              -0.000673743              -0.000588425               0.999999987              -0.000639977              -0.000547541               0.999999987              -0.000623444              -0.000538706               0.999999987              -0.000614404              -0.000541442               0.999999987              -0.000607207              -0.000546834               0.999999987              -0.000598480              -0.000550472               0.999999987              -0.000586433              -0.000550313               0.999999987              -0.000569937              -0.000544665               0.999999987              -0.000548354              -0.000532784               0.999999987              -0.000521646              -0.000514521               0.999999987              -0.000490073              -0.000489680               0.999999987              -0.000454068              -0.000459141               0.999999987              -0.000414649              -0.000423701               0.999999987              -0.000372803              -0.000384180               0.999999987              -0.000329674              -0.000342188               0.999999987              -0.000286085              -0.000299446               0.999999987              -0.000683909              -0.000816824               0.999999987              -0.000590924              -0.000685231               0.999999987              -0.000552443              -0.000646194               0.999999987              -0.000536057              -0.000639909               0.999999987              -0.000526774              -0.000644813               0.999999987              -0.000517637              -0.000651535               0.999999987              -0.000504979              -0.000655673               0.999999987              -0.000487127              -0.000655268               0.999999987              -0.000463133              -0.000648390               0.999999987              -0.000432585              -0.000634604               0.999999987              -0.000395752              -0.000613946               0.999999987              -0.000353152              -0.000587001               0.999999987              -0.000305920              -0.000555080               0.999999987              -0.000255212              -0.000519631               0.999999987              -0.000202329              -0.000481778               0.999999987              -0.000148619              -0.000443179               0.999999987              -0.000094734              -0.000404616               0.999999987              -0.000621593              -0.000910167               0.999999987              -0.000506827              -0.000781316               0.999999987              -0.000468923              -0.000744592               0.999999987              -0.000454642              -0.000740285               0.999999987              -0.000445866              -0.000746815               0.999999987              -0.000434601              -0.000754665               0.999999987              -0.000417675              -0.000759209               0.999999987              -0.000393291              -0.000758182               0.999999987              -0.000360674              -0.000750057               0.999999987              -0.000319818              -0.000734478               0.999999987              -0.000271301              -0.000711914               0.999999987              -0.000216375              -0.000683678               0.999999987              -0.000156403              -0.000651715               0.999999987              -0.000093224              -0.000617809               0.999999987              -0.000028676              -0.000583456               0.999999987               0.000035926              -0.000549734               0.999999987               0.000100265              -0.000516806               0.999999987              -0.000557091              -0.000998707               0.999999987              -0.000436054              -0.000889543               0.999999987              -0.000395960              -0.000849888               0.999999987              -0.000381593              -0.000841499               0.999999987              -0.000374062              -0.000845977               0.999999987              -0.000365299              -0.000854419               0.999999987              -0.000352027              -0.000862255               0.999999987              -0.000332158              -0.000866886               0.999999987              -0.000304725              -0.000866774               0.999999987              -0.000269499              -0.000861039               0.999999987              -0.000226758              -0.000849268               0.999999987              -0.000176814              -0.000832078               0.999999987              -0.000120416              -0.000810628               0.999999987              -0.000059047              -0.000786525               0.999999987               0.000005561              -0.000761349               0.999999987               0.000071536              -0.000736580               0.999999987               0.000137284              -0.000712895               0.999999987              -0.000486896              -0.001079524               0.999999987              -0.000367732              -0.000994405               0.999999987              -0.000325665              -0.000957989               0.999999987              -0.000310347              -0.000947777               0.999999987              -0.000303230              -0.000951014               0.999999987              -0.000296368              -0.000960055               0.999999987              -0.000286084              -0.000970630               0.999999987              -0.000270236              -0.000980237               0.999999987              -0.000247530              -0.000987125               0.999999987              -0.000217737              -0.000990287               0.999999987              -0.000180937              -0.000988730               0.999999987              -0.000136850              -0.000982337               0.999999987              -0.000085547              -0.000971596               0.999999987              -0.000027565              -0.000957577               0.999999987               0.000035672              -0.000941574               0.999999987               0.000102182              -0.000925064               0.999999987               0.000170160              -0.000909243               0.999999987              -0.000412371              -0.001150589               0.999999987              -0.000301843              -0.001092765               0.999999987              -0.000259708              -0.001063873               0.999999987              -0.000243215              -0.001055065               0.999999987              -0.000235996              -0.001058499               0.999999987              -0.000230129              -0.001068606               0.999999987              -0.000222129              -0.001081837               0.999999987              -0.000209559              -0.001095917               0.999999987              -0.000191251              -0.001109019               0.999999987              -0.000166702              -0.001119949               0.999999987              -0.000135810              -0.001127887               0.999999987              -0.000098103              -0.001132087               0.999999987              -0.000053131              -0.001132344               0.999999987              -0.000000529              -0.001129081               0.999999987               0.000059281              -0.001123126               0.999999987               0.000124880              -0.001115757               0.999999987               0.000194756              -0.001108056               0.999999987              -0.000334248              -0.001210547               0.999999987              -0.000238413              -0.001180476               0.999999987              -0.000198868              -0.001162343               0.999999987              -0.000182135              -0.001157489               0.999999987              -0.000174469              -0.001162994               0.999999987              -0.000169151              -0.001175160               0.999999987              -0.000162716              -0.001191302               0.999999987              -0.000153041              -0.001209431               0.999999987              -0.000138695              -0.001228042               0.999999987              -0.000119155              -0.001245966               0.999999987              -0.000094196              -0.001262292               0.999999987              -0.000063243              -0.001276194               0.999999987              -0.000025573              -0.001287137               0.999999987               0.000019884              -0.001294959               0.999999987               0.000073435              -0.001299906               0.999999987               0.000134795              -0.001302682               0.999999987               0.000203714              -0.001304155               0.999999987              -0.000253189              -0.001258317               0.999999987              -0.000177138              -0.001253358               0.999999987              -0.000143430              -0.001247281               0.999999987              -0.000128023              -0.001248446               0.999999987              -0.000120484              -0.001257215               0.999999987              -0.000115713              -0.001272215               0.999999987              -0.000110507              -0.001291501               0.999999987              -0.000103257              -0.001313662               0.999999987              -0.000092473              -0.001337421               0.999999987              -0.000077735              -0.001361505               0.999999987              -0.000058817              -0.001385086               0.999999987              -0.000035128              -0.001407427               0.999999987              -0.000005664              -0.001428009               0.999999987               0.000030671              -0.001446217               0.999999987               0.000074893              -0.001461918               0.999999987               0.000127831              -0.001475192               0.999999987               0.000190205              -0.001486454               0.999999987              -0.000169965              -0.001292852               0.999999987              -0.000117367              -0.001307929               0.999999987              -0.000092734              -0.001312864               0.999999987              -0.000080789              -0.001320330               0.999999987              -0.000074554              -0.001333043               0.999999987              -0.000070613              -0.001351030               0.999999987              -0.000066783              -0.001373359               0.999999987              -0.000061809              -0.001399018               0.999999987              -0.000054687              -0.001426870               0.999999987              -0.000044881              -0.001455902               0.999999987              -0.000032094              -0.001485365               0.999999987              -0.000015886              -0.001514624               0.999999987               0.000004304              -0.001542992               0.999999987               0.000029536              -0.001569855               0.999999987               0.000061304              -0.001594842               0.999999987               0.000100840              -0.001617652               0.999999987               0.000149488              -0.001638123               0.999999987              -0.000085326              -0.001313709               0.999999987              -0.000058453              -0.001341574               0.999999987              -0.000045483              -0.001354284               0.999999987              -0.000038922              -0.001366470               0.999999987              -0.000035321              -0.001382351               0.999999987              -0.000033064              -0.001402756               0.999999987              -0.000030934              -0.001427237               0.999999987              -0.000028416              -0.001455211               0.999999987              -0.000024920              -0.001485752               0.999999987              -0.000020089              -0.001518111               0.999999987              -0.000013541              -0.001551606               0.999999987              -0.000005253              -0.001585590               0.999999987               0.000004807              -0.001619397               0.999999987               0.000017752              -0.001652457               0.999999987               0.000034568              -0.001684166               0.999999987               0.000055964              -0.001713942               0.999999987               0.000083174              -0.001741171               0.999999987               0.000000000              -0.001320767               0.999999987              -0.000000000              -0.001352907               0.999999987               0.000000000              -0.001368324               0.999999987               0.000000000              -0.001382347               0.999999987              -0.000000000              -0.001399418               0.999999987              -0.000000000              -0.001420808               0.999999987               0.000000000              -0.001446118               0.999999987              -0.000000000              -0.001474748               0.999999987              -0.000000000              -0.001506135               0.999999987              -0.000000000              -0.001539734               0.999999987               0.000000000              -0.001574702               0.999999987              -0.000000000              -0.001610385               0.999999987               0.000000000              -0.001646254               0.999999987              -0.000000000              -0.001681715               0.999999987               0.000000000              -0.001716178               0.999999987               0.000000000              -0.001748765               0.999999987              -0.000000000              -0.001778567               0.999999987               0.000916455              -0.000000000               0.999999987               0.000964140              -0.000000000               0.999999987               0.000983453               0.000000000               0.999999987               0.000993536              -0.000000000               0.999999987               0.001001095               0.000000000               0.999999987               0.001008678               0.000000000               0.999999987               0.001017264               0.000000000               0.999999987               0.001026885               0.000000000               0.999999987               0.001037411              -0.000000000               0.999999987               0.001048452              -0.000000000               0.999999987               0.001059604              -0.000000000               0.999999987               0.001070509               0.000000000               0.999999987               0.001080938              -0.000000000               0.999999987               0.001090264               0.000000000               0.999999987               0.001097836               0.000000000               0.999999987               0.001102958              -0.000000000               0.999999987               0.001104719              -0.000000000               0.999999987               0.000911265              -0.000125832               0.999999987               0.000954686              -0.000098914               0.999999987               0.000971319              -0.000086436               0.999999987               0.000979683              -0.000080849               0.999999987               0.000986125              -0.000078601               0.999999987               0.000992830              -0.000078095               0.999999987               0.001000510              -0.000078166               0.999999987               0.001009226              -0.000077968               0.999999987               0.001018655              -0.000077073               0.999999987               0.001028382              -0.000075052               0.999999987               0.001038009              -0.000071645               0.999999987               0.001047163              -0.000066701               0.999999987               0.001055463              -0.000059774               0.999999987               0.001062428              -0.000050207               0.999999987               0.001067506              -0.000037331               0.999999987               0.001070018              -0.000020228               0.999999987               0.001069314               0.000002113               0.999999987               0.000895905              -0.000250416               0.999999987               0.000926976              -0.000197553               0.999999987               0.000936100              -0.000173912               0.999999987               0.000939763              -0.000163882               0.999999987               0.000943020              -0.000160349               0.999999987               0.000947294              -0.000159838               0.999999987               0.000952743              -0.000160315               0.999999987               0.000958939              -0.000160154               0.999999987               0.000965282              -0.000158345               0.999999987               0.000971328              -0.000154378               0.999999987               0.000976611              -0.000147623               0.999999987               0.000980810              -0.000138016               0.999999987               0.000983506              -0.000124544               0.999999987               0.000984147              -0.000106162               0.999999987               0.000982387              -0.000082008               0.999999987               0.000977840              -0.000051047               0.999999987               0.000970383              -0.000011806               0.999999987               0.000870725              -0.000372702               0.999999987               0.000882513              -0.000295722               0.999999987               0.000880667              -0.000263311               0.999999987               0.000877882              -0.000250851               0.999999987               0.000877022              -0.000247412               0.999999987               0.000878037              -0.000247838               0.999999987               0.000880325              -0.000249041               0.999999987               0.000882783              -0.000248847               0.999999987               0.000884620              -0.000246176               0.999999987               0.000885319              -0.000240188               0.999999987               0.000884391              -0.000230387               0.999999987               0.000881339              -0.000216307               0.999999987               0.000875747              -0.000197021               0.999999987               0.000867362              -0.000171467               0.999999987               0.000856056              -0.000138989               0.999999987               0.000842031              -0.000098802               0.999999987               0.000825754              -0.000050602               0.999999987               0.000836071              -0.000491680               0.999999987               0.000823309              -0.000393529               0.999999987               0.000809240              -0.000355350               0.999999987               0.000800100              -0.000342600               0.999999987               0.000795332              -0.000340547               0.999999987               0.000793095              -0.000342591               0.999999987               0.000791663              -0.000344815               0.999999987               0.000789607              -0.000344684               0.999999987               0.000786104              -0.000341040               0.999999987               0.000780315              -0.000333106               0.999999987               0.000771656              -0.000320320               0.999999987               0.000759667              -0.000302140               0.999999987               0.000744217              -0.000278086               0.999999987               0.000725427              -0.000247386               0.999999987               0.000703658              -0.000209777               0.999999987               0.000679553              -0.000165770               0.999999987               0.000654120              -0.000116189               0.999999987               0.000792700              -0.000606132               0.999999987               0.000752451              -0.000491110               0.999999987               0.000727151              -0.000450274               0.999999987               0.000713205              -0.000438932               0.999999987               0.000705593              -0.000439159               0.999999987               0.000700573              -0.000443023               0.999999987               0.000695471              -0.000446042               0.999999987               0.000688666              -0.000445966               0.999999987               0.000679009              -0.000441397               0.999999987               0.000665699              -0.000431483               0.999999987               0.000648281              -0.000415828               0.999999987               0.000626604              -0.000394002               0.999999987               0.000600916              -0.000366114               0.999999987               0.000571745              -0.000332299               0.999999987               0.000539916              -0.000292697               0.999999987               0.000506408              -0.000248641               0.999999987               0.000472277              -0.000201950               0.999999987               0.000741595              -0.000714873               0.999999987               0.000673743              -0.000588425               0.999999987               0.000639977              -0.000547541               0.999999987               0.000623444              -0.000538706               0.999999987               0.000614404              -0.000541442               0.999999987               0.000607207              -0.000546834               0.999999987               0.000598480              -0.000550472               0.999999987               0.000586433              -0.000550313               0.999999987               0.000569937              -0.000544665               0.999999987               0.000548354              -0.000532784               0.999999987               0.000521646              -0.000514521               0.999999987               0.000490073              -0.000489680               0.999999987               0.000454068              -0.000459141               0.999999987               0.000414649              -0.000423701               0.999999987               0.000372803              -0.000384180               0.999999987               0.000329674              -0.000342188               0.999999987               0.000286085              -0.000299446               0.999999987               0.000683909              -0.000816824               0.999999987               0.000590924              -0.000685231               0.999999987               0.000552443              -0.000646194               0.999999987               0.000536057              -0.000639909               0.999999987               0.000526774              -0.000644813               0.999999987               0.000517637              -0.000651535               0.999999987               0.000504979              -0.000655673               0.999999987               0.000487127              -0.000655268               0.999999987               0.000463133              -0.000648390               0.999999987               0.000432585              -0.000634604               0.999999987               0.000395752              -0.000613946               0.999999987               0.000353152              -0.000587001               0.999999987               0.000305920              -0.000555080               0.999999987               0.000255212              -0.000519631               0.999999987               0.000202329              -0.000481778               0.999999987               0.000148619              -0.000443179               0.999999987               0.000094734              -0.000404616               0.999999987               0.000621593              -0.000910167               0.999999987               0.000506827              -0.000781316               0.999999987               0.000468923              -0.000744592               0.999999987               0.000454642              -0.000740285               0.999999987               0.000445866              -0.000746815               0.999999987               0.000434601              -0.000754665               0.999999987               0.000417675              -0.000759209               0.999999987               0.000393291              -0.000758182               0.999999987               0.000360674              -0.000750057               0.999999987               0.000319818              -0.000734478               0.999999987               0.000271301              -0.000711914               0.999999987               0.000216375              -0.000683678               0.999999987               0.000156403              -0.000651715               0.999999987               0.000093224              -0.000617809               0.999999987               0.000028676              -0.000583456               0.999999987              -0.000035926              -0.000549734               0.999999987              -0.000100265              -0.000516806               0.999999987               0.000557091              -0.000998707               0.999999987               0.000436054              -0.000889543               0.999999987               0.000395960              -0.000849888               0.999999987               0.000381593              -0.000841499               0.999999987               0.000374062              -0.000845977               0.999999987               0.000365299              -0.000854419               0.999999987               0.000352027              -0.000862255               0.999999987               0.000332158              -0.000866886               0.999999987               0.000304725              -0.000866774               0.999999987               0.000269499              -0.000861039               0.999999987               0.000226758              -0.000849268               0.999999987               0.000176814              -0.000832078               0.999999987               0.000120416              -0.000810628               0.999999987               0.000059047              -0.000786525               0.999999987              -0.000005561              -0.000761349               0.999999987              -0.000071536              -0.000736580               0.999999987              -0.000137284              -0.000712895               0.999999987               0.000486896              -0.001079524               0.999999987               0.000367732              -0.000994405               0.999999987               0.000325665              -0.000957989               0.999999987               0.000310347              -0.000947777               0.999999987               0.000303230              -0.000951014               0.999999987               0.000296368              -0.000960055               0.999999987               0.000286084              -0.000970630               0.999999987               0.000270236              -0.000980237               0.999999987               0.000247530              -0.000987125               0.999999987               0.000217737              -0.000990287               0.999999987               0.000180937              -0.000988730               0.999999987               0.000136850              -0.000982337               0.999999987               0.000085547              -0.000971596               0.999999987               0.000027565              -0.000957577               0.999999987              -0.000035672              -0.000941574               0.999999987              -0.000102182              -0.000925064               0.999999987              -0.000170160              -0.000909243               0.999999987               0.000412371              -0.001150589               0.999999987               0.000301843              -0.001092765               0.999999987               0.000259708              -0.001063873               0.999999987               0.000243215              -0.001055065               0.999999987               0.000235996              -0.001058499               0.999999987               0.000230129              -0.001068606               0.999999987               0.000222129              -0.001081837               0.999999987               0.000209559              -0.001095917               0.999999987               0.000191251              -0.001109019               0.999999987               0.000166702              -0.001119949               0.999999987               0.000135810              -0.001127887               0.999999987               0.000098103              -0.001132087               0.999999987               0.000053131              -0.001132344               0.999999987               0.000000529              -0.001129081               0.999999987              -0.000059281              -0.001123126               0.999999987              -0.000124880              -0.001115757               0.999999987              -0.000194756              -0.001108056               0.999999987               0.000334248              -0.001210547               0.999999987               0.000238413              -0.001180476               0.999999987               0.000198868              -0.001162343               0.999999987               0.000182135              -0.001157489               0.999999987               0.000174469              -0.001162994               0.999999987               0.000169151              -0.001175160               0.999999987               0.000162716              -0.001191302               0.999999987               0.000153041              -0.001209431               0.999999987               0.000138695              -0.001228042               0.999999987               0.000119155              -0.001245966               0.999999987               0.000094196              -0.001262292               0.999999987               0.000063243              -0.001276194               0.999999987               0.000025573              -0.001287137               0.999999987              -0.000019884              -0.001294959               0.999999987              -0.000073435              -0.001299906               0.999999987              -0.000134795              -0.001302682               0.999999987              -0.000203714              -0.001304155               0.999999987               0.000253189              -0.001258317               0.999999987               0.000177138              -0.001253358               0.999999987               0.000143430              -0.001247281               0.999999987               0.000128023              -0.001248446               0.999999987               0.000120484              -0.001257215               0.999999987               0.000115713              -0.001272215               0.999999987               0.000110507              -0.001291501               0.999999987               0.000103257              -0.001313662               0.999999987               0.000092473              -0.001337421               0.999999987               0.000077735              -0.001361505               0.999999987               0.000058817              -0.001385086               0.999999987               0.000035128              -0.001407427               0.999999987               0.000005664              -0.001428009               0.999999987              -0.000030671              -0.001446217               0.999999987              -0.000074893              -0.001461918               0.999999987              -0.000127831              -0.001475192               0.999999987              -0.000190205              -0.001486454               0.999999987               0.000169965              -0.001292852               0.999999987               0.000117367              -0.001307929               0.999999987               0.000092734              -0.001312864               0.999999987               0.000080789              -0.001320330               0.999999987               0.000074554              -0.001333043               0.999999987               0.000070613              -0.001351030               0.999999987               0.000066783              -0.001373359               0.999999987               0.000061809              -0.001399018               0.999999987               0.000054687              -0.001426870               0.999999987               0.000044881              -0.001455902               0.999999987               0.000032094              -0.001485365               0.999999987               0.000015886              -0.001514624               0.999999987              -0.000004304              -0.001542992               0.999999987              -0.000029536              -0.001569855               0.999999987              -0.000061304              -0.001594842               0.999999987              -0.000100840              -0.001617652               0.999999987              -0.000149488              -0.001638123               0.999999987               0.000085326              -0.001313709               0.999999987               0.000058453              -0.001341574               0.999999987               0.000045483              -0.001354284               0.999999987               0.000038922              -0.001366470               0.999999987               0.000035321              -0.001382351               0.999999987               0.000033064              -0.001402756               0.999999987               0.000030934              -0.001427237               0.999999987               0.000028416              -0.001455211               0.999999987               0.000024920              -0.001485752               0.999999987               0.000020089              -0.001518111               0.999999987               0.000013541              -0.001551606               0.999999987               0.000005253              -0.001585590               0.999999987              -0.000004807              -0.001619397               0.999999987              -0.000017752              -0.001652457               0.999999987              -0.000034568              -0.001684166               0.999999987              -0.000055964              -0.001713942               0.999999987              -0.000083174              -0.001741171               0.999999987               0.000000000              -0.001320767               0.999999987              -0.000000000              -0.001352907               0.999999987               0.000000000              -0.001368324               0.999999987               0.000000000              -0.001382347               0.999999987              -0.000000000              -0.001399418               0.999999987              -0.000000000              -0.001420808               0.999999987               0.000000000              -0.001446118               0.999999987              -0.000000000              -0.001474748               0.999999987              -0.000000000              -0.001506135               0.999999987              -0.000000000              -0.001539734               0.999999987               0.000000000              -0.001574702               0.999999987              -0.000000000              -0.001610385               0.999999987               0.000000000              -0.001646254               0.999999987              -0.000000000              -0.001681715               0.999999987               0.000000000              -0.001716178               0.999999987               0.000000000              -0.001748765               0.999999987              -0.000000000              -0.001778567               0.999999987               0.000916455              -0.000000000               0.999999987               0.000964140              -0.000000000               0.999999987               0.000983453               0.000000000               0.999999987               0.000993536              -0.000000000               0.999999987               0.001001095               0.000000000               0.999999987               0.001008678               0.000000000               0.999999987               0.001017264               0.000000000               0.999999987               0.001026885               0.000000000               0.999999987               0.001037411              -0.000000000               0.999999987               0.001048452              -0.000000000               0.999999987               0.001059604              -0.000000000               0.999999987               0.001070509               0.000000000               0.999999987               0.001080938              -0.000000000               0.999999987               0.001090264               0.000000000               0.999999987               0.001097836               0.000000000               0.999999987               0.001102958              -0.000000000               0.999999987               0.001104719              -0.000000000               0.999999987               0.000911265               0.000125832               0.999999987               0.000954686               0.000098914               0.999999987               0.000971319               0.000086436               0.999999987               0.000979683               0.000080849               0.999999987               0.000986125               0.000078601               0.999999987               0.000992830               0.000078095               0.999999987               0.001000510               0.000078166               0.999999987               0.001009226               0.000077968               0.999999987               0.001018655               0.000077073               0.999999987               0.001028382               0.000075052               0.999999987               0.001038009               0.000071645               0.999999987               0.001047163               0.000066701               0.999999987               0.001055463               0.000059774               0.999999987               0.001062428               0.000050207               0.999999987               0.001067506               0.000037331               0.999999987               0.001070018               0.000020228               0.999999987               0.001069314              -0.000002113               0.999999987               0.000895905               0.000250416               0.999999987               0.000926976               0.000197553               0.999999987               0.000936100               0.000173912               0.999999987               0.000939763               0.000163882               0.999999987               0.000943020               0.000160349               0.999999987               0.000947294               0.000159838               0.999999987               0.000952743               0.000160315               0.999999987               0.000958939               0.000160154               0.999999987               0.000965282               0.000158345               0.999999987               0.000971328               0.000154378               0.999999987               0.000976611               0.000147623               0.999999987               0.000980810               0.000138016               0.999999987               0.000983506               0.000124544               0.999999987               0.000984147               0.000106162               0.999999987               0.000982387               0.000082008               0.999999987               0.000977840               0.000051047               0.999999987               0.000970383               0.000011806               0.999999987               0.000870725               0.000372702               0.999999987               0.000882513               0.000295722               0.999999987               0.000880667               0.000263311               0.999999987               0.000877882               0.000250851               0.999999987               0.000877022               0.000247412               0.999999987               0.000878037               0.000247838               0.999999987               0.000880325               0.000249041               0.999999987               0.000882783               0.000248847               0.999999987               0.000884620               0.000246176               0.999999987               0.000885319               0.000240188               0.999999987               0.000884391               0.000230387               0.999999987               0.000881339               0.000216307               0.999999987               0.000875747               0.000197021               0.999999987               0.000867362               0.000171467               0.999999987               0.000856056               0.000138989               0.999999987               0.000842031               0.000098802               0.999999987               0.000825754               0.000050602               0.999999987               0.000836071               0.000491680               0.999999987               0.000823309               0.000393529               0.999999987               0.000809240               0.000355350               0.999999987               0.000800100               0.000342600               0.999999987               0.000795332               0.000340547               0.999999987               0.000793095               0.000342591               0.999999987               0.000791663               0.000344815               0.999999987               0.000789607               0.000344684               0.999999987               0.000786104               0.000341040               0.999999987               0.000780315               0.000333106               0.999999987               0.000771656               0.000320320               0.999999987               0.000759667               0.000302140               0.999999987               0.000744217               0.000278086               0.999999987               0.000725427               0.000247386               0.999999987               0.000703658               0.000209777               0.999999987               0.000679553               0.000165770               0.999999987               0.000654120               0.000116189               0.999999987               0.000792700               0.000606132               0.999999987               0.000752451               0.000491110               0.999999987               0.000727151               0.000450274               0.999999987               0.000713205               0.000438932               0.999999987               0.000705593               0.000439159               0.999999987               0.000700573               0.000443023               0.999999987               0.000695471               0.000446042               0.999999987               0.000688666               0.000445966               0.999999987               0.000679009               0.000441397               0.999999987               0.000665699               0.000431483               0.999999987               0.000648281               0.000415828               0.999999987               0.000626604               0.000394002               0.999999987               0.000600916               0.000366114               0.999999987               0.000571745               0.000332299               0.999999987               0.000539916               0.000292697               0.999999987               0.000506408               0.000248641               0.999999987               0.000472277               0.000201950               0.999999987               0.000741595               0.000714873               0.999999987               0.000673743               0.000588425               0.999999987               0.000639977               0.000547541               0.999999987               0.000623444               0.000538706               0.999999987               0.000614404               0.000541442               0.999999987               0.000607207               0.000546834               0.999999987               0.000598480               0.000550472               0.999999987               0.000586433               0.000550313               0.999999987               0.000569937               0.000544665               0.999999987               0.000548354               0.000532784               0.999999987               0.000521646               0.000514521               0.999999987               0.000490073               0.000489680               0.999999987               0.000454068               0.000459141               0.999999987               0.000414649               0.000423701               0.999999987               0.000372803               0.000384180               0.999999987               0.000329674               0.000342188               0.999999987               0.000286085               0.000299446               0.999999987               0.000683909               0.000816824               0.999999987               0.000590924               0.000685231               0.999999987               0.000552443               0.000646194               0.999999987               0.000536057               0.000639909               0.999999987               0.000526774               0.000644813               0.999999987               0.000517637               0.000651535               0.999999987               0.000504979               0.000655673               0.999999987               0.000487127               0.000655268               0.999999987               0.000463133               0.000648390               0.999999987               0.000432585               0.000634604               0.999999987               0.000395752               0.000613946               0.999999987               0.000353152               0.000587001               0.999999987               0.000305920               0.000555080               0.999999987               0.000255212               0.000519631               0.999999987               0.000202329               0.000481778               0.999999987               0.000148619               0.000443179               0.999999987               0.000094734               0.000404616               0.999999987               0.000621593               0.000910167               0.999999987               0.000506827               0.000781316               0.999999987               0.000468923               0.000744592               0.999999987               0.000454642               0.000740285               0.999999987               0.000445866               0.000746815               0.999999987               0.000434601               0.000754665               0.999999987               0.000417675               0.000759209               0.999999987               0.000393291               0.000758182               0.999999987               0.000360674               0.000750057               0.999999987               0.000319818               0.000734478               0.999999987               0.000271301               0.000711914               0.999999987               0.000216375               0.000683678               0.999999987               0.000156403               0.000651715               0.999999987               0.000093224               0.000617809               0.999999987               0.000028676               0.000583456               0.999999987              -0.000035926               0.000549734               0.999999987              -0.000100265               0.000516806               0.999999987               0.000557091               0.000998707               0.999999987               0.000436054               0.000889543               0.999999987               0.000395960               0.000849888               0.999999987               0.000381593               0.000841499               0.999999987               0.000374062               0.000845977               0.999999987               0.000365299               0.000854419               0.999999987               0.000352027               0.000862255               0.999999987               0.000332158               0.000866886               0.999999987               0.000304725               0.000866774               0.999999987               0.000269499               0.000861039               0.999999987               0.000226758               0.000849268               0.999999987               0.000176814               0.000832078               0.999999987               0.000120416               0.000810628               0.999999987               0.000059047               0.000786525               0.999999987              -0.000005561               0.000761349               0.999999987              -0.000071536               0.000736580               0.999999987              -0.000137284               0.000712895               0.999999987               0.000486896               0.001079524               0.999999987               0.000367732               0.000994405               0.999999987               0.000325665               0.000957989               0.999999987               0.000310347               0.000947777               0.999999987               0.000303230               0.000951014               0.999999987               0.000296368               0.000960055               0.999999987               0.000286084               0.000970630               0.999999987               0.000270236               0.000980237               0.999999987               0.000247530               0.000987125               0.999999987               0.000217737               0.000990287               0.999999987               0.000180937               0.000988730               0.999999987               0.000136850               0.000982337               0.999999987               0.000085547               0.000971596               0.999999987               0.000027565               0.000957577               0.999999987              -0.000035672               0.000941574               0.999999987              -0.000102182               0.000925064               0.999999987              -0.000170160               0.000909243               0.999999987               0.000412371               0.001150589               0.999999987               0.000301843               0.001092765               0.999999987               0.000259708               0.001063873               0.999999987               0.000243215               0.001055065               0.999999987               0.000235996               0.001058499               0.999999987               0.000230129               0.001068606               0.999999987               0.000222129               0.001081837               0.999999987               0.000209559               0.001095917               0.999999987               0.000191251               0.001109019               0.999999987               0.000166702               0.001119949               0.999999987               0.000135810               0.001127887               0.999999987               0.000098103               0.001132087               0.999999987               0.000053131               0.001132344               0.999999987               0.000000529               0.001129081               0.999999987              -0.000059281               0.001123126               0.999999987              -0.000124880               0.001115757               0.999999987              -0.000194756               0.001108056               0.999999987               0.000334248               0.001210547               0.999999987               0.000238413               0.001180476               0.999999987               0.000198868               0.001162343               0.999999987               0.000182135               0.001157489               0.999999987               0.000174469               0.001162994               0.999999987               0.000169151               0.001175160               0.999999987               0.000162716               0.001191302               0.999999987               0.000153041               0.001209431               0.999999987               0.000138695               0.001228042               0.999999987               0.000119155               0.001245966               0.999999987               0.000094196               0.001262292               0.999999987               0.000063243               0.001276194               0.999999987               0.000025573               0.001287137               0.999999987              -0.000019884               0.001294959               0.999999987              -0.000073435               0.001299906               0.999999987              -0.000134795               0.001302682               0.999999987              -0.000203714               0.001304155               0.999999987               0.000253189               0.001258317               0.999999987               0.000177138               0.001253358               0.999999987               0.000143430               0.001247281               0.999999987               0.000128023               0.001248446               0.999999987               0.000120484               0.001257215               0.999999987               0.000115713               0.001272215               0.999999987               0.000110507               0.001291501               0.999999987               0.000103257               0.001313662               0.999999987               0.000092473               0.001337421               0.999999987               0.000077735               0.001361505               0.999999987               0.000058817               0.001385086               0.999999987               0.000035128               0.001407427               0.999999987               0.000005664               0.001428009               0.999999987              -0.000030671               0.001446217               0.999999987              -0.000074893               0.001461918               0.999999987              -0.000127831               0.001475192               0.999999987              -0.000190205               0.001486454               0.999999987               0.000169965               0.001292852               0.999999987               0.000117367               0.001307929               0.999999987               0.000092734               0.001312864               0.999999987               0.000080789               0.001320330               0.999999987               0.000074554               0.001333043               0.999999987               0.000070613               0.001351030               0.999999987               0.000066783               0.001373359               0.999999987               0.000061809               0.001399018               0.999999987               0.000054687               0.001426870               0.999999987               0.000044881               0.001455902               0.999999987               0.000032094               0.001485365               0.999999987               0.000015886               0.001514624               0.999999987              -0.000004304               0.001542992               0.999999987              -0.000029536               0.001569855               0.999999987              -0.000061304               0.001594842               0.999999987              -0.000100840               0.001617652               0.999999987              -0.000149488               0.001638123               0.999999987               0.000085326               0.001313709               0.999999987               0.000058453               0.001341574               0.999999987               0.000045483               0.001354284               0.999999987               0.000038922               0.001366470               0.999999987               0.000035321               0.001382351               0.999999987               0.000033064               0.001402756               0.999999987               0.000030934               0.001427237               0.999999987               0.000028416               0.001455211               0.999999987               0.000024920               0.001485752               0.999999987               0.000020089               0.001518111               0.999999987               0.000013541               0.001551606               0.999999987               0.000005253               0.001585590               0.999999987              -0.000004807               0.001619397               0.999999987              -0.000017752               0.001652457               0.999999987              -0.000034568               0.001684166               0.999999987              -0.000055964               0.001713942               0.999999987              -0.000083174               0.001741171               0.999999987              -0.000000000               0.001320767               0.999999987              -0.000000000               0.001352907               0.999999987              -0.000000000               0.001368324               0.999999987               0.000000000               0.001382347               0.999999987               0.000000000               0.001399418               0.999999987              -0.000000000               0.001420808               0.999999987               0.000000000               0.001446118               0.999999987              -0.000000000               0.001474748               0.999999987              -0.000000000               0.001506135               0.999999987               0.000000000               0.001539734               0.999999987              -0.000000000               0.001574702               0.999999987               0.000000000               0.001610385               0.999999987              -0.000000000               0.001646254               0.999999987              -0.000000000               0.001681715               0.999999987              -0.000000000               0.001716178               0.999999987               0.000000000               0.001748765               0.999999987               0.000000000               0.001778567               0.999999987 </DataArray>
<DataArray type="Float64"                                    Name="stress"                                                      NumberOfComponents="10" format="ascii">
              0.002175094               0.022787806               0.000000000              -0.002032811               0.008273463               0.006240653               0.000000000               0.000000000               0.000000000               0.000000000               0.002080217               0.017389985               0.000000000              -0.001393663               0.006261158               0.004867495               0.000000000               0.000000000               0.000000000               0.000000000               0.002671675               0.013016797               0.000000000              -0.000625220               0.004547295               0.003922076               0.000000000               0.000000000               0.000000000               0.000000000               0.002477537               0.010542103               0.000000000              -0.000388686               0.003643561               0.003254876               0.000000000               0.000000000               0.000000000               0.000000000               0.002077968               0.008966543               0.000000000              -0.000341579               0.003102677               0.002761098               0.000000000               0.000000000               0.000000000               0.000000000               0.001647793               0.007861862               0.000000000              -0.000364809               0.002742197               0.002377388               0.000000000               0.000000000               0.000000000               0.000000000               0.001248477               0.007008010               0.000000000              -0.000407821               0.002471920               0.002064099               0.000000000               0.000000000               0.000000000               0.000000000               0.000901091               0.006284271              -0.000000000              -0.000447624               0.002243944               0.001796320               0.000000000               0.000000000               0.000000000               0.000000000               0.000610478               0.005629597              -0.000000000              -0.000474769               0.002034770               0.001560001               0.000000000               0.000000000               0.000000000               0.000000000               0.000375839               0.005006226               0.000000000              -0.000484837               0.001830338               0.001345500               0.000000000               0.000000000               0.000000000               0.000000000               0.000187909               0.004392167               0.000000000              -0.000478554               0.001623559               0.001145005               0.000000000               0.000000000               0.000000000               0.000000000               0.000034524               0.003772172              -0.000000000              -0.000458574               0.001410236               0.000951662               0.000000000               0.000000000               0.000000000               0.000000000              -0.000077127               0.003128890              -0.000000000              -0.000420033               0.001182964               0.000762931               0.000000000               0.000000000               0.000000000               0.000000000              -0.000134233               0.002441874              -0.000000000              -0.000355571               0.000932473               0.000576903               0.000000000               0.000000000               0.000000000               0.000000000              -0.000137981               0.001687419              -0.000000000              -0.000262670               0.000650024               0.000387354               0.000000000               0.000000000               0.000000000               0.000000000              -0.000084545               0.000840100              -0.000000000              -0.000136717               0.000325603               0.000188886               0.000000000               0.000000000               0.000000000               0.000000000              -0.000111806               0.000193949               0.000000000              -0.000066171               0.000086706               0.000020535               0.000000000               0.000000000               0.000000000               0.000000000               0.002229444               0.022281236              -0.001484065              -0.001949108               0.008076707               0.006127599               0.000000000               0.000000000               0.000000000               0.000000000               0.002004796               0.017075007              -0.000634284              -0.001382574               0.006152470               0.004769896               0.000000000               0.000000000               0.000000000               0.000000000               0.002457458               0.012896534               0.000194328              -0.000690518               0.004528974               0.003838456               0.000000000               0.000000000               0.000000000               0.000000000               0.002211901               0.010523625               0.000523532              -0.000485989               0.003669836               0.003183847               0.000000000               0.000000000               0.000000000               0.000000000               0.001804215               0.009004145               0.000646483              -0.000448937               0.003150997               0.002702060               0.000000000               0.000000000               0.000000000               0.000000000               0.001390022               0.007925417               0.000679508              -0.000469418               0.002798252               0.002328834               0.000000000               0.000000000               0.000000000               0.000000000               0.001016107               0.007083622               0.000667579              -0.000504411               0.002529321               0.002024909               0.000000000               0.000000000               0.000000000               0.000000000               0.000698886               0.006365510               0.000636806              -0.000533605               0.002299684               0.001766079               0.000000000               0.000000000               0.000000000               0.000000000               0.000439734               0.005710761               0.000601963              -0.000548944               0.002086549               0.001537605               0.000000000               0.000000000               0.000000000               0.000000000               0.000233331               0.005088168               0.000566086              -0.000548521               0.001878879               0.001330358               0.000000000               0.000000000               0.000000000               0.000000000               0.000070472               0.004476394               0.000533235              -0.000533121               0.001669823               0.001136702               0.000000000               0.000000000               0.000000000               0.000000000              -0.000053855               0.003865570               0.000497282              -0.000503391               0.001456307               0.000952917               0.000000000               0.000000000               0.000000000               0.000000000              -0.000136708               0.003235978               0.000447896              -0.000455762               0.001230569               0.000774807               0.000000000               0.000000000               0.000000000               0.000000000              -0.000173451               0.002569859               0.000381136              -0.000386276               0.000985369               0.000599094               0.000000000               0.000000000               0.000000000               0.000000000              -0.000159739               0.001855685               0.000290148              -0.000291862               0.000715843               0.000423981               0.000000000               0.000000000               0.000000000               0.000000000              -0.000094243               0.001080150               0.000164478              -0.000170360               0.000416833               0.000246473               0.000000000               0.000000000               0.000000000               0.000000000              -0.000111606               0.000501703               0.000103645              -0.000104565               0.000202088               0.000097522               0.000000000               0.000000000               0.000000000               0.000000000               0.002348838               0.020844255              -0.002736458              -0.001724715               0.007522920               0.005798206               0.000000000               0.000000000               0.000000000               0.000000000               0.001769500               0.016182928              -0.001165972              -0.001359301               0.005847356               0.004488055               0.000000000               0.000000000               0.000000000               0.000000000               0.001844870               0.012557914               0.000354634              -0.000877911               0.004478567               0.003600656               0.000000000               0.000000000               0.000000000               0.000000000               0.001474725               0.010469532               0.000938403              -0.000755668               0.003741698               0.002986030               0.000000000               0.000000000               0.000000000               0.000000000               0.001057185               0.009097612               0.001144012              -0.000740756               0.003279425               0.002538670               0.000000000               0.000000000               0.000000000               0.000000000               0.000685921               0.008087711               0.001190615              -0.000753742               0.002947124               0.002193382               0.000000000               0.000000000               0.000000000               0.000000000               0.000384472               0.007270618               0.001161884              -0.000764649               0.002678398               0.001913749               0.000000000               0.000000000               0.000000000               0.000000000               0.000155683               0.006558346               0.001101815              -0.000761411               0.002439897               0.001678486               0.000000000               0.000000000               0.000000000               0.000000000              -0.000015808               0.005904879               0.001035554              -0.000744036               0.002216285               0.001472249               0.000000000               0.000000000               0.000000000               0.000000000              -0.000141642               0.005285409               0.000968167              -0.000713790               0.001999715               0.001285925               0.000000000               0.000000000               0.000000000               0.000000000              -0.000228595               0.004686538               0.000905392              -0.000671539               0.001786010               0.001114471               0.000000000               0.000000000               0.000000000               0.000000000              -0.000280981               0.004096179               0.000836987              -0.000617389               0.001571175               0.000953787               0.000000000               0.000000000               0.000000000               0.000000000              -0.000291768               0.003505487               0.000742965              -0.000547598               0.001351016               0.000803419               0.000000000               0.000000000               0.000000000               0.000000000              -0.000263418               0.002908445               0.000621505              -0.000462337               0.001123584               0.000661247               0.000000000               0.000000000               0.000000000               0.000000000              -0.000199701               0.002307021               0.000466406              -0.000363265               0.000890087               0.000526823               0.000000000               0.000000000               0.000000000               0.000000000              -0.000106372               0.001707282               0.000260146              -0.000253299               0.000653521               0.000400222               0.000000000               0.000000000               0.000000000               0.000000000              -0.000097506               0.001294932               0.000157660              -0.000198431               0.000497783               0.000299352               0.000000000               0.000000000               0.000000000               0.000000000               0.002410946               0.018682851              -0.003575760              -0.001431250               0.006704638               0.005273387               0.000000000               0.000000000               0.000000000               0.000000000               0.001347243               0.014859402              -0.001514830              -0.001352206               0.005403820               0.004051613               0.000000000               0.000000000               0.000000000               0.000000000               0.000911100               0.012062209               0.000452754              -0.001166111               0.004409400               0.003243289               0.000000000               0.000000000               0.000000000               0.000000000               0.000403259               0.010370730               0.001160681              -0.001145117               0.003838581               0.002693464               0.000000000               0.000000000               0.000000000               0.000000000               0.000007533               0.009189361               0.001386951              -0.001145843               0.003445037               0.002299194               0.000000000               0.000000000               0.000000000               0.000000000              -0.000272881               0.008268428               0.001422054              -0.001135881               0.003134742               0.001998861               0.000000000               0.000000000               0.000000000               0.000000000              -0.000455870               0.007482922               0.001373306              -0.001106314               0.002863054               0.001756739               0.000000000               0.000000000               0.000000000               0.000000000              -0.000557544               0.006778202               0.001292997              -0.001056352               0.002611495               0.001555143               0.000000000               0.000000000               0.000000000               0.000000000              -0.000606012               0.006129291               0.001205159              -0.000993414               0.002374214               0.001380800               0.000000000               0.000000000               0.000000000               0.000000000              -0.000616113               0.005519866               0.001117982              -0.000921024               0.002146945               0.001225921               0.000000000               0.000000000               0.000000000               0.000000000              -0.000589955               0.004943247               0.001034851              -0.000839137               0.001927445               0.001088307               0.000000000               0.000000000               0.000000000               0.000000000              -0.000533415               0.004387748               0.000944626              -0.000748498               0.001712067               0.000963569               0.000000000               0.000000000               0.000000000               0.000000000              -0.000449145               0.003859429               0.000826302              -0.000650857               0.001503416               0.000852559               0.000000000               0.000000000               0.000000000               0.000000000              -0.000342217               0.003364349               0.000675461              -0.000548874               0.001304396               0.000755522               0.000000000               0.000000000               0.000000000               0.000000000              -0.000224854               0.002912354               0.000490455              -0.000448364               0.001120229               0.000671866               0.000000000               0.000000000               0.000000000               0.000000000              -0.000111342               0.002527459               0.000265437              -0.000357685               0.000961706               0.000604021               0.000000000               0.000000000               0.000000000               0.000000000              -0.000076388               0.002307570               0.000152866              -0.000317091               0.000874879               0.000557788               0.000000000               0.000000000               0.000000000               0.000000000               0.002272508               0.016050772              -0.003922166              -0.001154156               0.005734922               0.004580766               0.000000000               0.000000000               0.000000000               0.000000000               0.000717802               0.013284840              -0.001668231              -0.001391427               0.004892044               0.003500618               0.000000000               0.000000000               0.000000000               0.000000000              -0.000236432               0.011473188               0.000443836              -0.001522807               0.004331960               0.002809153               0.000000000               0.000000000               0.000000000               0.000000000              -0.000816177               0.010209161               0.001141563              -0.001582208               0.003930422               0.002348214               0.000000000               0.000000000               0.000000000               0.000000000              -0.001122358               0.009219452               0.001339050              -0.001573312               0.003597557               0.002024245               0.000000000               0.000000000               0.000000000               0.000000000              -0.001253750               0.008380093               0.001352423              -0.001517664               0.003299224               0.001781560               0.000000000               0.000000000               0.000000000               0.000000000              -0.001277003               0.007626266               0.001290462              -0.001432156               0.003019449               0.001587292               0.000000000               0.000000000               0.000000000               0.000000000              -0.001230636               0.006941645               0.001200626              -0.001329191               0.002756922               0.001427731               0.000000000               0.000000000               0.000000000               0.000000000              -0.001139644               0.006310421               0.001107769              -0.001216167               0.002508841               0.001292675               0.000000000               0.000000000               0.000000000               0.000000000              -0.001013242               0.005724374               0.001018648              -0.001095510               0.002273275               0.001177765               0.000000000               0.000000000               0.000000000               0.000000000              -0.000860462               0.005178162               0.000930558              -0.000969941               0.002049350               0.001079409               0.000000000               0.000000000               0.000000000               0.000000000              -0.000692510               0.004669520               0.000834759              -0.000843380               0.001837618               0.000994238               0.000000000               0.000000000               0.000000000               0.000000000              -0.000520413               0.004213512               0.000713822              -0.000721842               0.001645104               0.000923262               0.000000000               0.000000000               0.000000000               0.000000000              -0.000352224               0.003827589               0.000558927              -0.000610531               0.001479360               0.000868829               0.000000000               0.000000000               0.000000000               0.000000000              -0.000201528               0.003522956               0.000382597              -0.000515941               0.001346287               0.000830346               0.000000000               0.000000000               0.000000000               0.000000000              -0.000085478               0.003323414               0.000196446              -0.000447480               0.001256954               0.000809474               0.000000000               0.000000000               0.000000000               0.000000000              -0.000039184               0.003249562               0.000102886              -0.000420888               0.001223473               0.000802584               0.000000000               0.000000000               0.000000000               0.000000000               0.001825633               0.013218117              -0.003799341              -0.000967653               0.004728545               0.003760892               0.000000000               0.000000000               0.000000000               0.000000000              -0.000094335               0.011625431              -0.001670395              -0.001488552               0.004371289               0.002882737               0.000000000               0.000000000               0.000000000               0.000000000              -0.001450986               0.010827818               0.000293540              -0.001897592               0.004241767               0.002344175               0.000000000               0.000000000               0.000000000               0.000000000              -0.001990413               0.009962735               0.000888842              -0.001991742               0.003984792               0.001993051               0.000000000               0.000000000               0.000000000               0.000000000              -0.002130849               0.009138939               0.001037960              -0.001941431               0.003693426               0.001751995               0.000000000               0.000000000               0.000000000               0.000000000              -0.002073732               0.008363879               0.001036043              -0.001823130               0.003395642               0.001572512               0.000000000               0.000000000               0.000000000               0.000000000              -0.001918398               0.007644240               0.000979648              -0.001674925               0.003106363               0.001431437               0.000000000               0.000000000               0.000000000               0.000000000              -0.001710197               0.006993072               0.000903051              -0.001515454               0.002836152               0.001320698               0.000000000               0.000000000               0.000000000               0.000000000              -0.001472901               0.006394233               0.000822540              -0.001351614               0.002581927               0.001230314               0.000000000               0.000000000               0.000000000               0.000000000              -0.001220073               0.005841453               0.000744552              -0.001187706               0.002343033               0.001155327               0.000000000               0.000000000               0.000000000               0.000000000              -0.000961285               0.005336540               0.000661688              -0.001027547               0.002121345               0.001093798               0.000000000               0.000000000               0.000000000               0.000000000              -0.000708899               0.004883826               0.000571037              -0.000876313               0.001920030               0.001043717               0.000000000               0.000000000               0.000000000               0.000000000              -0.000479475               0.004501842               0.000468275              -0.000742532               0.001748109               0.001005578               0.000000000               0.000000000               0.000000000               0.000000000              -0.000284246               0.004209752               0.000341182              -0.000632810               0.001614173               0.000981364               0.000000000               0.000000000               0.000000000               0.000000000              -0.000135692               0.004015491               0.000206668              -0.000552820               0.001522757               0.000969937               0.000000000               0.000000000               0.000000000               0.000000000              -0.000043712               0.003921751               0.000092191              -0.000506610               0.001476107               0.000969498               0.000000000               0.000000000               0.000000000               0.000000000              -0.000008712               0.003909952               0.000039971              -0.000492010               0.001467307               0.000975298               0.000000000               0.000000000               0.000000000               0.000000000               0.001014671               0.010439990              -0.003301278              -0.000924497               0.003788127               0.002863630               0.000000000               0.000000000               0.000000000               0.000000000              -0.001040716               0.010017363              -0.001578852              -0.001642436               0.003886566               0.002244130               0.000000000               0.000000000               0.000000000               0.000000000              -0.002592799               0.010145529               0.000005322              -0.002240485               0.004128637               0.001888152               0.000000000               0.000000000               0.000000000               0.000000000              -0.002966931               0.009606066               0.000458066              -0.002313352               0.003973107               0.001659756               0.000000000               0.000000000               0.000000000               0.000000000              -0.002887891               0.008912441               0.000570677              -0.002197009               0.003703120               0.001506111               0.000000000               0.000000000               0.000000000               0.000000000              -0.002625011               0.008205531               0.000576932              -0.002010066               0.003405172               0.001395106               0.000000000               0.000000000               0.000000000               0.000000000              -0.002290039               0.007541363               0.000550342              -0.001801430               0.003114239               0.001312809               0.000000000               0.000000000               0.000000000               0.000000000              -0.001931781               0.006933844               0.000505646              -0.001591144               0.002841640               0.001250495               0.000000000               0.000000000               0.000000000               0.000000000              -0.001567739               0.006372187               0.000449810              -0.001384422               0.002585515               0.001201093               0.000000000               0.000000000               0.000000000               0.000000000              -0.001217135               0.005859852               0.000392993              -0.001188904               0.002349566               0.001160662               0.000000000               0.000000000               0.000000000               0.000000000              -0.000894722               0.005400712               0.000329870              -0.001010607               0.002137089               0.001126481               0.000000000               0.000000000               0.000000000               0.000000000              -0.000603660               0.005011635               0.000264706              -0.000852825               0.001954803               0.001101978               0.000000000               0.000000000               0.000000000               0.000000000              -0.000360401               0.004705390               0.000201189              -0.000723322               0.001809555               0.001086233               0.000000000               0.000000000               0.000000000               0.000000000              -0.000178720               0.004489852               0.000129397              -0.000628250               0.001706019               0.001077769               0.000000000               0.000000000               0.000000000               0.000000000              -0.000064219               0.004366505               0.000062596              -0.000569894               0.001645452               0.001075558               0.000000000               0.000000000               0.000000000               0.000000000              -0.000011316               0.004322743               0.000021954              -0.000544585               0.001622428               0.001077843               0.000000000               0.000000000               0.000000000               0.000000000               0.000001859               0.004322466               0.000009318              -0.000539610               0.001620678               0.001081068               0.000000000               0.000000000               0.000000000               0.000000000              -0.000111261               0.007901607              -0.002544621              -0.001029423               0.002976983               0.001947560               0.000000000               0.000000000               0.000000000               0.000000000              -0.002064528               0.008556939              -0.001441752              -0.001843811               0.003466888               0.001623077               0.000000000               0.000000000               0.000000000               0.000000000              -0.003559022               0.009425972              -0.000398912              -0.002512873               0.003979584               0.001466710               0.000000000               0.000000000               0.000000000               0.000000000              -0.003661071               0.009127498              -0.000075114              -0.002513832               0.003880413               0.001366581               0.000000000               0.000000000               0.000000000               0.000000000              -0.003330502               0.008550025               0.000039699              -0.002317686               0.003622542               0.001304856               0.000000000               0.000000000               0.000000000               0.000000000              -0.002869440               0.007927459               0.000082314              -0.002066967               0.003331449               0.001264482               0.000000000               0.000000000               0.000000000               0.000000000              -0.002376197               0.007330881               0.000098747              -0.001807430               0.003046079               0.001238650               0.000000000               0.000000000               0.000000000               0.000000000              -0.001897962               0.006768108               0.000095786              -0.001557746               0.002775262               0.001217516               0.000000000               0.000000000               0.000000000               0.000000000              -0.001445453               0.006248389               0.000076616              -0.001323090               0.002523806               0.001200715               0.000000000               0.000000000               0.000000000               0.000000000              -0.001035378               0.005781357               0.000054879              -0.001110934               0.002297411               0.001186477               0.000000000               0.000000000               0.000000000               0.000000000              -0.000683781               0.005375234               0.000033063              -0.000928320               0.002101167               0.001172847               0.000000000               0.000000000               0.000000000               0.000000000              -0.000396698               0.005051830               0.000016701              -0.000780239               0.001944006               0.001163767               0.000000000               0.000000000               0.000000000               0.000000000              -0.000185773               0.004818114               0.000009589              -0.000671928               0.001829998               0.001158070               0.000000000               0.000000000               0.000000000               0.000000000              -0.000052595               0.004674421               0.000001709              -0.000604024               0.001759466               0.001155442               0.000000000               0.000000000               0.000000000               0.000000000               0.000004367               0.004612665              -0.000003724              -0.000574944               0.001729188               0.001154244               0.000000000               0.000000000               0.000000000               0.000000000               0.000011163               0.004611335              -0.000000652              -0.000572229               0.001727839               0.001155610               0.000000000               0.000000000               0.000000000               0.000000000               0.000007902               0.004629021               0.000000673              -0.000575663               0.001734879               0.001159216               0.000000000               0.000000000               0.000000000               0.000000000              -0.001421968               0.005785236              -0.001647453              -0.001256390               0.002347189               0.001090799               0.000000000               0.000000000               0.000000000               0.000000000              -0.003064500               0.007256489              -0.001296959              -0.002056244               0.003104220               0.001047976               0.000000000               0.000000000               0.000000000               0.000000000              -0.004319473               0.008686439              -0.000879362              -0.002705601               0.003797318               0.001091717               0.000000000               0.000000000               0.000000000               0.000000000              -0.004138338               0.008636029              -0.000636497              -0.002631374               0.003755772               0.001124398               0.000000000               0.000000000               0.000000000               0.000000000              -0.003593022               0.008204788              -0.000486210              -0.002372976               0.003525894               0.001152918               0.000000000               0.000000000               0.000000000               0.000000000              -0.002970992               0.007682358              -0.000389600              -0.002074412               0.003252231               0.001177819               0.000000000               0.000000000               0.000000000               0.000000000              -0.002354312               0.007160891              -0.000326738              -0.001777974               0.002979598               0.001201624               0.000000000               0.000000000               0.000000000               0.000000000              -0.001781251               0.006652754              -0.000280869              -0.001499560               0.002717416               0.001217856               0.000000000               0.000000000               0.000000000               0.000000000              -0.001266705               0.006177645              -0.000250729              -0.001247217               0.002474933               0.001227717               0.000000000               0.000000000               0.000000000               0.000000000              -0.000819096               0.005749075              -0.000226959              -0.001025793               0.002258270               0.001232477               0.000000000               0.000000000               0.000000000               0.000000000              -0.000450868               0.005381149              -0.000200780              -0.000841717               0.002074271               0.001232554               0.000000000               0.000000000               0.000000000               0.000000000              -0.000170262               0.005099967              -0.000162455              -0.000701342               0.001933753               0.001232411               0.000000000               0.000000000               0.000000000               0.000000000               0.000010409               0.004909965              -0.000111705              -0.000609841               0.001839919               0.001230078               0.000000000               0.000000000               0.000000000               0.000000000               0.000092807               0.004805927              -0.000062958              -0.000565937               0.001790605               0.001224668               0.000000000               0.000000000               0.000000000               0.000000000               0.000099109               0.004783905              -0.000024775              -0.000560821               0.001781559               0.001220739               0.000000000               0.000000000               0.000000000               0.000000000               0.000070500               0.004819395              -0.000000508              -0.000575985               0.001798444               0.001222459               0.000000000               0.000000000               0.000000000               0.000000000               0.000052266               0.004852297               0.000006389              -0.000586936               0.001813061               0.001226126               0.000000000               0.000000000               0.000000000               0.000000000              -0.002933511               0.003843957              -0.000717398              -0.001580558               0.001808158               0.000227601               0.000000000               0.000000000               0.000000000               0.000000000              -0.003917114               0.005751250              -0.001142996              -0.002187819               0.002646337               0.000458518               0.000000000               0.000000000               0.000000000               0.000000000              -0.004793605               0.007576323              -0.001379896              -0.002744635               0.003440294               0.000695659               0.000000000               0.000000000               0.000000000               0.000000000              -0.004459656               0.007907718              -0.001224851              -0.002660829               0.003522823               0.000861993               0.000000000               0.000000000               0.000000000               0.000000000              -0.003828536               0.007747177              -0.001040482              -0.002404092               0.003383731               0.000979638               0.000000000               0.000000000               0.000000000               0.000000000              -0.003140752               0.007423693              -0.000888185              -0.002105739               0.003176452               0.001070714               0.000000000               0.000000000               0.000000000               0.000000000              -0.002476130               0.007055063              -0.000767834              -0.001810427               0.002955140               0.001144712               0.000000000               0.000000000               0.000000000               0.000000000              -0.001863976               0.006674321              -0.000664978              -0.001533277               0.002735844               0.001202566               0.000000000               0.000000000               0.000000000               0.000000000              -0.001320896               0.006295117              -0.000579299              -0.001282222               0.002525759               0.001243536               0.000000000               0.000000000               0.000000000               0.000000000              -0.000849901               0.005921563              -0.000510111              -0.001058906               0.002326803               0.001267898               0.000000000               0.000000000               0.000000000               0.000000000              -0.000451400               0.005572198              -0.000441811              -0.000865798               0.002145980               0.001280182               0.000000000               0.000000000               0.000000000               0.000000000              -0.000136570               0.005280631              -0.000356999              -0.000711291               0.001997290               0.001285999               0.000000000               0.000000000               0.000000000               0.000000000               0.000082499               0.005064620              -0.000258377              -0.000602139               0.001888903               0.001286764               0.000000000               0.000000000               0.000000000               0.000000000               0.000201323               0.004933764              -0.000159701              -0.000541223               0.001824979               0.001283756               0.000000000               0.000000000               0.000000000               0.000000000               0.000236092               0.004893578              -0.000077053              -0.000523161               0.001805564               0.001282402               0.000000000               0.000000000               0.000000000               0.000000000               0.000215834               0.004925792              -0.000023850              -0.000534785               0.001820176               0.001285391               0.000000000               0.000000000               0.000000000               0.000000000               0.000179726               0.004944456               0.000000112              -0.000550658               0.001831688               0.001281030               0.000000000               0.000000000               0.000000000               0.000000000              -0.004839517               0.002100440               0.000169018              -0.002077371               0.001392594              -0.000684776               0.000000000               0.000000000               0.000000000               0.000000000              -0.004880788               0.004233243              -0.000935245              -0.002359446               0.002197548              -0.000161898               0.000000000               0.000000000               0.000000000               0.000000000              -0.005194127               0.006254437              -0.001782539              -0.002729596               0.002994656               0.000265060               0.000000000               0.000000000               0.000000000               0.000000000              -0.004725073               0.006946397              -0.001783708              -0.002640196               0.003195507               0.000555312               0.000000000               0.000000000               0.000000000               0.000000000              -0.004045759               0.007094030              -0.001604508              -0.002403908               0.003165955               0.000762048               0.000000000               0.000000000               0.000000000               0.000000000              -0.003336445               0.007007191              -0.001410684              -0.002127061               0.003044727               0.000917666               0.000000000               0.000000000               0.000000000               0.000000000              -0.002653074               0.006828018              -0.001235318              -0.001848401               0.002892116               0.001043716               0.000000000               0.000000000               0.000000000               0.000000000              -0.002018391               0.006603059              -0.001077289              -0.001582275               0.002728422               0.001146147               0.000000000               0.000000000               0.000000000               0.000000000              -0.001444021               0.006347592              -0.000941446              -0.001334954               0.002560827               0.001225873               0.000000000               0.000000000               0.000000000               0.000000000              -0.000936233               0.006062768              -0.000831594              -0.001108931               0.002390546               0.001281615               0.000000000               0.000000000               0.000000000               0.000000000              -0.000492265               0.005764242              -0.000730743              -0.000905128               0.002223104               0.001317976               0.000000000               0.000000000               0.000000000               0.000000000              -0.000112454               0.005485021              -0.000616449              -0.000727796               0.002070921               0.001343124               0.000000000               0.000000000               0.000000000               0.000000000               0.000190161               0.005252166              -0.000482566              -0.000585209               0.001945774               0.001360565               0.000000000               0.000000000               0.000000000               0.000000000               0.000394331               0.005082009              -0.000337128              -0.000487376               0.001856445               0.001369069               0.000000000               0.000000000               0.000000000               0.000000000               0.000494522               0.004987864              -0.000201443              -0.000438036               0.001808617               0.001370581               0.000000000               0.000000000               0.000000000               0.000000000               0.000500786               0.004968106              -0.000089296              -0.000433217               0.001800425               0.001367207               0.000000000               0.000000000               0.000000000               0.000000000               0.000453297               0.004954605              -0.000029248              -0.000449338               0.001801298               0.001351960               0.000000000               0.000000000               0.000000000               0.000000000              -0.007002912               0.000701480               0.000922138              -0.002713774               0.001138410              -0.001575364               0.000000000               0.000000000               0.000000000               0.000000000              -0.005991479               0.002805322              -0.000668290              -0.002597465               0.001800917              -0.000796549               0.000000000               0.000000000               0.000000000               0.000000000              -0.005539121               0.004744847              -0.001987486              -0.002670271               0.002471689              -0.000198582               0.000000000               0.000000000               0.000000000               0.000000000              -0.004851691               0.005681745              -0.002178764              -0.002529597               0.002737094               0.000207498               0.000000000               0.000000000               0.000000000               0.000000000              -0.004117040               0.006111884              -0.002054995              -0.002307870               0.002806564               0.000498694               0.000000000               0.000000000               0.000000000               0.000000000              -0.003396886               0.006278073              -0.001856798              -0.002058587               0.002778865               0.000720278               0.000000000               0.000000000               0.000000000               0.000000000              -0.002709741               0.006313474              -0.001653660              -0.001805333               0.002706247               0.000900914               0.000000000               0.000000000               0.000000000               0.000000000              -0.002064307               0.006265110              -0.001460456              -0.001557251               0.002607432               0.001050182               0.000000000               0.000000000               0.000000000               0.000000000              -0.001469308               0.006153932              -0.001291059              -0.001320229               0.002491366               0.001171137               0.000000000               0.000000000               0.000000000               0.000000000              -0.000928043               0.005997466              -0.001149309              -0.001097697               0.002365034               0.001267337               0.000000000               0.000000000               0.000000000               0.000000000              -0.000440567               0.005802422              -0.001022176              -0.000890513               0.002230959               0.001340445               0.000000000               0.000000000               0.000000000               0.000000000              -0.000004930               0.005583762              -0.000887797              -0.000699817               0.002094508               0.001394690               0.000000000               0.000000000               0.000000000               0.000000000               0.000373904               0.005374437              -0.000730081              -0.000531590               0.001968658               0.001437068               0.000000000               0.000000000               0.000000000               0.000000000               0.000675026               0.005198924              -0.000548144              -0.000396730               0.001865201               0.001468471               0.000000000               0.000000000               0.000000000               0.000000000               0.000878808               0.005080428              -0.000361870              -0.000305500               0.001795292               0.001489792               0.000000000               0.000000000               0.000000000               0.000000000               0.000967205               0.005021029              -0.000181531              -0.000264926               0.001761968               0.001497042               0.000000000               0.000000000               0.000000000               0.000000000               0.000957064               0.004989245              -0.000085826              -0.000264756               0.001751317               0.001486561               0.000000000               0.000000000               0.000000000               0.000000000              -0.009271687              -0.000283643               0.001426932              -0.003441424               0.001052586              -0.002388838               0.000000000               0.000000000               0.000000000               0.000000000              -0.007177768               0.001544886              -0.000384955              -0.002884770               0.001476542              -0.001408228               0.000000000               0.000000000               0.000000000               0.000000000              -0.005848852               0.003175743              -0.001964761              -0.002590283               0.001921995              -0.000668288               0.000000000               0.000000000               0.000000000               0.000000000              -0.004861386               0.004225679              -0.002319696              -0.002351225               0.002192286              -0.000158939               0.000000000               0.000000000               0.000000000               0.000000000              -0.004039197               0.004879512              -0.002276247              -0.002124633               0.002334698               0.000210065               0.000000000               0.000000000               0.000000000               0.000000000              -0.003298723               0.005278560              -0.002111960              -0.001896837               0.002391781               0.000494944               0.000000000               0.000000000               0.000000000               0.000000000              -0.002617667               0.005519874              -0.001916598              -0.001671606               0.002397141               0.000725535               0.000000000               0.000000000               0.000000000               0.000000000              -0.001973192               0.005657772              -0.001720072              -0.001447166               0.002368293               0.000921128               0.000000000               0.000000000               0.000000000               0.000000000              -0.001370548               0.005713582              -0.001540187              -0.001228151               0.002313891               0.001085741               0.000000000               0.000000000               0.000000000               0.000000000              -0.000807788               0.005703614              -0.001386696              -0.001015870               0.002239809               0.001223939               0.000000000               0.000000000               0.000000000               0.000000000              -0.000282292               0.005635372              -0.001247529              -0.000810279               0.002148531               0.001338252               0.000000000               0.000000000               0.000000000               0.000000000               0.000208119               0.005521101              -0.001103425              -0.000612092               0.002044379               0.001432287               0.000000000               0.000000000               0.000000000               0.000000000               0.000660201               0.005383474              -0.000934484              -0.000425358               0.001936259               0.001510901               0.000000000               0.000000000               0.000000000               0.000000000               0.001064239               0.005245258              -0.000734577              -0.000256567               0.001833924               0.001577357               0.000000000               0.000000000               0.000000000               0.000000000               0.001400314               0.005132831              -0.000514434              -0.000116486               0.001749755               0.001633269               0.000000000               0.000000000               0.000000000               0.000000000               0.001635353               0.005054723              -0.000271491              -0.000018584               0.001691086               0.001672502               0.000000000               0.000000000               0.000000000               0.000000000               0.001731055               0.005026692              -0.000146211               0.000020808               0.001668611               0.001689420               0.000000000               0.000000000               0.000000000               0.000000000              -0.011435394              -0.000888581               0.001583110              -0.004177197               0.001096197              -0.003081000               0.000000000               0.000000000               0.000000000               0.000000000              -0.008341732               0.000522468              -0.000144250              -0.003193455               0.001238632              -0.001954823               0.000000000               0.000000000               0.000000000               0.000000000              -0.006126312               0.001716453              -0.001705991              -0.002511920               0.001409447              -0.001102473               0.000000000               0.000000000               0.000000000               0.000000000              -0.004791233               0.002753008              -0.002146101              -0.002140835               0.001631269              -0.000509566               0.000000000               0.000000000               0.000000000               0.000000000              -0.003842080               0.003543835              -0.002180148              -0.001883756               0.001809184              -0.000074572               0.000000000               0.000000000               0.000000000               0.000000000              -0.003070266               0.004126314              -0.002067641              -0.001667136               0.001931135               0.000264000               0.000000000               0.000000000               0.000000000               0.000000000              -0.002389131               0.004552826              -0.001908042              -0.001465025               0.002005934               0.000540910               0.000000000               0.000000000               0.000000000               0.000000000              -0.001752288               0.004869094              -0.001737666              -0.001265742               0.002044929               0.000779186               0.000000000               0.000000000               0.000000000               0.000000000              -0.001147233               0.005082412              -0.001574673              -0.001065512               0.002049291               0.000983779               0.000000000               0.000000000               0.000000000               0.000000000              -0.000571765               0.005209986              -0.001433794              -0.000865659               0.002025197               0.001159538               0.000000000               0.000000000               0.000000000               0.000000000              -0.000019902               0.005273061              -0.001305522              -0.000666595               0.001979868               0.001313273               0.000000000               0.000000000               0.000000000               0.000000000               0.000516336               0.005284863              -0.001171377              -0.000466981               0.001917264               0.001450282               0.000000000               0.000000000               0.000000000               0.000000000               0.001041399               0.005250934              -0.001013957              -0.000265842               0.001838908               0.001573066               0.000000000               0.000000000               0.000000000               0.000000000               0.001554684               0.005188218              -0.000822751              -0.000065521               0.001751229               0.001685708               0.000000000               0.000000000               0.000000000               0.000000000               0.002037820               0.005119382              -0.000594051               0.000124258               0.001665024               0.001789282               0.000000000               0.000000000               0.000000000               0.000000000               0.002464401               0.005055319              -0.000321416               0.000292233               0.001587679               0.001879911               0.000000000               0.000000000               0.000000000               0.000000000               0.002720087               0.005050603              -0.000186208               0.000388703               0.001553950               0.001942653               0.000000000               0.000000000               0.000000000               0.000000000              -0.013233216              -0.001182906               0.001352466              -0.004814590               0.001210553              -0.003604037               0.000000000               0.000000000               0.000000000               0.000000000              -0.009343988              -0.000207543               0.000003632              -0.003478050               0.001090161              -0.002387888               0.000000000               0.000000000               0.000000000               0.000000000              -0.006369124               0.000532971              -0.001248019              -0.002455041               0.000995997              -0.001459044               0.000000000               0.000000000               0.000000000               0.000000000              -0.004697146               0.001478181              -0.001648683              -0.001946200               0.001141452              -0.000804748               0.000000000               0.000000000               0.000000000               0.000000000              -0.003604240               0.002327532              -0.001721946              -0.001642529               0.001323344              -0.000319185               0.000000000               0.000000000               0.000000000               0.000000000              -0.002784636               0.003028835              -0.001663404              -0.001422840               0.001483881               0.000061041               0.000000000               0.000000000               0.000000000               0.000000000              -0.002094051               0.003594366              -0.001555525              -0.001234563               0.001609630               0.000375068               0.000000000               0.000000000               0.000000000               0.000000000              -0.001463762               0.004042859              -0.001432599              -0.001054266               0.001699028               0.000644762               0.000000000               0.000000000               0.000000000               0.000000000              -0.000860983               0.004382864              -0.001310023              -0.000870725               0.001751181               0.000880456               0.000000000               0.000000000               0.000000000               0.000000000              -0.000277090               0.004636832              -0.001200474              -0.000683511               0.001773432               0.001089921               0.000000000               0.000000000               0.000000000               0.000000000               0.000291408               0.004822956              -0.001101082              -0.000493591               0.001772166               0.001278575               0.000000000               0.000000000               0.000000000               0.000000000               0.000859889               0.004948478              -0.001003228              -0.000296101               0.001748177               0.001452075               0.000000000               0.000000000               0.000000000               0.000000000               0.001445892               0.005018395              -0.000888920              -0.000085091               0.001701145               0.001616055               0.000000000               0.000000000               0.000000000               0.000000000               0.002051463               0.005047309              -0.000737430               0.000138383               0.001636292               0.001774675               0.000000000               0.000000000               0.000000000               0.000000000               0.002675543               0.005049080              -0.000542216               0.000372190               0.001558946               0.001931136               0.000000000               0.000000000               0.000000000               0.000000000               0.003315022               0.005030920              -0.000297768               0.000614262               0.001472203               0.002086465               0.000000000               0.000000000               0.000000000               0.000000000               0.003758568               0.005063369              -0.000178892               0.000776534               0.001428928               0.002205462               0.000000000               0.000000000               0.000000000               0.000000000              -0.014422869              -0.001286678               0.000776495              -0.005247738               0.001320344              -0.003927394               0.000000000               0.000000000               0.000000000               0.000000000              -0.010021912              -0.000633022               0.000040831              -0.003679087               0.001015348              -0.002663739               0.000000000               0.000000000               0.000000000               0.000000000              -0.006542527              -0.000234387              -0.000653787              -0.002424147               0.000729915              -0.001694232               0.000000000               0.000000000               0.000000000               0.000000000              -0.004626472               0.000611153              -0.000892376              -0.001811319               0.000807485              -0.001003834               0.000000000               0.000000000               0.000000000               0.000000000              -0.003412212               0.001473846              -0.000949367              -0.001463808               0.000979211              -0.000484597               0.000000000               0.000000000               0.000000000               0.000000000              -0.002541287               0.002233437              -0.000929719              -0.001232160               0.001155191              -0.000076969               0.000000000               0.000000000               0.000000000               0.000000000              -0.001838175               0.002873522              -0.000877054              -0.001048504               0.001307332               0.000258828               0.000000000               0.000000000               0.000000000               0.000000000              -0.001215175               0.003402693              -0.000812369              -0.000881025               0.001427895               0.000546869               0.000000000               0.000000000               0.000000000               0.000000000              -0.000624526               0.003832547              -0.000746106              -0.000713264               0.001515258               0.000801993               0.000000000               0.000000000               0.000000000               0.000000000              -0.000042208               0.004181352              -0.000685005              -0.000538496               0.001573269               0.001034773               0.000000000               0.000000000               0.000000000               0.000000000               0.000541161               0.004457398              -0.000630700              -0.000354239               0.001603864               0.001249625               0.000000000               0.000000000               0.000000000               0.000000000               0.001134764               0.004666728              -0.000584742              -0.000157804               0.001608162               0.001450357               0.000000000               0.000000000               0.000000000               0.000000000               0.001751938               0.004816891              -0.000528226               0.000054865               0.001587326               0.001642190               0.000000000               0.000000000               0.000000000               0.000000000               0.002415212               0.004919396              -0.000443112               0.000290777               0.001542857               0.001833634               0.000000000               0.000000000               0.000000000               0.000000000               0.003148577               0.004980609              -0.000332072               0.000558135               0.001474141               0.002032276               0.000000000               0.000000000               0.000000000               0.000000000               0.003968224               0.005002404              -0.000187073               0.000862775               0.001379860               0.002242635               0.000000000               0.000000000               0.000000000               0.000000000               0.004580990               0.005067465              -0.000115928               0.001084427               0.001327662               0.002412090               0.000000000               0.000000000               0.000000000               0.000000000              -0.014839736              -0.001312900               0.000000000              -0.005400785               0.001362619              -0.004038166               0.000000000               0.000000000               0.000000000               0.000000000              -0.010260784              -0.000775012              -0.000000000              -0.003750915               0.000991961              -0.002758954               0.000000000               0.000000000               0.000000000               0.000000000              -0.006605609              -0.000498622               0.000000000              -0.002414774               0.000638713              -0.001776061               0.000000000               0.000000000               0.000000000               0.000000000              -0.004599466               0.000306147               0.000000000              -0.001763066               0.000689733              -0.001073333               0.000000000               0.000000000               0.000000000               0.000000000              -0.003336513               0.001168803              -0.000000000              -0.001397291               0.000855359              -0.000541932               0.000000000               0.000000000               0.000000000               0.000000000              -0.002444534               0.001945241              -0.000000000              -0.001159853               0.001035024              -0.000124829               0.000000000               0.000000000               0.000000000               0.000000000              -0.001736197               0.002602261               0.000000000              -0.000976354               0.001192863               0.000216509               0.000000000               0.000000000               0.000000000               0.000000000              -0.001118671               0.003155350              -0.000000000              -0.000813919               0.001323079               0.000509160               0.000000000               0.000000000               0.000000000               0.000000000              -0.000533870               0.003623739              -0.000000000              -0.000653167               0.001425623               0.000772456               0.000000000               0.000000000               0.000000000               0.000000000               0.000046309               0.004010491               0.000000000              -0.000483945               0.001498132               0.001014187               0.000000000               0.000000000               0.000000000               0.000000000               0.000637214               0.004318377               0.000000000              -0.000300841               0.001539725               0.001238884               0.000000000               0.000000000               0.000000000               0.000000000               0.001240551               0.004560081               0.000000000              -0.000104804               0.001554946               0.001450143               0.000000000               0.000000000               0.000000000               0.000000000               0.001863185               0.004741662              -0.000000000               0.000105986               0.001545210               0.001651195               0.000000000               0.000000000               0.000000000               0.000000000               0.002548316               0.004876175              -0.000000000               0.000346093               0.001510011               0.001856104               0.000000000               0.000000000               0.000000000               0.000000000               0.003328168               0.004962781               0.000000000               0.000627709               0.001445007               0.002072717               0.000000000               0.000000000               0.000000000               0.000000000               0.004220940               0.004994551               0.000000000               0.000958524               0.001345326               0.002303850               0.000000000               0.000000000               0.000000000               0.000000000               0.004904705               0.005069128               0.000000000               0.001205611               0.001287822               0.002493433               0.000000000               0.000000000               0.000000000               0.000000000               0.000000000               0.000000000               0.000000000               0.000000000               0.000000000               0.000000000               0.000000000               0.000000000               0.000000000               0.000000000               0.000000000               0.000000000               0.000000000               0.000000000               0.000000000               0.000000000               0.000000000               0.000000000               0.000000000               0.000000000               0.000000000               0.000000000               0.000000000               0.000000000               0.000000000               0.000000000               0.000000000               0.000000000               0.000000000               0.000000000               0.000000000               0.000000000               0.000000000               0.000000000               0.000000000               0.000000000               0.000000000               0.000000000               0.000000000               0.000000000               0.000000000               0.000000000               0.000000000               0.000000000               0.000000000               0.000000000               0.000000000               0.000000000               0.000000000               0.000000000               0.000000000               0.000000000               0.000000000               0.000000000               0.000000000               0.000000000               0.000000000               0.000000000               0.000000000               0.000000000               0.000000000               0.000000000               0.000000000               0.000000000               0.000000000               0.000000000               0.000000000               0.000000000               0.000000000               0.000000000               0.000000000               0.000000000               0.000000000               0.000000000               0.000000000               0.000000000               0.000000000               0.000000000               0.000000000               0.000000000               0.000000000               0.000000000               0.000000000               0.000000000               0.000000000               0.000000000               0.000000000               0.000000000               0.000000000               0.000000000               0.000000000               0.000000000               0.000000000               0.000000000               0.000000000               0.000000000               0.000000000               0.000000000               0.000000000               0.000000000               0.000000000               0.000000000               0.000000000               0.000000000               0.000000000               0.000000000               0.000000000               0.000000000               0.000000000               0.000000000               0.000000000               0.000000000               0.000000000               0.000000000               0.000000000               0.000000000               0.000000000               0.000000000               0.000000000               0.000000000               0.000000000               0.000000000               0.000000000               0.000000000               0.000000000               0.000000000               0.000000000               0.000000000               0.000000000               0.000000000               0.000000000               0.000000000               0.000000000               0.000000000               0.000000000               0.000000000               0.000000000               0.000000000               0.000000000               0.000000000               0.000000000               0.000000000               0.000000000               0.000000000               0.000000000               0.000000000               0.000000000               0.000000000               0.000000000               0.000000000               0.000000000               0.000000000               0.000000000               0.000000000               0.000000000               0.000000000               0.000000000               0.000000000               0.000000000               0.000000000               0.000000000               0.000000000               0.000000000               0.000000000               0.000000000               0.000000000               0.000000000               0.000000000               0.000000000               0.000000000               0.002229444               0.022281236               0.001484065              -0.001949108               0.008076707               0.006127599               0.000000000               0.000000000               0.000000000               0.000000000               0.002004796               0.017075007               0.000634284              -0.001382574               0.006152470               0.004769896               0.000000000               0.000000000               0.000000000               0.000000000               0.002457458               0.012896534              -0.000194328              -0.000690518               0.004528974               0.003838456               0.000000000               0.000000000               0.000000000               0.000000000               0.002211901               0.010523625              -0.000523532              -0.000485989               0.003669836               0.003183847               0.000000000               0.000000000               0.000000000               0.000000000               0.001804215               0.009004145              -0.000646483              -0.000448937               0.003150997               0.002702060               0.000000000               0.000000000               0.000000000               0.000000000               0.001390022               0.007925417              -0.000679508              -0.000469418               0.002798252               0.002328834               0.000000000               0.000000000               0.000000000               0.000000000               0.001016107               0.007083622              -0.000667579              -0.000504411               0.002529321               0.002024909               0.000000000               0.000000000               0.000000000               0.000000000               0.000698886               0.006365510              -0.000636806              -0.000533605               0.002299684               0.001766079               0.000000000               0.000000000               0.000000000               0.000000000               0.000439734               0.005710761              -0.000601963              -0.000548944               0.002086549               0.001537605               0.000000000               0.000000000               0.000000000               0.000000000               0.000233331               0.005088168              -0.000566086              -0.000548521               0.001878879               0.001330358               0.000000000               0.000000000               0.000000000               0.000000000               0.000070472               0.004476394              -0.000533235              -0.000533121               0.001669823               0.001136702               0.000000000               0.000000000               0.000000000               0.000000000              -0.000053855               0.003865570              -0.000497282              -0.000503391               0.001456307               0.000952917               0.000000000               0.000000000               0.000000000               0.000000000              -0.000136708               0.003235978              -0.000447896              -0.000455762               0.001230569               0.000774807               0.000000000               0.000000000               0.000000000               0.000000000              -0.000173451               0.002569859              -0.000381136              -0.000386276               0.000985369               0.000599094               0.000000000               0.000000000               0.000000000               0.000000000              -0.000159739               0.001855685              -0.000290148              -0.000291862               0.000715843               0.000423981               0.000000000               0.000000000               0.000000000               0.000000000              -0.000094243               0.001080150              -0.000164478              -0.000170360               0.000416833               0.000246473               0.000000000               0.000000000               0.000000000               0.000000000              -0.000111606               0.000501703              -0.000103645              -0.000104565               0.000202088               0.000097522               0.000000000               0.000000000               0.000000000               0.000000000               0.002348838               0.020844255               0.002736458              -0.001724715               0.007522920               0.005798206               0.000000000               0.000000000               0.000000000               0.000000000               0.001769500               0.016182928               0.001165972              -0.001359301               0.005847356               0.004488055               0.000000000               0.000000000               0.000000000               0.000000000               0.001844870               0.012557914              -0.000354634              -0.000877911               0.004478567               0.003600656               0.000000000               0.000000000               0.000000000               0.000000000               0.001474725               0.010469532              -0.000938403              -0.000755668               0.003741698               0.002986030               0.000000000               0.000000000               0.000000000               0.000000000               0.001057185               0.009097612              -0.001144012              -0.000740756               0.003279425               0.002538670               0.000000000               0.000000000               0.000000000               0.000000000               0.000685921               0.008087711              -0.001190615              -0.000753742               0.002947124               0.002193382               0.000000000               0.000000000               0.000000000               0.000000000               0.000384472               0.007270618              -0.001161884              -0.000764649               0.002678398               0.001913749               0.000000000               0.000000000               0.000000000               0.000000000               0.000155683               0.006558346              -0.001101815              -0.000761411               0.002439897               0.001678486               0.000000000               0.000000000               0.000000000               0.000000000              -0.000015808               0.005904879              -0.001035554              -0.000744036               0.002216285               0.001472249               0.000000000               0.000000000               0.000000000               0.000000000              -0.000141642               0.005285409              -0.000968167              -0.000713790               0.001999715               0.001285925               0.000000000               0.000000000               0.000000000               0.000000000              -0.000228595               0.004686538              -0.000905392              -0.000671539               0.001786010               0.001114471               0.000000000               0.000000000               0.000000000               0.000000000              -0.000280981               0.004096179              -0.000836987              -0.000617389               0.001571175               0.000953787               0.000000000               0.000000000               0.000000000               0.000000000              -0.000291768               0.003505487              -0.000742965              -0.000547598               0.001351016               0.000803419               0.000000000               0.000000000               0.000000000               0.000000000              -0.000263418               0.002908445              -0.000621505              -0.000462337               0.001123584               0.000661247               0.000000000               0.000000000               0.000000000               0.000000000              -0.000199701               0.002307021              -0.000466406              -0.000363265               0.000890087               0.000526823               0.000000000               0.000000000               0.000000000               0.000000000              -0.000106372               0.001707282              -0.000260146              -0.000253299               0.000653521               0.000400222               0.000000000               0.000000000               0.000000000               0.000000000              -0.000097506               0.001294932              -0.000157660              -0.000198431               0.000497783               0.000299352               0.000000000               0.000000000               0.000000000               0.000000000               0.002410946               0.018682851               0.003575760              -0.001431250               0.006704638               0.005273387               0.000000000               0.000000000               0.000000000               0.000000000               0.001347243               0.014859402               0.001514830              -0.001352206               0.005403820               0.004051613               0.000000000               0.000000000               0.000000000               0.000000000               0.000911100               0.012062209              -0.000452754              -0.001166111               0.004409400               0.003243289               0.000000000               0.000000000               0.000000000               0.000000000               0.000403259               0.010370730              -0.001160681              -0.001145117               0.003838581               0.002693464               0.000000000               0.000000000               0.000000000               0.000000000               0.000007533               0.009189361              -0.001386951              -0.001145843               0.003445037               0.002299194               0.000000000               0.000000000               0.000000000               0.000000000              -0.000272881               0.008268428              -0.001422054              -0.001135881               0.003134742               0.001998861               0.000000000               0.000000000               0.000000000               0.000000000              -0.000455870               0.007482922              -0.001373306              -0.001106314               0.002863054               0.001756739               0.000000000               0.000000000               0.000000000               0.000000000              -0.000557544               0.006778202              -0.001292997              -0.001056352               0.002611495               0.001555143               0.000000000               0.000000000               0.000000000               0.000000000              -0.000606012               0.006129291              -0.001205159              -0.000993414               0.002374214               0.001380800               0.000000000               0.000000000               0.000000000               0.000000000              -0.000616113               0.005519866              -0.001117982              -0.000921024               0.002146945               0.001225921               0.000000000               0.000000000               0.000000000               0.000000000              -0.000589955               0.004943247              -0.001034851              -0.000839137               0.001927445               0.001088307               0.000000000               0.000000000               0.000000000               0.000000000              -0.000533415               0.004387748              -0.000944626              -0.000748498               0.001712067               0.000963569               0.000000000               0.000000000               0.000000000               0.000000000              -0.000449145               0.003859429              -0.000826302              -0.000650857               0.001503416               0.000852559               0.000000000               0.000000000               0.000000000               0.000000000              -0.000342217               0.003364349              -0.000675461              -0.000548874               0.001304396               0.000755522               0.000000000               0.000000000               0.000000000               0.000000000              -0.000224854               0.002912354              -0.000490455              -0.000448364               0.001120229               0.000671866               0.000000000               0.000000000               0.000000000               0.000000000              -0.000111342               0.002527459              -0.000265437              -0.000357685               0.000961706               0.000604021               0.000000000               0.000000000               0.000000000               0.000000000              -0.000076388               0.002307570              -0.000152866              -0.000317091               0.000874879               0.000557788               0.000000000               0.000000000               0.000000000               0.000000000               0.002272508               0.016050772               0.003922166              -0.001154156               0.005734922               0.004580766               0.000000000               0.000000000               0.000000000               0.000000000               0.000717802               0.013284840               0.001668231              -0.001391427               0.004892044               0.003500618               0.000000000               0.000000000               0.000000000               0.000000000              -0.000236432               0.011473188              -0.000443836              -0.001522807               0.004331960               0.002809153               0.000000000               0.000000000               0.000000000               0.000000000              -0.000816177               0.010209161              -0.001141563              -0.001582208               0.003930422               0.002348214               0.000000000               0.000000000               0.000000000               0.000000000              -0.001122358               0.009219452              -0.001339050              -0.001573312               0.003597557               0.002024245               0.000000000               0.000000000               0.000000000               0.000000000              -0.001253750               0.008380093              -0.001352423              -0.001517664               0.003299224               0.001781560               0.000000000               0.000000000               0.000000000               0.000000000              -0.001277003               0.007626266              -0.001290462              -0.001432156               0.003019449               0.001587292               0.000000000               0.000000000               0.000000000               0.000000000              -0.001230636               0.006941645              -0.001200626              -0.001329191               0.002756922               0.001427731               0.000000000               0.000000000               0.000000000               0.000000000              -0.001139644               0.006310421              -0.001107769              -0.001216167               0.002508841               0.001292675               0.000000000               0.000000000               0.000000000               0.000000000              -0.001013242               0.005724374              -0.001018648              -0.001095510               0.002273275               0.001177765               0.000000000               0.000000000               0.000000000               0.000000000              -0.000860462               0.005178162              -0.000930558              -0.000969941               0.002049350               0.001079409               0.000000000               0.000000000               0.000000000               0.000000000              -0.000692510               0.004669520              -0.000834759              -0.000843380               0.001837618               0.000994238               0.000000000               0.000000000               0.000000000               0.000000000              -0.000520413               0.004213512              -0.000713822              -0.000721842               0.001645104               0.000923262               0.000000000               0.000000000               0.000000000               0.000000000              -0.000352224               0.003827589              -0.000558927              -0.000610531               0.001479360               0.000868829               0.000000000               0.000000000               0.000000000               0.000000000              -0.000201528               0.003522956              -0.000382597              -0.000515941               0.001346287               0.000830346               0.000000000               0.000000000               0.000000000               0.000000000              -0.000085478               0.003323414              -0.000196446              -0.000447480               0.001256954               0.000809474               0.000000000               0.000000000               0.000000000               0.000000000              -0.000039184               0.003249562              -0.000102886              -0.000420888               0.001223473               0.000802584               0.000000000               0.000000000               0.000000000               0.000000000               0.001825633               0.013218117               0.003799341              -0.000967653               0.004728545               0.003760892               0.000000000               0.000000000               0.000000000               0.000000000              -0.000094335               0.011625431               0.001670395              -0.001488552               0.004371289               0.002882737               0.000000000               0.000000000               0.000000000               0.000000000              -0.001450986               0.010827818              -0.000293540              -0.001897592               0.004241767               0.002344175               0.000000000               0.000000000               0.000000000               0.000000000              -0.001990413               0.009962735              -0.000888842              -0.001991742               0.003984792               0.001993051               0.000000000               0.000000000               0.000000000               0.000000000              -0.002130849               0.009138939              -0.001037960              -0.001941431               0.003693426               0.001751995               0.000000000               0.000000000               0.000000000               0.000000000              -0.002073732               0.008363879              -0.001036043              -0.001823130               0.003395642               0.001572512               0.000000000               0.000000000               0.000000000               0.000000000              -0.001918398               0.007644240              -0.000979648              -0.001674925               0.003106363               0.001431437               0.000000000               0.000000000               0.000000000               0.000000000              -0.001710197               0.006993072              -0.000903051              -0.001515454               0.002836152               0.001320698               0.000000000               0.000000000               0.000000000               0.000000000              -0.001472901               0.006394233              -0.000822540              -0.001351614               0.002581927               0.001230314               0.000000000               0.000000000               0.000000000               0.000000000              -0.001220073               0.005841453              -0.000744552              -0.001187706               0.002343033               0.001155327               0.000000000               0.000000000               0.000000000               0.000000000              -0.000961285               0.005336540              -0.000661688              -0.001027547               0.002121345               0.001093798               0.000000000               0.000000000               0.000000000               0.000000000              -0.000708899               0.004883826              -0.000571037              -0.000876313               0.001920030               0.001043717               0.000000000               0.000000000               0.000000000               0.000000000              -0.000479475               0.004501842              -0.000468275              -0.000742532               0.001748109               0.001005578               0.000000000               0.000000000               0.000000000               0.000000000              -0.000284246               0.004209752              -0.000341182              -0.000632810               0.001614173               0.000981364               0.000000000               0.000000000               0.000000000               0.000000000              -0.000135692               0.004015491              -0.000206668              -0.000552820               0.001522757               0.000969937               0.000000000               0.000000000               0.000000000               0.000000000              -0.000043712               0.003921751              -0.000092191              -0.000506610               0.001476107               0.000969498               0.000000000               0.000000000               0.000000000               0.000000000              -0.000008712               0.003909952              -0.000039971              -0.000492010               0.001467307               0.000975298               0.000000000               0.000000000               0.000000000               0.000000000               0.001014671               0.010439990               0.003301278              -0.000924497               0.003788127               0.002863630               0.000000000               0.000000000               0.000000000               0.000000000              -0.001040716               0.010017363               0.001578852              -0.001642436               0.003886566               0.002244130               0.000000000               0.000000000               0.000000000               0.000000000              -0.002592799               0.010145529              -0.000005322              -0.002240485               0.004128637               0.001888152               0.000000000               0.000000000               0.000000000               0.000000000              -0.002966931               0.009606066              -0.000458066              -0.002313352               0.003973107               0.001659756               0.000000000               0.000000000               0.000000000               0.000000000              -0.002887891               0.008912441              -0.000570677              -0.002197009               0.003703120               0.001506111               0.000000000               0.000000000               0.000000000               0.000000000              -0.002625011               0.008205531              -0.000576932              -0.002010066               0.003405172               0.001395106               0.000000000               0.000000000               0.000000000               0.000000000              -0.002290039               0.007541363              -0.000550342              -0.001801430               0.003114239               0.001312809               0.000000000               0.000000000               0.000000000               0.000000000              -0.001931781               0.006933844              -0.000505646              -0.001591144               0.002841640               0.001250495               0.000000000               0.000000000               0.000000000               0.000000000              -0.001567739               0.006372187              -0.000449810              -0.001384422               0.002585515               0.001201093               0.000000000               0.000000000               0.000000000               0.000000000              -0.001217135               0.005859852              -0.000392993              -0.001188904               0.002349566               0.001160662               0.000000000               0.000000000               0.000000000               0.000000000              -0.000894722               0.005400712              -0.000329870              -0.001010607               0.002137089               0.001126481               0.000000000               0.000000000               0.000000000               0.000000000              -0.000603660               0.005011635              -0.000264706              -0.000852825               0.001954803               0.001101978               0.000000000               0.000000000               0.000000000               0.000000000              -0.000360401               0.004705390              -0.000201189              -0.000723322               0.001809555               0.001086233               0.000000000               0.000000000               0.000000000               0.000000000              -0.000178720               0.004489852              -0.000129397              -0.000628250               0.001706019               0.001077769               0.000000000               0.000000000               0.000000000               0.000000000              -0.000064219               0.004366505              -0.000062596              -0.000569894               0.001645452               0.001075558               0.000000000               0.000000000               0.000000000               0.000000000              -0.000011316               0.004322743              -0.000021954              -0.000544585               0.001622428               0.001077843               0.000000000               0.000000000               0.000000000               0.000000000               0.000001859               0.004322466              -0.000009318              -0.000539610               0.001620678               0.001081068               0.000000000               0.000000000               0.000000000               0.000000000              -0.000111261               0.007901607               0.002544621              -0.001029423               0.002976983               0.001947560               0.000000000               0.000000000               0.000000000               0.000000000              -0.002064528               0.008556939               0.001441752              -0.001843811               0.003466888               0.001623077               0.000000000               0.000000000               0.000000000               0.000000000              -0.003559022               0.009425972               0.000398912              -0.002512873               0.003979584               0.001466710               0.000000000               0.000000000               0.000000000               0.000000000              -0.003661071               0.009127498               0.000075114              -0.002513832               0.003880413               0.001366581               0.000000000               0.000000000               0.000000000               0.000000000              -0.003330502               0.008550025              -0.000039699              -0.002317686               0.003622542               0.001304856               0.000000000               0.000000000               0.000000000               0.000000000              -0.002869440               0.007927459              -0.000082314              -0.002066967               0.003331449               0.001264482               0.000000000               0.000000000               0.000000000               0.000000000              -0.002376197               0.007330881              -0.000098747              -0.001807430               0.003046079               0.001238650               0.000000000               0.000000000               0.000000000               0.000000000              -0.001897962               0.006768108              -0.000095786              -0.001557746               0.002775262               0.001217516               0.000000000               0.000000000               0.000000000               0.000000000              -0.001445453               0.006248389              -0.000076616              -0.001323090               0.002523806               0.001200715               0.000000000               0.000000000               0.000000000               0.000000000              -0.001035378               0.005781357              -0.000054879              -0.001110934               0.002297411               0.001186477               0.000000000               0.000000000               0.000000000               0.000000000              -0.000683781               0.005375234              -0.000033063              -0.000928320               0.002101167               0.001172847               0.000000000               0.000000000               0.000000000               0.000000000              -0.000396698               0.005051830              -0.000016701              -0.000780239               0.001944006               0.001163767               0.000000000               0.000000000               0.000000000               0.000000000              -0.000185773               0.004818114              -0.000009589              -0.000671928               0.001829998               0.001158070               0.000000000               0.000000000               0.000000000               0.000000000              -0.000052595               0.004674421              -0.000001709              -0.000604024               0.001759466               0.001155442               0.000000000               0.000000000               0.000000000               0.000000000               0.000004367               0.004612665               0.000003724              -0.000574944               0.001729188               0.001154244               0.000000000               0.000000000               0.000000000               0.000000000               0.000011163               0.004611335               0.000000652              -0.000572229               0.001727839               0.001155610               0.000000000               0.000000000               0.000000000               0.000000000               0.000007902               0.004629021              -0.000000673              -0.000575663               0.001734879               0.001159216               0.000000000               0.000000000               0.000000000               0.000000000              -0.001421968               0.005785236               0.001647453              -0.001256390               0.002347189               0.001090799               0.000000000               0.000000000               0.000000000               0.000000000              -0.003064500               0.007256489               0.001296959              -0.002056244               0.003104220               0.001047976               0.000000000               0.000000000               0.000000000               0.000000000              -0.004319473               0.008686439               0.000879362              -0.002705601               0.003797318               0.001091717               0.000000000               0.000000000               0.000000000               0.000000000              -0.004138338               0.008636029               0.000636497              -0.002631374               0.003755772               0.001124398               0.000000000               0.000000000               0.000000000               0.000000000              -0.003593022               0.008204788               0.000486210              -0.002372976               0.003525894               0.001152918               0.000000000               0.000000000               0.000000000               0.000000000              -0.002970992               0.007682358               0.000389600              -0.002074412               0.003252231               0.001177819               0.000000000               0.000000000               0.000000000               0.000000000              -0.002354312               0.007160891               0.000326738              -0.001777974               0.002979598               0.001201624               0.000000000               0.000000000               0.000000000               0.000000000              -0.001781251               0.006652754               0.000280869              -0.001499560               0.002717416               0.001217856               0.000000000               0.000000000               0.000000000               0.000000000              -0.001266705               0.006177645               0.000250729              -0.001247217               0.002474933               0.001227717               0.000000000               0.000000000               0.000000000               0.000000000              -0.000819096               0.005749075               0.000226959              -0.001025793               0.002258270               0.001232477               0.000000000               0.000000000               0.000000000               0.000000000              -0.000450868               0.005381149               0.000200780              -0.000841717               0.002074271               0.001232554               0.000000000               0.000000000               0.000000000               0.000000000              -0.000170262               0.005099967               0.000162455              -0.000701342               0.001933753               0.001232411               0.000000000               0.000000000               0.000000000               0.000000000               0.000010409               0.004909965               0.000111705              -0.000609841               0.001839919               0.001230078               0.000000000               0.000000000               0.000000000               0.000000000               0.000092807               0.004805927               0.000062958              -0.000565937               0.001790605               0.001224668               0.000000000               0.000000000               0.000000000               0.000000000               0.000099109               0.004783905               0.000024775              -0.000560821               0.001781559               0.001220739               0.000000000               0.000000000               0.000000000               0.000000000               0.000070500               0.004819395               0.000000508              -0.000575985               0.001798444               0.001222459               0.000000000               0.000000000               0.000000000               0.000000000               0.000052266               0.004852297              -0.000006389              -0.000586936               0.001813061               0.001226126               0.000000000               0.000000000               0.000000000               0.000000000              -0.002933511               0.003843957               0.000717398              -0.001580558               0.001808158               0.000227601               0.000000000               0.000000000               0.000000000               0.000000000              -0.003917114               0.005751250               0.001142996              -0.002187819               0.002646337               0.000458518               0.000000000               0.000000000               0.000000000               0.000000000              -0.004793605               0.007576323               0.001379896              -0.002744635               0.003440294               0.000695659               0.000000000               0.000000000               0.000000000               0.000000000              -0.004459656               0.007907718               0.001224851              -0.002660829               0.003522823               0.000861993               0.000000000               0.000000000               0.000000000               0.000000000              -0.003828536               0.007747177               0.001040482              -0.002404092               0.003383731               0.000979638               0.000000000               0.000000000               0.000000000               0.000000000              -0.003140752               0.007423693               0.000888185              -0.002105739               0.003176452               0.001070714               0.000000000               0.000000000               0.000000000               0.000000000              -0.002476130               0.007055063               0.000767834              -0.001810427               0.002955140               0.001144712               0.000000000               0.000000000               0.000000000               0.000000000              -0.001863976               0.006674321               0.000664978              -0.001533277               0.002735844               0.001202566               0.000000000               0.000000000               0.000000000               0.000000000              -0.001320896               0.006295117               0.000579299              -0.001282222               0.002525759               0.001243536               0.000000000               0.000000000               0.000000000               0.000000000              -0.000849901               0.005921563               0.000510111              -0.001058906               0.002326803               0.001267898               0.000000000               0.000000000               0.000000000               0.000000000              -0.000451400               0.005572198               0.000441811              -0.000865798               0.002145980               0.001280182               0.000000000               0.000000000               0.000000000               0.000000000              -0.000136570               0.005280631               0.000356999              -0.000711291               0.001997290               0.001285999               0.000000000               0.000000000               0.000000000               0.000000000               0.000082499               0.005064620               0.000258377              -0.000602139               0.001888903               0.001286764               0.000000000               0.000000000               0.000000000               0.000000000               0.000201323               0.004933764               0.000159701              -0.000541223               0.001824979               0.001283756               0.000000000               0.000000000               0.000000000               0.000000000               0.000236092               0.004893578               0.000077053              -0.000523161               0.001805564               0.001282402               0.000000000               0.000000000               0.000000000               0.000000000               0.000215834               0.004925792               0.000023850              -0.000534785               0.001820176               0.001285391               0.000000000               0.000000000               0.000000000               0.000000000               0.000179726               0.004944456              -0.000000112              -0.000550658               0.001831688               0.001281030               0.000000000               0.000000000               0.000000000               0.000000000              -0.004839517               0.002100440              -0.000169018              -0.002077371               0.001392594              -0.000684776               0.000000000               0.000000000               0.000000000               0.000000000              -0.004880788               0.004233243               0.000935245              -0.002359446               0.002197548              -0.000161898               0.000000000               0.000000000               0.000000000               0.000000000              -0.005194127               0.006254437               0.001782539              -0.002729596               0.002994656               0.000265060               0.000000000               0.000000000               0.000000000               0.000000000              -0.004725073               0.006946397               0.001783708              -0.002640196               0.003195507               0.000555312               0.000000000               0.000000000               0.000000000               0.000000000              -0.004045759               0.007094030               0.001604508              -0.002403908               0.003165955               0.000762048               0.000000000               0.000000000               0.000000000               0.000000000              -0.003336445               0.007007191               0.001410684              -0.002127061               0.003044727               0.000917666               0.000000000               0.000000000               0.000000000               0.000000000              -0.002653074               0.006828018               0.001235318              -0.001848401               0.002892116               0.001043716               0.000000000               0.000000000               0.000000000               0.000000000              -0.002018391               0.006603059               0.001077289              -0.001582275               0.002728422               0.001146147               0.000000000               0.000000000               0.000000000               0.000000000              -0.001444021               0.006347592               0.000941446              -0.001334954               0.002560827               0.001225873               0.000000000               0.000000000               0.000000000               0.000000000              -0.000936233               0.006062768               0.000831594              -0.001108931               0.002390546               0.001281615               0.000000000               0.000000000               0.000000000               0.000000000              -0.000492265               0.005764242               0.000730743              -0.000905128               0.002223104               0.001317976               0.000000000               0.000000000               0.000000000               0.000000000              -0.000112454               0.005485021               0.000616449              -0.000727796               0.002070921               0.001343124               0.000000000               0.000000000               0.000000000               0.000000000               0.000190161               0.005252166               0.000482566              -0.000585209               0.001945774               0.001360565               0.000000000               0.000000000               0.000000000               0.000000000               0.000394331               0.005082009               0.000337128              -0.000487376               0.001856445               0.001369069               0.000000000               0.000000000               0.000000000               0.000000000               0.000494522               0.004987864               0.000201443              -0.000438036               0.001808617               0.001370581               0.000000000               0.000000000               0.000000000               0.000000000               0.000500786               0.004968106               0.000089296              -0.000433217               0.001800425               0.001367207               0.000000000               0.000000000               0.000000000               0.000000000               0.000453297               0.004954605               0.000029248              -0.000449338               0.001801298               0.001351960               0.000000000               0.000000000               0.000000000               0.000000000              -0.007002912               0.000701480              -0.000922138              -0.002713774               0.001138410              -0.001575364               0.000000000               0.000000000               0.000000000               0.000000000              -0.005991479               0.002805322               0.000668290              -0.002597465               0.001800917              -0.000796549               0.000000000               0.000000000               0.000000000               0.000000000              -0.005539121               0.004744847               0.001987486              -0.002670271               0.002471689              -0.000198582               0.000000000               0.000000000               0.000000000               0.000000000              -0.004851691               0.005681745               0.002178764              -0.002529597               0.002737094               0.000207498               0.000000000               0.000000000               0.000000000               0.000000000              -0.004117040               0.006111884               0.002054995              -0.002307870               0.002806564               0.000498694               0.000000000               0.000000000               0.000000000               0.000000000              -0.003396886               0.006278073               0.001856798              -0.002058587               0.002778865               0.000720278               0.000000000               0.000000000               0.000000000               0.000000000              -0.002709741               0.006313474               0.001653660              -0.001805333               0.002706247               0.000900914               0.000000000               0.000000000               0.000000000               0.000000000              -0.002064307               0.006265110               0.001460456              -0.001557251               0.002607432               0.001050182               0.000000000               0.000000000               0.000000000               0.000000000              -0.001469308               0.006153932               0.001291059              -0.001320229               0.002491366               0.001171137               0.000000000               0.000000000               0.000000000               0.000000000              -0.000928043               0.005997466               0.001149309              -0.001097697               0.002365034               0.001267337               0.000000000               0.000000000               0.000000000               0.000000000              -0.000440567               0.005802422               0.001022176              -0.000890513               0.002230959               0.001340445               0.000000000               0.000000000               0.000000000               0.000000000              -0.000004930               0.005583762               0.000887797              -0.000699817               0.002094508               0.001394690               0.000000000               0.000000000               0.000000000               0.000000000               0.000373904               0.005374437               0.000730081              -0.000531590               0.001968658               0.001437068               0.000000000               0.000000000               0.000000000               0.000000000               0.000675026               0.005198924               0.000548144              -0.000396730               0.001865201               0.001468471               0.000000000               0.000000000               0.000000000               0.000000000               0.000878808               0.005080428               0.000361870              -0.000305500               0.001795292               0.001489792               0.000000000               0.000000000               0.000000000               0.000000000               0.000967205               0.005021029               0.000181531              -0.000264926               0.001761968               0.001497042               0.000000000               0.000000000               0.000000000               0.000000000               0.000957064               0.004989245               0.000085826              -0.000264756               0.001751317               0.001486561               0.000000000               0.000000000               0.000000000               0.000000000              -0.009271687              -0.000283643              -0.001426932              -0.003441424               0.001052586              -0.002388838               0.000000000               0.000000000               0.000000000               0.000000000              -0.007177768               0.001544886               0.000384955              -0.002884770               0.001476542              -0.001408228               0.000000000               0.000000000               0.000000000               0.000000000              -0.005848852               0.003175743               0.001964761              -0.002590283               0.001921995              -0.000668288               0.000000000               0.000000000               0.000000000               0.000000000              -0.004861386               0.004225679               0.002319696              -0.002351225               0.002192286              -0.000158939               0.000000000               0.000000000               0.000000000               0.000000000              -0.004039197               0.004879512               0.002276247              -0.002124633               0.002334698               0.000210065               0.000000000               0.000000000               0.000000000               0.000000000              -0.003298723               0.005278560               0.002111960              -0.001896837               0.002391781               0.000494944               0.000000000               0.000000000               0.000000000               0.000000000              -0.002617667               0.005519874               0.001916598              -0.001671606               0.002397141               0.000725535               0.000000000               0.000000000               0.000000000               0.000000000              -0.001973192               0.005657772               0.001720072              -0.001447166               0.002368293               0.000921128               0.000000000               0.000000000               0.000000000               0.000000000              -0.001370548               0.005713582               0.001540187              -0.001228151               0.002313891               0.001085741               0.000000000               0.000000000               0.000000000               0.000000000              -0.000807788               0.005703614               0.001386696              -0.001015870               0.002239809               0.001223939               0.000000000               0.000000000               0.000000000               0.000000000              -0.000282292               0.005635372               0.001247529              -0.000810279               0.002148531               0.001338252               0.000000000               0.000000000               0.000000000               0.000000000               0.000208119               0.005521101               0.001103425              -0.000612092               0.002044379               0.001432287               0.000000000               0.000000000               0.000000000               0.000000000               0.000660201               0.005383474               0.000934484              -0.000425358               0.001936259               0.001510901               0.000000000               0.000000000               0.000000000               0.000000000               0.001064239               0.005245258               0.000734577              -0.000256567               0.001833924               0.001577357               0.000000000               0.000000000               0.000000000               0.000000000               0.001400314               0.005132831               0.000514434              -0.000116486               0.001749755               0.001633269               0.000000000               0.000000000               0.000000000               0.000000000               0.001635353               0.005054723               0.000271491              -0.000018584               0.001691086               0.001672502               0.000000000               0.000000000               0.000000000               0.000000000               0.001731055               0.005026692               0.000146211               0.000020808               0.001668611               0.001689420               0.000000000               0.000000000               0.000000000               0.000000000              -0.011435394              -0.000888581              -0.001583110              -0.004177197               0.001096197              -0.003081000               0.000000000               0.000000000               0.000000000               0.000000000              -0.008341732               0.000522468               0.000144250              -0.003193455               0.001238632              -0.001954823               0.000000000               0.000000000               0.000000000               0.000000000              -0.006126312               0.001716453               0.001705991              -0.002511920               0.001409447              -0.001102473               0.000000000               0.000000000               0.000000000               0.000000000              -0.004791233               0.002753008               0.002146101              -0.002140835               0.001631269              -0.000509566               0.000000000               0.000000000               0.000000000               0.000000000              -0.003842080               0.003543835               0.002180148              -0.001883756               0.001809184              -0.000074572               0.000000000               0.000000000               0.000000000               0.000000000              -0.003070266               0.004126314               0.002067641              -0.001667136               0.001931135               0.000264000               0.000000000               0.000000000               0.000000000               0.000000000              -0.002389131               0.004552826               0.001908042              -0.001465025               0.002005934               0.000540910               0.000000000               0.000000000               0.000000000               0.000000000              -0.001752288               0.004869094               0.001737666              -0.001265742               0.002044929               0.000779186               0.000000000               0.000000000               0.000000000               0.000000000              -0.001147233               0.005082412               0.001574673              -0.001065512               0.002049291               0.000983779               0.000000000               0.000000000               0.000000000               0.000000000              -0.000571765               0.005209986               0.001433794              -0.000865659               0.002025197               0.001159538               0.000000000               0.000000000               0.000000000               0.000000000              -0.000019902               0.005273061               0.001305522              -0.000666595               0.001979868               0.001313273               0.000000000               0.000000000               0.000000000               0.000000000               0.000516336               0.005284863               0.001171377              -0.000466981               0.001917264               0.001450282               0.000000000               0.000000000               0.000000000               0.000000000               0.001041399               0.005250934               0.001013957              -0.000265842               0.001838908               0.001573066               0.000000000               0.000000000               0.000000000               0.000000000               0.001554684               0.005188218               0.000822751              -0.000065521               0.001751229               0.001685708               0.000000000               0.000000000               0.000000000               0.000000000               0.002037820               0.005119382               0.000594051               0.000124258               0.001665024               0.001789282               0.000000000               0.000000000               0.000000000               0.000000000               0.002464401               0.005055319               0.000321416               0.000292233               0.001587679               0.001879911               0.000000000               0.000000000               0.000000000               0.000000000               0.002720087               0.005050603               0.000186208               0.000388703               0.001553950               0.001942653               0.000000000               0.000000000               0.000000000               0.000000000              -0.013233216              -0.001182906              -0.001352466              -0.004814590               0.001210553              -0.003604037               0.000000000               0.000000000               0.000000000               0.000000000              -0.009343988              -0.000207543              -0.000003632              -0.003478050               0.001090161              -0.002387888               0.000000000               0.000000000               0.000000000               0.000000000              -0.006369124               0.000532971               0.001248019              -0.002455041               0.000995997              -0.001459044               0.000000000               0.000000000               0.000000000               0.000000000              -0.004697146               0.001478181               0.001648683              -0.001946200               0.001141452              -0.000804748               0.000000000               0.000000000               0.000000000               0.000000000              -0.003604240               0.002327532               0.001721946              -0.001642529               0.001323344              -0.000319185               0.000000000               0.000000000               0.000000000               0.000000000              -0.002784636               0.003028835               0.001663404              -0.001422840               0.001483881               0.000061041               0.000000000               0.000000000               0.000000000               0.000000000              -0.002094051               0.003594366               0.001555525              -0.001234563               0.001609630               0.000375068               0.000000000               0.000000000               0.000000000               0.000000000              -0.001463762               0.004042859               0.001432599              -0.001054266               0.001699028               0.000644762               0.000000000               0.000000000               0.000000000               0.000000000              -0.000860983               0.004382864               0.001310023              -0.000870725               0.001751181               0.000880456               0.000000000               0.000000000               0.000000000               0.000000000              -0.000277090               0.004636832               0.001200474              -0.000683511               0.001773432               0.001089921               0.000000000               0.000000000               0.000000000               0.000000000               0.000291408               0.004822956               0.001101082              -0.000493591               0.001772166               0.001278575               0.000000000               0.000000000               0.000000000               0.000000000               0.000859889               0.004948478               0.001003228              -0.000296101               0.001748177               0.001452075               0.000000000               0.000000000               0.000000000               0.000000000               0.001445892               0.005018395               0.000888920              -0.000085091               0.001701145               0.001616055               0.000000000               0.000000000               0.000000000               0.000000000               0.002051463               0.005047309               0.000737430               0.000138383               0.001636292               0.001774675               0.000000000               0.000000000               0.000000000               0.000000000               0.002675543               0.005049080               0.000542216               0.000372190               0.001558946               0.001931136               0.000000000               0.000000000               0.000000000               0.000000000               0.003315022               0.005030920               0.000297768               0.000614262               0.001472203               0.002086465               0.000000000               0.000000000               0.000000000               0.000000000               0.003758568               0.005063369               0.000178892               0.000776534               0.001428928               0.002205462               0.000000000               0.000000000               0.000000000               0.000000000              -0.014422869              -0.001286678              -0.000776495              -0.005247738               0.001320344              -0.003927394               0.000000000               0.000000000               0.000000000               0.000000000              -0.010021912              -0.000633022              -0.000040831              -0.003679087               0.001015348              -0.002663739               0.000000000               0.000000000               0.000000000               0.000000000              -0.006542527              -0.000234387               0.000653787              -0.002424147               0.000729915              -0.001694232               0.000000000               0.000000000               0.000000000               0.000000000              -0.004626472               0.000611153               0.000892376              -0.001811319               0.000807485              -0.001003834               0.000000000               0.000000000               0.000000000               0.000000000              -0.003412212               0.001473846               0.000949367              -0.001463808               0.000979211              -0.000484597               0.000000000               0.000000000               0.000000000               0.000000000              -0.002541287               0.002233437               0.000929719              -0.001232160               0.001155191              -0.000076969               0.000000000               0.000000000               0.000000000               0.000000000              -0.001838175               0.002873522               0.000877054              -0.001048504               0.001307332               0.000258828               0.000000000               0.000000000               0.000000000               0.000000000              -0.001215175               0.003402693               0.000812369              -0.000881025               0.001427895               0.000546869               0.000000000               0.000000000               0.000000000               0.000000000              -0.000624526               0.003832547               0.000746106              -0.000713264               0.001515258               0.000801993               0.000000000               0.000000000               0.000000000               0.000000000              -0.000042208               0.004181352               0.000685005              -0.000538496               0.001573269               0.001034773               0.000000000               0.000000000               0.000000000               0.000000000               0.000541161               0.004457398               0.000630700              -0.000354239               0.001603864               0.001249625               0.000000000               0.000000000               0.000000000               0.000000000               0.001134764               0.004666728               0.000584742              -0.000157804               0.001608162               0.001450357               0.000000000               0.000000000               0.000000000               0.000000000               0.001751938               0.004816891               0.000528226               0.000054865               0.001587326               0.001642190               0.000000000               0.000000000               0.000000000               0.000000000               0.002415212               0.004919396               0.000443112               0.000290777               0.001542857               0.001833634               0.000000000               0.000000000               0.000000000               0.000000000               0.003148577               0.004980609               0.000332072               0.000558135               0.001474141               0.002032276               0.000000000               0.000000000               0.000000000               0.000000000               0.003968224               0.005002404               0.000187073               0.000862775               0.001379860               0.002242635               0.000000000               0.000000000               0.000000000               0.000000000               0.004580990               0.005067465               0.000115928               0.001084427               0.001327662               0.002412090               0.000000000               0.000000000               0.000000000               0.000000000              -0.014839736              -0.001312900               0.000000000              -0.005400785               0.001362619              -0.004038166               0.000000000               0.000000000               0.000000000               0.000000000              -0.010260784              -0.000775012               0.000000000              -0.003750915               0.000991961              -0.002758954               0.000000000               0.000000000               0.000000000               0.000000000              -0.006605609              -0.000498622              -0.000000000              -0.002414774               0.000638713              -0.001776061               0.000000000               0.000000000               0.000000000               0.000000000              -0.004599466               0.000306147              -0.000000000              -0.001763066               0.000689733              -0.001073333               0.000000000               0.000000000               0.000000000               0.000000000              -0.003336513               0.001168803               0.000000000              -0.001397291               0.000855359              -0.000541932               0.000000000               0.000000000               0.000000000               0.000000000              -0.002444534               0.001945241               0.000000000              -0.001159853               0.001035024              -0.000124829               0.000000000               0.000000000               0.000000000               0.000000000              -0.001736197               0.002602261               0.000000000              -0.000976354               0.001192863               0.000216509               0.000000000               0.000000000               0.000000000               0.000000000              -0.001118671               0.003155350               0.000000000              -0.000813919               0.001323079               0.000509160               0.000000000               0.000000000               0.000000000               0.000000000              -0.000533870               0.003623739               0.000000000              -0.000653167               0.001425623               0.000772456               0.000000000               0.000000000               0.000000000               0.000000000               0.000046309               0.004010491              -0.000000000              -0.000483945               0.001498132               0.001014187               0.000000000               0.000000000               0.000000000               0.000000000               0.000637214               0.004318377               0.000000000              -0.000300841               0.001539725               0.001238884               0.000000000               0.000000000               0.000000000               0.000000000               0.001240551               0.004560081               0.000000000              -0.000104804               0.001554946               0.001450143               0.000000000               0.000000000               0.000000000               0.000000000               0.001863185               0.004741662              -0.000000000               0.000105986               0.001545210               0.001651195               0.000000000               0.000000000               0.000000000               0.000000000               0.002548316               0.004876175               0.000000000               0.000346093               0.001510011               0.001856104               0.000000000               0.000000000               0.000000000               0.000000000               0.003328168               0.004962781              -0.000000000               0.000627709               0.001445007               0.002072717               0.000000000               0.000000000               0.000000000               0.000000000               0.004220940               0.004994551               0.000000000               0.000958524               0.001345326               0.002303850               0.000000000               0.000000000               0.000000000               0.000000000               0.004904705               0.005069128               0.000000000               0.001205611               0.001287822               0.002493433               0.000000000               0.000000000               0.000000000               0.000000000               0.002175094               0.022787806               0.000000000              -0.002032811               0.008273463               0.006240653               0.000000000               0.000000000               0.000000000               0.000000000               0.002080217               0.017389985               0.000000000              -0.001393663               0.006261158               0.004867495               0.000000000               0.000000000               0.000000000               0.000000000               0.002671675               0.013016797              -0.000000000              -0.000625220               0.004547295               0.003922076               0.000000000               0.000000000               0.000000000               0.000000000               0.002477537               0.010542103              -0.000000000              -0.000388686               0.003643561               0.003254876               0.000000000               0.000000000               0.000000000               0.000000000               0.002077968               0.008966543              -0.000000000              -0.000341579               0.003102677               0.002761098               0.000000000               0.000000000               0.000000000               0.000000000               0.001647793               0.007861862               0.000000000              -0.000364809               0.002742197               0.002377388               0.000000000               0.000000000               0.000000000               0.000000000               0.001248477               0.007008010              -0.000000000              -0.000407821               0.002471920               0.002064099               0.000000000               0.000000000               0.000000000               0.000000000               0.000901091               0.006284271               0.000000000              -0.000447624               0.002243944               0.001796320               0.000000000               0.000000000               0.000000000               0.000000000               0.000610478               0.005629597               0.000000000              -0.000474769               0.002034770               0.001560001               0.000000000               0.000000000               0.000000000               0.000000000               0.000375839               0.005006226               0.000000000              -0.000484837               0.001830338               0.001345500               0.000000000               0.000000000               0.000000000               0.000000000               0.000187909               0.004392167               0.000000000              -0.000478554               0.001623559               0.001145005               0.000000000               0.000000000               0.000000000               0.000000000               0.000034524               0.003772172               0.000000000              -0.000458574               0.001410236               0.000951662               0.000000000               0.000000000               0.000000000               0.000000000              -0.000077127               0.003128890              -0.000000000              -0.000420033               0.001182964               0.000762931               0.000000000               0.000000000               0.000000000               0.000000000              -0.000134233               0.002441874              -0.000000000              -0.000355571               0.000932473               0.000576903               0.000000000               0.000000000               0.000000000               0.000000000              -0.000137981               0.001687419               0.000000000              -0.000262670               0.000650024               0.000387354               0.000000000               0.000000000               0.000000000               0.000000000              -0.000084545               0.000840100              -0.000000000              -0.000136717               0.000325603               0.000188886               0.000000000               0.000000000               0.000000000               0.000000000              -0.000111806               0.000193949              -0.000000000              -0.000066171               0.000086706               0.000020535               0.000000000               0.000000000               0.000000000               0.000000000               0.002229444               0.022281236              -0.001484065              -0.001949108               0.008076707               0.006127599               0.000000000               0.000000000               0.000000000               0.000000000               0.002004796               0.017075007              -0.000634284              -0.001382574               0.006152470               0.004769896               0.000000000               0.000000000               0.000000000               0.000000000               0.002457458               0.012896534               0.000194328              -0.000690518               0.004528974               0.003838456               0.000000000               0.000000000               0.000000000               0.000000000               0.002211901               0.010523625               0.000523532              -0.000485989               0.003669836               0.003183847               0.000000000               0.000000000               0.000000000               0.000000000               0.001804215               0.009004145               0.000646483              -0.000448937               0.003150997               0.002702060               0.000000000               0.000000000               0.000000000               0.000000000               0.001390022               0.007925417               0.000679508              -0.000469418               0.002798252               0.002328834               0.000000000               0.000000000               0.000000000               0.000000000               0.001016107               0.007083622               0.000667579              -0.000504411               0.002529321               0.002024909               0.000000000               0.000000000               0.000000000               0.000000000               0.000698886               0.006365510               0.000636806              -0.000533605               0.002299684               0.001766079               0.000000000               0.000000000               0.000000000               0.000000000               0.000439734               0.005710761               0.000601963              -0.000548944               0.002086549               0.001537605               0.000000000               0.000000000               0.000000000               0.000000000               0.000233331               0.005088168               0.000566086              -0.000548521               0.001878879               0.001330358               0.000000000               0.000000000               0.000000000               0.000000000               0.000070472               0.004476394               0.000533235              -0.000533121               0.001669823               0.001136702               0.000000000               0.000000000               0.000000000               0.000000000              -0.000053855               0.003865570               0.000497282              -0.000503391               0.001456307               0.000952917               0.000000000               0.000000000               0.000000000               0.000000000              -0.000136708               0.003235978               0.000447896              -0.000455762               0.001230569               0.000774807               0.000000000               0.000000000               0.000000000               0.000000000              -0.000173451               0.002569859               0.000381136              -0.000386276               0.000985369               0.000599094               0.000000000               0.000000000               0.000000000               0.000000000              -0.000159739               0.001855685               0.000290148              -0.000291862               0.000715843               0.000423981               0.000000000               0.000000000               0.000000000               0.000000000              -0.000094243               0.001080150               0.000164478              -0.000170360               0.000416833               0.000246473               0.000000000               0.000000000               0.000000000               0.000000000              -0.000111606               0.000501703               0.000103645              -0.000104565               0.000202088               0.000097522               0.000000000               0.000000000               0.000000000               0.000000000               0.002348838               0.020844255              -0.002736458              -0.001724715               0.007522920               0.005798206               0.000000000               0.000000000               0.000000000               0.000000000               0.001769500               0.016182928              -0.001165972              -0.001359301               0.005847356               0.004488055               0.000000000               0.000000000               0.000000000               0.000000000               0.001844870               0.012557914               0.000354634              -0.000877911               0.004478567               0.003600656               0.000000000               0.000000000               0.000000000               0.000000000               0.001474725               0.010469532               0.000938403              -0.000755668               0.003741698               0.002986030               0.000000000               0.000000000               0.000000000               0.000000000               0.001057185               0.009097612               0.001144012              -0.000740756               0.003279425               0.002538670               0.000000000               0.000000000               0.000000000               0.000000000               0.000685921               0.008087711               0.001190615              -0.000753742               0.002947124               0.002193382               0.000000000               0.000000000               0.000000000               0.000000000               0.000384472               0.007270618               0.001161884              -0.000764649               0.002678398               0.001913749               0.000000000               0.000000000               0.000000000               0.000000000               0.000155683               0.006558346               0.001101815              -0.000761411               0.002439897               0.001678486               0.000000000               0.000000000               0.000000000               0.000000000              -0.000015808               0.005904879               0.001035554              -0.000744036               0.002216285               0.001472249               0.000000000               0.000000000               0.000000000               0.000000000              -0.000141642               0.005285409               0.000968167              -0.000713790               0.001999715               0.001285925               0.000000000               0.000000000               0.000000000               0.000000000              -0.000228595               0.004686538               0.000905392              -0.000671539               0.001786010               0.001114471               0.000000000               0.000000000               0.000000000               0.000000000              -0.000280981               0.004096179               0.000836987              -0.000617389               0.001571175               0.000953787               0.000000000               0.000000000               0.000000000               0.000000000              -0.000291768               0.003505487               0.000742965              -0.000547598               0.001351016               0.000803419               0.000000000               0.000000000               0.000000000               0.000000000              -0.000263418               0.002908445               0.000621505              -0.000462337               0.001123584               0.000661247               0.000000000               0.000000000               0.000000000               0.000000000              -0.000199701               0.002307021               0.000466406              -0.000363265               0.000890087               0.000526823               0.000000000               0.000000000               0.000000000               0.000000000              -0.000106372               0.001707282               0.000260146              -0.000253299               0.000653521               0.000400222               0.000000000               0.000000000               0.000000000               0.000000000              -0.000097506               0.001294932               0.000157660              -0.000198431               0.000497783               0.000299352               0.000000000               0.000000000               0.000000000               0.000000000               0.002410946               0.018682851              -0.003575760              -0.001431250               0.006704638               0.005273387               0.000000000               0.000000000               0.000000000               0.000000000               0.001347243               0.014859402              -0.001514830              -0.001352206               0.005403820               0.004051613               0.000000000               0.000000000               0.000000000               0.000000000               0.000911100               0.012062209               0.000452754              -0.001166111               0.004409400               0.003243289               0.000000000               0.000000000               0.000000000               0.000000000               0.000403259               0.010370730               0.001160681              -0.001145117               0.003838581               0.002693464               0.000000000               0.000000000               0.000000000               0.000000000               0.000007533               0.009189361               0.001386951              -0.001145843               0.003445037               0.002299194               0.000000000               0.000000000               0.000000000               0.000000000              -0.000272881               0.008268428               0.001422054              -0.001135881               0.003134742               0.001998861               0.000000000               0.000000000               0.000000000               0.000000000              -0.000455870               0.007482922               0.001373306              -0.001106314               0.002863054               0.001756739               0.000000000               0.000000000               0.000000000               0.000000000              -0.000557544               0.006778202               0.001292997              -0.001056352               0.002611495               0.001555143               0.000000000               0.000000000               0.000000000               0.000000000              -0.000606012               0.006129291               0.001205159              -0.000993414               0.002374214               0.001380800               0.000000000               0.000000000               0.000000000               0.000000000              -0.000616113               0.005519866               0.001117982              -0.000921024               0.002146945               0.001225921               0.000000000               0.000000000               0.000000000               0.000000000              -0.000589955               0.004943247               0.001034851              -0.000839137               0.001927445               0.001088307               0.000000000               0.000000000               0.000000000               0.000000000              -0.000533415               0.004387748               0.000944626              -0.000748498               0.001712067               0.000963569               0.000000000               0.000000000               0.000000000               0.000000000              -0.000449145               0.003859429               0.000826302              -0.000650857               0.001503416               0.000852559               0.000000000               0.000000000               0.000000000               0.000000000              -0.000342217               0.003364349               0.000675461              -0.000548874               0.001304396               0.000755522               0.000000000               0.000000000               0.000000000               0.000000000              -0.000224854               0.002912354               0.000490455              -0.000448364               0.001120229               0.000671866               0.000000000               0.000000000               0.000000000               0.000000000              -0.000111342               0.002527459               0.000265437              -0.000357685               0.000961706               0.000604021               0.000000000               0.000000000               0.000000000               0.000000000              -0.000076388               0.002307570               0.000152866              -0.000317091               0.000874879               0.000557788               0.000000000               0.000000000               0.000000000               0.000000000               0.002272508               0.016050772              -0.003922166              -0.001154156               0.005734922               0.004580766               0.000000000               0.000000000               0.000000000               0.000000000               0.000717802               0.013284840              -0.001668231              -0.001391427               0.004892044               0.003500618               0.000000000               0.000000000               0.000000000               0.000000000              -0.000236432               0.011473188               0.000443836              -0.001522807               0.004331960               0.002809153               0.000000000               0.000000000               0.000000000               0.000000000              -0.000816177               0.010209161               0.001141563              -0.001582208               0.003930422               0.002348214               0.000000000               0.000000000               0.000000000               0.000000000              -0.001122358               0.009219452               0.001339050              -0.001573312               0.003597557               0.002024245               0.000000000               0.000000000               0.000000000               0.000000000              -0.001253750               0.008380093               0.001352423              -0.001517664               0.003299224               0.001781560               0.000000000               0.000000000               0.000000000               0.000000000              -0.001277003               0.007626266               0.001290462              -0.001432156               0.003019449               0.001587292               0.000000000               0.000000000               0.000000000               0.000000000              -0.001230636               0.006941645               0.001200626              -0.001329191               0.002756922               0.001427731               0.000000000               0.000000000               0.000000000               0.000000000              -0.001139644               0.006310421               0.001107769              -0.001216167               0.002508841               0.001292675               0.000000000               0.000000000               0.000000000               0.000000000              -0.001013242               0.005724374               0.001018648              -0.001095510               0.002273275               0.001177765               0.000000000               0.000000000               0.000000000               0.000000000              -0.000860462               0.005178162               0.000930558              -0.000969941               0.002049350               0.001079409               0.000000000               0.000000000               0.000000000               0.000000000              -0.000692510               0.004669520               0.000834759              -0.000843380               0.001837618               0.000994238               0.000000000               0.000000000               0.000000000               0.000000000              -0.000520413               0.004213512               0.000713822              -0.000721842               0.001645104               0.000923262               0.000000000               0.000000000               0.000000000               0.000000000              -0.000352224               0.003827589               0.000558927              -0.000610531               0.001479360               0.000868829               0.000000000               0.000000000               0.000000000               0.000000000              -0.000201528               0.003522956               0.000382597              -0.000515941               0.001346287               0.000830346               0.000000000               0.000000000               0.000000000               0.000000000              -0.000085478               0.003323414               0.000196446              -0.000447480               0.001256954               0.000809474               0.000000000               0.000000000               0.000000000               0.000000000              -0.000039184               0.003249562               0.000102886              -0.000420888               0.001223473               0.000802584               0.000000000               0.000000000               0.000000000               0.000000000               0.001825633               0.013218117              -0.003799341              -0.000967653               0.004728545               0.003760892               0.000000000               0.000000000               0.000000000               0.000000000              -0.000094335               0.011625431              -0.001670395              -0.001488552               0.004371289               0.002882737               0.000000000               0.000000000               0.000000000               0.000000000              -0.001450986               0.010827818               0.000293540              -0.001897592               0.004241767               0.002344175               0.000000000               0.000000000               0.000000000               0.000000000              -0.001990413               0.009962735               0.000888842              -0.001991742               0.003984792               0.001993051               0.000000000               0.000000000               0.000000000               0.000000000              -0.002130849               0.009138939               0.001037960              -0.001941431               0.003693426               0.001751995               0.000000000               0.000000000               0.000000000               0.000000000              -0.002073732               0.008363879               0.001036043              -0.001823130               0.003395642               0.001572512               0.000000000               0.000000000               0.000000000               0.000000000              -0.001918398               0.007644240               0.000979648              -0.001674925               0.003106363               0.001431437               0.000000000               0.000000000               0.000000000               0.000000000              -0.001710197               0.006993072               0.000903051              -0.001515454               0.002836152               0.001320698               0.000000000               0.000000000               0.000000000               0.000000000              -0.001472901               0.006394233               0.000822540              -0.001351614               0.002581927               0.001230314               0.000000000               0.000000000               0.000000000               0.000000000              -0.001220073               0.005841453               0.000744552              -0.001187706               0.002343033               0.001155327               0.000000000               0.000000000               0.000000000               0.000000000              -0.000961285               0.005336540               0.000661688              -0.001027547               0.002121345               0.001093798               0.000000000               0.000000000               0.000000000               0.000000000              -0.000708899               0.004883826               0.000571037              -0.000876313               0.001920030               0.001043717               0.000000000               0.000000000               0.000000000               0.000000000              -0.000479475               0.004501842               0.000468275              -0.000742532               0.001748109               0.001005578               0.000000000               0.000000000               0.000000000               0.000000000              -0.000284246               0.004209752               0.000341182              -0.000632810               0.001614173               0.000981364               0.000000000               0.000000000               0.000000000               0.000000000              -0.000135692               0.004015491               0.000206668              -0.000552820               0.001522757               0.000969937               0.000000000               0.000000000               0.000000000               0.000000000              -0.000043712               0.003921751               0.000092191              -0.000506610               0.001476107               0.000969498               0.000000000               0.000000000               0.000000000               0.000000000              -0.000008712               0.003909952               0.000039971              -0.000492010               0.001467307               0.000975298               0.000000000               0.000000000               0.000000000               0.000000000               0.001014671               0.010439990              -0.003301278              -0.000924497               0.003788127               0.002863630               0.000000000               0.000000000               0.000000000               0.000000000              -0.001040716               0.010017363              -0.001578852              -0.001642436               0.003886566               0.002244130               0.000000000               0.000000000               0.000000000               0.000000000              -0.002592799               0.010145529               0.000005322              -0.002240485               0.004128637               0.001888152               0.000000000               0.000000000               0.000000000               0.000000000              -0.002966931               0.009606066               0.000458066              -0.002313352               0.003973107               0.001659756               0.000000000               0.000000000               0.000000000               0.000000000              -0.002887891               0.008912441               0.000570677              -0.002197009               0.003703120               0.001506111               0.000000000               0.000000000               0.000000000               0.000000000              -0.002625011               0.008205531               0.000576932              -0.002010066               0.003405172               0.001395106               0.000000000               0.000000000               0.000000000               0.000000000              -0.002290039               0.007541363               0.000550342              -0.001801430               0.003114239               0.001312809               0.000000000               0.000000000               0.000000000               0.000000000              -0.001931781               0.006933844               0.000505646              -0.001591144               0.002841640               0.001250495               0.000000000               0.000000000               0.000000000               0.000000000              -0.001567739               0.006372187               0.000449810              -0.001384422               0.002585515               0.001201093               0.000000000               0.000000000               0.000000000               0.000000000              -0.001217135               0.005859852               0.000392993              -0.001188904               0.002349566               0.001160662               0.000000000               0.000000000               0.000000000               0.000000000              -0.000894722               0.005400712               0.000329870              -0.001010607               0.002137089               0.001126481               0.000000000               0.000000000               0.000000000               0.000000000              -0.000603660               0.005011635               0.000264706              -0.000852825               0.001954803               0.001101978               0.000000000               0.000000000               0.000000000               0.000000000              -0.000360401               0.004705390               0.000201189              -0.000723322               0.001809555               0.001086233               0.000000000               0.000000000               0.000000000               0.000000000              -0.000178720               0.004489852               0.000129397              -0.000628250               0.001706019               0.001077769               0.000000000               0.000000000               0.000000000               0.000000000              -0.000064219               0.004366505               0.000062596              -0.000569894               0.001645452               0.001075558               0.000000000               0.000000000               0.000000000               0.000000000              -0.000011316               0.004322743               0.000021954              -0.000544585               0.001622428               0.001077843               0.000000000               0.000000000               0.000000000               0.000000000               0.000001859               0.004322466               0.000009318              -0.000539610               0.001620678               0.001081068               0.000000000               0.000000000               0.000000000               0.000000000              -0.000111261               0.007901607              -0.002544621              -0.001029423               0.002976983               0.001947560               0.000000000               0.000000000               0.000000000               0.000000000              -0.002064528               0.008556939              -0.001441752              -0.001843811               0.003466888               0.001623077               0.000000000               0.000000000               0.000000000               0.000000000              -0.003559022               0.009425972              -0.000398912              -0.002512873               0.003979584               0.001466710               0.000000000               0.000000000               0.000000000               0.000000000              -0.003661071               0.009127498              -0.000075114              -0.002513832               0.003880413               0.001366581               0.000000000               0.000000000               0.000000000               0.000000000              -0.003330502               0.008550025               0.000039699              -0.002317686               0.003622542               0.001304856               0.000000000               0.000000000               0.000000000               0.000000000              -0.002869440               0.007927459               0.000082314              -0.002066967               0.003331449               0.001264482               0.000000000               0.000000000               0.000000000               0.000000000              -0.002376197               0.007330881               0.000098747              -0.001807430               0.003046079               0.001238650               0.000000000               0.000000000               0.000000000               0.000000000              -0.001897962               0.006768108               0.000095786              -0.001557746               0.002775262               0.001217516               0.000000000               0.000000000               0.000000000               0.000000000              -0.001445453               0.006248389               0.000076616              -0.001323090               0.002523806               0.001200715               0.000000000               0.000000000               0.000000000               0.000000000              -0.001035378               0.005781357               0.000054879              -0.001110934               0.002297411               0.001186477               0.000000000               0.000000000               0.000000000               0.000000000              -0.000683781               0.005375234               0.000033063              -0.000928320               0.002101167               0.001172847               0.000000000               0.000000000               0.000000000               0.000000000              -0.000396698               0.005051830               0.000016701              -0.000780239               0.001944006               0.001163767               0.000000000               0.000000000               0.000000000               0.000000000              -0.000185773               0.004818114               0.000009589              -0.000671928               0.001829998               0.001158070               0.000000000               0.000000000               0.000000000               0.000000000              -0.000052595               0.004674421               0.000001709              -0.000604024               0.001759466               0.001155442               0.000000000               0.000000000               0.000000000               0.000000000               0.000004367               0.004612665              -0.000003724              -0.000574944               0.001729188               0.001154244               0.000000000               0.000000000               0.000000000               0.000000000               0.000011163               0.004611335              -0.000000652              -0.000572229               0.001727839               0.001155610               0.000000000               0.000000000               0.000000000               0.000000000               0.000007902               0.004629021               0.000000673              -0.000575663               0.001734879               0.001159216               0.000000000               0.000000000               0.000000000               0.000000000              -0.001421968               0.005785236              -0.001647453              -0.001256390               0.002347189               0.001090799               0.000000000               0.000000000               0.000000000               0.000000000              -0.003064500               0.007256489              -0.001296959              -0.002056244               0.003104220               0.001047976               0.000000000               0.000000000               0.000000000               0.000000000              -0.004319473               0.008686439              -0.000879362              -0.002705601               0.003797318               0.001091717               0.000000000               0.000000000               0.000000000               0.000000000              -0.004138338               0.008636029              -0.000636497              -0.002631374               0.003755772               0.001124398               0.000000000               0.000000000               0.000000000               0.000000000              -0.003593022               0.008204788              -0.000486210              -0.002372976               0.003525894               0.001152918               0.000000000               0.000000000               0.000000000               0.000000000              -0.002970992               0.007682358              -0.000389600              -0.002074412               0.003252231               0.001177819               0.000000000               0.000000000               0.000000000               0.000000000              -0.002354312               0.007160891              -0.000326738              -0.001777974               0.002979598               0.001201624               0.000000000               0.000000000               0.000000000               0.000000000              -0.001781251               0.006652754              -0.000280869              -0.001499560               0.002717416               0.001217856               0.000000000               0.000000000               0.000000000               0.000000000              -0.001266705               0.006177645              -0.000250729              -0.001247217               0.002474933               0.001227717               0.000000000               0.000000000               0.000000000               0.000000000              -0.000819096               0.005749075              -0.000226959              -0.001025793               0.002258270               0.001232477               0.000000000               0.000000000               0.000000000               0.000000000              -0.000450868               0.005381149              -0.000200780              -0.000841717               0.002074271               0.001232554               0.000000000               0.000000000               0.000000000               0.000000000              -0.000170262               0.005099967              -0.000162455              -0.000701342               0.001933753               0.001232411               0.000000000               0.000000000               0.000000000               0.000000000               0.000010409               0.004909965              -0.000111705              -0.000609841               0.001839919               0.001230078               0.000000000               0.000000000               0.000000000               0.000000000               0.000092807               0.004805927              -0.000062958              -0.000565937               0.001790605               0.001224668               0.000000000               0.000000000               0.000000000               0.000000000               0.000099109               0.004783905              -0.000024775              -0.000560821               0.001781559               0.001220739               0.000000000               0.000000000               0.000000000               0.000000000               0.000070500               0.004819395              -0.000000508              -0.000575985               0.001798444               0.001222459               0.000000000               0.000000000               0.000000000               0.000000000               0.000052266               0.004852297               0.000006389              -0.000586936               0.001813061               0.001226126               0.000000000               0.000000000               0.000000000               0.000000000              -0.002933511               0.003843957              -0.000717398              -0.001580558               0.001808158               0.000227601               0.000000000               0.000000000               0.000000000               0.000000000              -0.003917114               0.005751250              -0.001142996              -0.002187819               0.002646337               0.000458518               0.000000000               0.000000000               0.000000000               0.000000000              -0.004793605               0.007576323              -0.001379896              -0.002744635               0.003440294               0.000695659               0.000000000               0.000000000               0.000000000               0.000000000              -0.004459656               0.007907718              -0.001224851              -0.002660829               0.003522823               0.000861993               0.000000000               0.000000000               0.000000000               0.000000000              -0.003828536               0.007747177              -0.001040482              -0.002404092               0.003383731               0.000979638               0.000000000               0.000000000               0.000000000               0.000000000              -0.003140752               0.007423693              -0.000888185              -0.002105739               0.003176452               0.001070714               0.000000000               0.000000000               0.000000000               0.000000000              -0.002476130               0.007055063              -0.000767834              -0.001810427               0.002955140               0.001144712               0.000000000               0.000000000               0.000000000               0.000000000              -0.001863976               0.006674321              -0.000664978              -0.001533277               0.002735844               0.001202566               0.000000000               0.000000000               0.000000000               0.000000000              -0.001320896               0.006295117              -0.000579299              -0.001282222               0.002525759               0.001243536               0.000000000               0.000000000               0.000000000               0.000000000              -0.000849901               0.005921563              -0.000510111              -0.001058906               0.002326803               0.001267898               0.000000000               0.000000000               0.000000000               0.000000000              -0.000451400               0.005572198              -0.000441811              -0.000865798               0.002145980               0.001280182               0.000000000               0.000000000               0.000000000               0.000000000              -0.000136570               0.005280631              -0.000356999              -0.000711291               0.001997290               0.001285999               0.000000000               0.000000000               0.000000000               0.000000000               0.000082499               0.005064620              -0.000258377              -0.000602139               0.001888903               0.001286764               0.000000000               0.000000000               0.000000000               0.000000000               0.000201323               0.004933764              -0.000159701              -0.000541223               0.001824979               0.001283756               0.000000000               0.000000000               0.000000000               0.000000000               0.000236092               0.004893578              -0.000077053              -0.000523161               0.001805564               0.001282402               0.000000000               0.000000000               0.000000000               0.000000000               0.000215834               0.004925792              -0.000023850              -0.000534785               0.001820176               0.001285391               0.000000000               0.000000000               0.000000000               0.000000000               0.000179726               0.004944456               0.000000112              -0.000550658               0.001831688               0.001281030               0.000000000               0.000000000               0.000000000               0.000000000              -0.004839517               0.002100440               0.000169018              -0.002077371               0.001392594              -0.000684776               0.000000000               0.000000000               0.000000000               0.000000000              -0.004880788               0.004233243              -0.000935245              -0.002359446               0.002197548              -0.000161898               0.000000000               0.000000000               0.000000000               0.000000000              -0.005194127               0.006254437              -0.001782539              -0.002729596               0.002994656               0.000265060               0.000000000               0.000000000               0.000000000               0.000000000              -0.004725073               0.006946397              -0.001783708              -0.002640196               0.003195507               0.000555312               0.000000000               0.000000000               0.000000000               0.000000000              -0.004045759               0.007094030              -0.001604508              -0.002403908               0.003165955               0.000762048               0.000000000               0.000000000               0.000000000               0.000000000              -0.003336445               0.007007191              -0.001410684              -0.002127061               0.003044727               0.000917666               0.000000000               0.000000000               0.000000000               0.000000000              -0.002653074               0.006828018              -0.001235318              -0.001848401               0.002892116               0.001043716               0.000000000               0.000000000               0.000000000               0.000000000              -0.002018391               0.006603059              -0.001077289              -0.001582275               0.002728422               0.001146147               0.000000000               0.000000000               0.000000000               0.000000000              -0.001444021               0.006347592              -0.000941446              -0.001334954               0.002560827               0.001225873               0.000000000               0.000000000               0.000000000               0.000000000              -0.000936233               0.006062768              -0.000831594              -0.001108931               0.002390546               0.001281615               0.000000000               0.000000000               0.000000000               0.000000000              -0.000492265               0.005764242              -0.000730743              -0.000905128               0.002223104               0.001317976               0.000000000               0.000000000               0.000000000               0.000000000              -0.000112454               0.005485021              -0.000616449              -0.000727796               0.002070921               0.001343124               0.000000000               0.000000000               0.000000000               0.000000000               0.000190161               0.005252166              -0.000482566              -0.000585209               0.001945774               0.001360565               0.000000000               0.000000000               0.000000000               0.000000000               0.000394331               0.005082009              -0.000337128              -0.000487376               0.001856445               0.001369069               0.000000000               0.000000000               0.000000000               0.000000000               0.000494522               0.004987864              -0.000201443              -0.000438036               0.001808617               0.001370581               0.000000000               0.000000000               0.000000000               0.000000000               0.000500786               0.004968106              -0.000089296              -0.000433217               0.001800425               0.001367207               0.000000000               0.000000000               0.000000000               0.000000000               0.000453297               0.004954605              -0.000029248              -0.000449338               0.001801298               0.001351960               0.000000000               0.000000000               0.000000000               0.000000000              -0.007002912               0.000701480               0.000922138              -0.002713774               0.001138410              -0.001575364               0.000000000               0.000000000               0.000000000               0.000000000              -0.005991479               0.002805322              -0.000668290              -0.002597465               0.001800917              -0.000796549               0.000000000               0.000000000               0.000000000               0.000000000              -0.005539121               0.004744847              -0.001987486              -0.002670271               0.002471689              -0.000198582               0.000000000               0.000000000               0.000000000               0.000000000              -0.004851691               0.005681745              -0.002178764              -0.002529597               0.002737094               0.000207498               0.000000000               0.000000000               0.000000000               0.000000000              -0.004117040               0.006111884              -0.002054995              -0.002307870               0.002806564               0.000498694               0.000000000               0.000000000               0.000000000               0.000000000              -0.003396886               0.006278073              -0.001856798              -0.002058587               0.002778865               0.000720278               0.000000000               0.000000000               0.000000000               0.000000000              -0.002709741               0.006313474              -0.001653660              -0.001805333               0.002706247               0.000900914               0.000000000               0.000000000               0.000000000               0.000000000              -0.002064307               0.006265110              -0.001460456              -0.001557251               0.002607432               0.001050182               0.000000000               0.000000000               0.000000000               0.000000000              -0.001469308               0.006153932              -0.001291059              -0.001320229               0.002491366               0.001171137               0.000000000               0.000000000               0.000000000               0.000000000              -0.000928043               0.005997466              -0.001149309              -0.001097697               0.002365034               0.001267337               0.000000000               0.000000000               0.000000000               0.000000000              -0.000440567               0.005802422              -0.001022176              -0.000890513               0.002230959               0.001340445               0.000000000               0.000000000               0.000000000               0.000000000              -0.000004930               0.005583762              -0.000887797              -0.000699817               0.002094508               0.001394690               0.000000000               0.000000000               0.000000000               0.000000000               0.000373904               0.005374437              -0.000730081              -0.000531590               0.001968658               0.001437068               0.000000000               0.000000000               0.000000000               0.000000000               0.000675026               0.005198924              -0.000548144              -0.000396730               0.001865201               0.001468471               0.000000000               0.000000000               0.000000000               0.000000000               0.000878808               0.005080428              -0.000361870              -0.000305500               0.001795292               0.001489792               0.000000000               0.000000000               0.000000000               0.000000000               0.000967205               0.005021029              -0.000181531              -0.000264926               0.001761968               0.001497042               0.000000000               0.000000000               0.000000000               0.000000000               0.000957064               0.004989245              -0.000085826              -0.000264756               0.001751317               0.001486561               0.000000000               0.000000000               0.000000000               0.000000000              -0.009271687              -0.000283643               0.001426932              -0.003441424               0.001052586              -0.002388838               0.000000000               0.000000000               0.000000000               0.000000000              -0.007177768               0.001544886              -0.000384955              -0.002884770               0.001476542              -0.001408228               0.000000000               0.000000000               0.000000000               0.000000000              -0.005848852               0.003175743              -0.001964761              -0.002590283               0.001921995              -0.000668288               0.000000000               0.000000000               0.000000000               0.000000000              -0.004861386               0.004225679              -0.002319696              -0.002351225               0.002192286              -0.000158939               0.000000000               0.000000000               0.000000000               0.000000000              -0.004039197               0.004879512              -0.002276247              -0.002124633               0.002334698               0.000210065               0.000000000               0.000000000               0.000000000               0.000000000              -0.003298723               0.005278560              -0.002111960              -0.001896837               0.002391781               0.000494944               0.000000000               0.000000000               0.000000000               0.000000000              -0.002617667               0.005519874              -0.001916598              -0.001671606               0.002397141               0.000725535               0.000000000               0.000000000               0.000000000               0.000000000              -0.001973192               0.005657772              -0.001720072              -0.001447166               0.002368293               0.000921128               0.000000000               0.000000000               0.000000000               0.000000000              -0.001370548               0.005713582              -0.001540187              -0.001228151               0.002313891               0.001085741               0.000000000               0.000000000               0.000000000               0.000000000              -0.000807788               0.005703614              -0.001386696              -0.001015870               0.002239809               0.001223939               0.000000000               0.000000000               0.000000000               0.000000000              -0.000282292               0.005635372              -0.001247529              -0.000810279               0.002148531               0.001338252               0.000000000               0.000000000               0.000000000               0.000000000               0.000208119               0.005521101              -0.001103425              -0.000612092               0.002044379               0.001432287               0.000000000               0.000000000               0.000000000               0.000000000               0.000660201               0.005383474              -0.000934484              -0.000425358               0.001936259               0.001510901               0.000000000               0.000000000               0.000000000               0.000000000               0.001064239               0.005245258              -0.000734577              -0.000256567               0.001833924               0.001577357               0.000000000               0.000000000               0.000000000               0.000000000               0.001400314               0.005132831              -0.000514434              -0.000116486               0.001749755               0.001633269               0.000000000               0.000000000               0.000000000               0.000000000               0.001635353               0.005054723              -0.000271491              -0.000018584               0.001691086               0.001672502               0.000000000               0.000000000               0.000000000               0.000000000               0.001731055               0.005026692              -0.000146211               0.000020808               0.001668611               0.001689420               0.000000000               0.000000000               0.000000000               0.000000000              -0.011435394              -0.000888581               0.001583110              -0.004177197               0.001096197              -0.003081000               0.000000000               0.000000000               0.000000000               0.000000000              -0.008341732               0.000522468              -0.000144250              -0.003193455               0.001238632              -0.001954823               0.000000000               0.000000000               0.000000000               0.000000000              -0.006126312               0.001716453              -0.001705991              -0.002511920               0.001409447              -0.001102473               0.000000000               0.000000000               0.000000000               0.000000000              -0.004791233               0.002753008              -0.002146101              -0.002140835               0.001631269              -0.000509566               0.000000000               0.000000000               0.000000000               0.000000000              -0.003842080               0.003543835              -0.002180148              -0.001883756               0.001809184              -0.000074572               0.000000000               0.000000000               0.000000000               0.000000000              -0.003070266               0.004126314              -0.002067641              -0.001667136               0.001931135               0.000264000               0.000000000               0.000000000               0.000000000               0.000000000              -0.002389131               0.004552826              -0.001908042              -0.001465025               0.002005934               0.000540910               0.000000000               0.000000000               0.000000000               0.000000000              -0.001752288               0.004869094              -0.001737666              -0.001265742               0.002044929               0.000779186               0.000000000               0.000000000               0.000000000               0.000000000              -0.001147233               0.005082412              -0.001574673              -0.001065512               0.002049291               0.000983779               0.000000000               0.000000000               0.000000000               0.000000000              -0.000571765               0.005209986              -0.001433794              -0.000865659               0.002025197               0.001159538               0.000000000               0.000000000               0.000000000               0.000000000              -0.000019902               0.005273061              -0.001305522              -0.000666595               0.001979868               0.001313273               0.000000000               0.000000000               0.000000000               0.000000000               0.000516336               0.005284863              -0.001171377              -0.000466981               0.001917264               0.001450282               0.000000000               0.000000000               0.000000000               0.000000000               0.001041399               0.005250934              -0.001013957              -0.000265842               0.001838908               0.001573066               0.000000000               0.000000000               0.000000000               0.000000000               0.001554684               0.005188218              -0.000822751              -0.000065521               0.001751229               0.001685708               0.000000000               0.000000000               0.000000000               0.000000000               0.002037820               0.005119382              -0.000594051               0.000124258               0.001665024               0.001789282               0.000000000               0.000000000               0.000000000               0.000000000               0.002464401               0.005055319              -0.000321416               0.000292233               0.001587679               0.001879911               0.000000000               0.000000000               0.000000000               0.000000000               0.002720087               0.005050603              -0.000186208               0.000388703               0.001553950               0.001942653               0.000000000               0.000000000               0.000000000               0.000000000              -0.013233216              -0.001182906               0.001352466              -0.004814590               0.001210553              -0.003604037               0.000000000               0.000000000               0.000000000               0.000000000              -0.009343988              -0.000207543               0.000003632              -0.003478050               0.001090161              -0.002387888               0.000000000               0.000000000               0.000000000               0.000000000              -0.006369124               0.000532971              -0.001248019              -0.002455041               0.000995997              -0.001459044               0.000000000               0.000000000               0.000000000               0.000000000              -0.004697146               0.001478181              -0.001648683              -0.001946200               0.001141452              -0.000804748               0.000000000               0.000000000               0.000000000               0.000000000              -0.003604240               0.002327532              -0.001721946              -0.001642529               0.001323344              -0.000319185               0.000000000               0.000000000               0.000000000               0.000000000              -0.002784636               0.003028835              -0.001663404              -0.001422840               0.001483881               0.000061041               0.000000000               0.000000000               0.000000000               0.000000000              -0.002094051               0.003594366              -0.001555525              -0.001234563               0.001609630               0.000375068               0.000000000               0.000000000               0.000000000               0.000000000              -0.001463762               0.004042859              -0.001432599              -0.001054266               0.001699028               0.000644762               0.000000000               0.000000000               0.000000000               0.000000000              -0.000860983               0.004382864              -0.001310023              -0.000870725               0.001751181               0.000880456               0.000000000               0.000000000               0.000000000               0.000000000              -0.000277090               0.004636832              -0.001200474              -0.000683511               0.001773432               0.001089921               0.000000000               0.000000000               0.000000000               0.000000000               0.000291408               0.004822956              -0.001101082              -0.000493591               0.001772166               0.001278575               0.000000000               0.000000000               0.000000000               0.000000000               0.000859889               0.004948478              -0.001003228              -0.000296101               0.001748177               0.001452075               0.000000000               0.000000000               0.000000000               0.000000000               0.001445892               0.005018395              -0.000888920              -0.000085091               0.001701145               0.001616055               0.000000000               0.000000000               0.000000000               0.000000000               0.002051463               0.005047309              -0.000737430               0.000138383               0.001636292               0.001774675               0.000000000               0.000000000               0.000000000               0.000000000               0.002675543               0.005049080              -0.000542216               0.000372190               0.001558946               0.001931136               0.000000000               0.000000000               0.000000000               0.000000000               0.003315022               0.005030920              -0.000297768               0.000614262               0.001472203               0.002086465               0.000000000               0.000000000               0.000000000               0.000000000               0.003758568               0.005063369              -0.000178892               0.000776534               0.001428928               0.002205462               0.000000000               0.000000000               0.000000000               0.000000000              -0.014422869              -0.001286678               0.000776495              -0.005247738               0.001320344              -0.003927394               0.000000000               0.000000000               0.000000000               0.000000000              -0.010021912              -0.000633022               0.000040831              -0.003679087               0.001015348              -0.002663739               0.000000000               0.000000000               0.000000000               0.000000000              -0.006542527              -0.000234387              -0.000653787              -0.002424147               0.000729915              -0.001694232               0.000000000               0.000000000               0.000000000               0.000000000              -0.004626472               0.000611153              -0.000892376              -0.001811319               0.000807485              -0.001003834               0.000000000               0.000000000               0.000000000               0.000000000              -0.003412212               0.001473846              -0.000949367              -0.001463808               0.000979211              -0.000484597               0.000000000               0.000000000               0.000000000               0.000000000              -0.002541287               0.002233437              -0.000929719              -0.001232160               0.001155191              -0.000076969               0.000000000               0.000000000               0.000000000               0.000000000              -0.001838175               0.002873522              -0.000877054              -0.001048504               0.001307332               0.000258828               0.000000000               0.000000000               0.000000000               0.000000000              -0.001215175               0.003402693              -0.000812369              -0.000881025               0.001427895               0.000546869               0.000000000               0.000000000               0.000000000               0.000000000              -0.000624526               0.003832547              -0.000746106              -0.000713264               0.001515258               0.000801993               0.000000000               0.000000000               0.000000000               0.000000000              -0.000042208               0.004181352              -0.000685005              -0.000538496               0.001573269               0.001034773               0.000000000               0.000000000               0.000000000               0.000000000               0.000541161               0.004457398              -0.000630700              -0.000354239               0.001603864               0.001249625               0.000000000               0.000000000               0.000000000               0.000000000               0.001134764               0.004666728              -0.000584742              -0.000157804               0.001608162               0.001450357               0.000000000               0.000000000               0.000000000               0.000000000               0.001751938               0.004816891              -0.000528226               0.000054865               0.001587326               0.001642190               0.000000000               0.000000000               0.000000000               0.000000000               0.002415212               0.004919396              -0.000443112               0.000290777               0.001542857               0.001833634               0.000000000               0.000000000               0.000000000               0.000000000               0.003148577               0.004980609              -0.000332072               0.000558135               0.001474141               0.002032276               0.000000000               0.000000000               0.000000000               0.000000000               0.003968224               0.005002404              -0.000187073               0.000862775               0.001379860               0.002242635               0.000000000               0.000000000               0.000000000               0.000000000               0.004580990               0.005067465              -0.000115928               0.001084427               0.001327662               0.002412090               0.000000000               0.000000000               0.000000000               0.000000000               0.000000000               0.000000000               0.000000000               0.000000000               0.000000000               0.000000000               0.000000000               0.000000000               0.000000000               0.000000000               0.000000000               0.000000000               0.000000000               0.000000000               0.000000000               0.000000000               0.000000000               0.000000000               0.000000000               0.000000000               0.000000000               0.000000000               0.000000000               0.000000000               0.000000000               0.000000000               0.000000000               0.000000000               0.000000000               0.000000000               0.000000000               0.000000000               0.000000000               0.000000000               0.000000000               0.000000000               0.000000000               0.000000000               0.000000000               0.000000000               0.000000000               0.000000000               0.000000000               0.000000000               0.000000000               0.000000000               0.000000000               0.000000000               0.000000000               0.000000000               0.000000000               0.000000000               0.000000000               0.000000000               0.000000000               0.000000000               0.000000000               0.000000000               0.000000000               0.000000000               0.000000000               0.000000000               0.000000000               0.000000000               0.000000000               0.000000000               0.000000000               0.000000000               0.000000000               0.000000000               0.000000000               0.000000000               0.000000000               0.000000000               0.000000000               0.000000000               0.000000000               0.000000000               0.000000000               0.000000000               0.000000000               0.000000000               0.000000000               0.000000000               0.000000000               0.000000000               0.000000000               0.000000000               0.000000000               0.000000000               0.000000000               0.000000000               0.000000000               0.000000000               0.000000000               0.000000000               0.000000000               0.000000000               0.000000000               0.000000000               0.000000000               0.000000000               0.000000000               0.000000000               0.000000000               0.000000000               0.000000000               0.000000000               0.000000000               0.000000000               0.000000000               0.000000000               0.000000000               0.000000000               0.000000000               0.000000000               0.000000000               0.000000000               0.000000000               0.000000000               0.000000000               0.000000000               0.000000000               0.000000000               0.000000000               0.000000000               0.000000000               0.000000000               0.000000000               0.000000000               0.000000000               0.000000000               0.000000000               0.000000000               0.000000000               0.000000000               0.000000000               0.000000000               0.000000000               0.000000000               0.000000000               0.000000000               0.000000000               0.000000000               0.000000000               0.000000000               0.000000000               0.000000000               0.000000000               0.000000000               0.000000000               0.000000000               0.000000000               0.000000000               0.000000000               0.000000000               0.000000000               0.000000000               0.000000000               0.000000000               0.000000000               0.000000000               0.000000000               0.000000000               0.000000000               0.000000000               0.000000000               0.000000000               0.000000000               0.000000000               0.000000000               0.000000000               0.000000000               0.000000000               0.000000000               0.000000000               0.000000000               0.000000000               0.000000000               0.000000000               0.000000000               0.000000000               0.000000000               0.000000000               0.000000000               0.000000000               0.000000000               0.000000000               0.000000000               0.000000000               0.000000000               0.000000000               0.000000000               0.000000000               0.000000000               0.000000000               0.000000000               0.000000000               0.000000000               0.000000000               0.000000000               0.000000000               0.000000000               0.000000000               0.000000000               0.000000000               0.000000000               0.000000000               0.000000000               0.000000000               0.000000000               0.000000000               0.000000000               0.000000000               0.000000000               0.000000000               0.000000000               0.000000000               0.000000000               0.000000000               0.000000000               0.000000000               0.000000000               0.000000000               0.000000000               0.000000000               0.000000000               0.000000000               0.000000000               0.000000000               0.000000000               0.000000000               0.000000000               0.000000000               0.000000000               0.000000000               0.000000000               0.000000000               0.000000000               0.000000000               0.000000000               0.000000000               0.000000000               0.000000000               0.000000000               0.000000000               0.000000000               0.000000000               0.000000000               0.000000000               0.000000000               0.000000000               0.000000000               0.000000000               0.000000000               0.000000000               0.000000000               0.000000000               0.000000000               0.000000000               0.000000000               0.000000000               0.000000000               0.000000000               0.000000000               0.000000000               0.000000000               0.000000000               0.000000000               0.000000000               0.000000000               0.000000000               0.000000000               0.000000000               0.000000000               0.000000000               0.000000000               0.000000000               0.000000000               0.000000000               0.000000000               0.000000000               0.000000000               0.000000000               0.000000000               0.000000000               0.000000000               0.000000000               0.000000000               0.000000000               0.000000000               0.000000000               0.000000000               0.000000000               0.000000000               0.000000000               0.000000000               0.000000000               0.000000000               0.000000000               0.000000000               0.000000000               0.000000000               0.000000000               0.000000000               0.000000000               0.000000000               0.000000000               0.000000000               0.000000000               0.000000000               0.000000000               0.000000000               0.000000000               0.000000000               0.000000000               0.000000000               0.000000000               0.000000000               0.000000000               0.000000000               0.000000000               0.000000000               0.000000000               0.000000000               0.000000000               0.000000000               0.000000000               0.000000000               0.000000000               0.000000000               0.000000000               0.000000000               0.000000000               0.000000000               0.000000000               0.000000000               0.000000000               0.000000000               0.000000000               0.002229444               0.022281236               0.001484065              -0.001949108               0.008076707               0.006127599               0.000000000               0.000000000               0.000000000               0.000000000               0.002004796               0.017075007               0.000634284              -0.001382574               0.006152470               0.004769896               0.000000000               0.000000000               0.000000000               0.000000000               0.002457458               0.012896534              -0.000194328              -0.000690518               0.004528974               0.003838456               0.000000000               0.000000000               0.000000000               0.000000000               0.002211901               0.010523625              -0.000523532              -0.000485989               0.003669836               0.003183847               0.000000000               0.000000000               0.000000000               0.000000000               0.001804215               0.009004145              -0.000646483              -0.000448937               0.003150997               0.002702060               0.000000000               0.000000000               0.000000000               0.000000000               0.001390022               0.007925417              -0.000679508              -0.000469418               0.002798252               0.002328834               0.000000000               0.000000000               0.000000000               0.000000000               0.001016107               0.007083622              -0.000667579              -0.000504411               0.002529321               0.002024909               0.000000000               0.000000000               0.000000000               0.000000000               0.000698886               0.006365510              -0.000636806              -0.000533605               0.002299684               0.001766079               0.000000000               0.000000000               0.000000000               0.000000000               0.000439734               0.005710761              -0.000601963              -0.000548944               0.002086549               0.001537605               0.000000000               0.000000000               0.000000000               0.000000000               0.000233331               0.005088168              -0.000566086              -0.000548521               0.001878879               0.001330358               0.000000000               0.000000000               0.000000000               0.000000000               0.000070472               0.004476394              -0.000533235              -0.000533121               0.001669823               0.001136702               0.000000000               0.000000000               0.000000000               0.000000000              -0.000053855               0.003865570              -0.000497282              -0.000503391               0.001456307               0.000952917               0.000000000               0.000000000               0.000000000               0.000000000              -0.000136708               0.003235978              -0.000447896              -0.000455762               0.001230569               0.000774807               0.000000000               0.000000000               0.000000000               0.000000000              -0.000173451               0.002569859              -0.000381136              -0.000386276               0.000985369               0.000599094               0.000000000               0.000000000               0.000000000               0.000000000              -0.000159739               0.001855685              -0.000290148              -0.000291862               0.000715843               0.000423981               0.000000000               0.000000000               0.000000000               0.000000000              -0.000094243               0.001080150              -0.000164478              -0.000170360               0.000416833               0.000246473               0.000000000               0.000000000               0.000000000               0.000000000              -0.000111606               0.000501703              -0.000103645              -0.000104565               0.000202088               0.000097522               0.000000000               0.000000000               0.000000000               0.000000000               0.002348838               0.020844255               0.002736458              -0.001724715               0.007522920               0.005798206               0.000000000               0.000000000               0.000000000               0.000000000               0.001769500               0.016182928               0.001165972              -0.001359301               0.005847356               0.004488055               0.000000000               0.000000000               0.000000000               0.000000000               0.001844870               0.012557914              -0.000354634              -0.000877911               0.004478567               0.003600656               0.000000000               0.000000000               0.000000000               0.000000000               0.001474725               0.010469532              -0.000938403              -0.000755668               0.003741698               0.002986030               0.000000000               0.000000000               0.000000000               0.000000000               0.001057185               0.009097612              -0.001144012              -0.000740756               0.003279425               0.002538670               0.000000000               0.000000000               0.000000000               0.000000000               0.000685921               0.008087711              -0.001190615              -0.000753742               0.002947124               0.002193382               0.000000000               0.000000000               0.000000000               0.000000000               0.000384472               0.007270618              -0.001161884              -0.000764649               0.002678398               0.001913749               0.000000000               0.000000000               0.000000000               0.000000000               0.000155683               0.006558346              -0.001101815              -0.000761411               0.002439897               0.001678486               0.000000000               0.000000000               0.000000000               0.000000000              -0.000015808               0.005904879              -0.001035554              -0.000744036               0.002216285               0.001472249               0.000000000               0.000000000               0.000000000               0.000000000              -0.000141642               0.005285409              -0.000968167              -0.000713790               0.001999715               0.001285925               0.000000000               0.000000000               0.000000000               0.000000000              -0.000228595               0.004686538              -0.000905392              -0.000671539               0.001786010               0.001114471               0.000000000               0.000000000               0.000000000               0.000000000              -0.000280981               0.004096179              -0.000836987              -0.000617389               0.001571175               0.000953787               0.000000000               0.000000000               0.000000000               0.000000000              -0.000291768               0.003505487              -0.000742965              -0.000547598               0.001351016               0.000803419               0.000000000               0.000000000               0.000000000               0.000000000              -0.000263418               0.002908445              -0.000621505              -0.000462337               0.001123584               0.000661247               0.000000000               0.000000000               0.000000000               0.000000000              -0.000199701               0.002307021              -0.000466406              -0.000363265               0.000890087               0.000526823               0.000000000               0.000000000               0.000000000               0.000000000              -0.000106372               0.001707282              -0.000260146              -0.000253299               0.000653521               0.000400222               0.000000000               0.000000000               0.000000000               0.000000000              -0.000097506               0.001294932              -0.000157660              -0.000198431               0.000497783               0.000299352               0.000000000               0.000000000               0.000000000               0.000000000               0.002410946               0.018682851               0.003575760              -0.001431250               0.006704638               0.005273387               0.000000000               0.000000000               0.000000000               0.000000000               0.001347243               0.014859402               0.001514830              -0.001352206               0.005403820               0.004051613               0.000000000               0.000000000               0.000000000               0.000000000               0.000911100               0.012062209              -0.000452754              -0.001166111               0.004409400               0.003243289               0.000000000               0.000000000               0.000000000               0.000000000               0.000403259               0.010370730              -0.001160681              -0.001145117               0.003838581               0.002693464               0.000000000               0.000000000               0.000000000               0.000000000               0.000007533               0.009189361              -0.001386951              -0.001145843               0.003445037               0.002299194               0.000000000               0.000000000               0.000000000               0.000000000              -0.000272881               0.008268428              -0.001422054              -0.001135881               0.003134742               0.001998861               0.000000000               0.000000000               0.000000000               0.000000000              -0.000455870               0.007482922              -0.001373306              -0.001106314               0.002863054               0.001756739               0.000000000               0.000000000               0.000000000               0.000000000              -0.000557544               0.006778202              -0.001292997              -0.001056352               0.002611495               0.001555143               0.000000000               0.000000000               0.000000000               0.000000000              -0.000606012               0.006129291              -0.001205159              -0.000993414               0.002374214               0.001380800               0.000000000               0.000000000               0.000000000               0.000000000              -0.000616113               0.005519866              -0.001117982              -0.000921024               0.002146945               0.001225921               0.000000000               0.000000000               0.000000000               0.000000000              -0.000589955               0.004943247              -0.001034851              -0.000839137               0.001927445               0.001088307               0.000000000               0.000000000               0.000000000               0.000000000              -0.000533415               0.004387748              -0.000944626              -0.000748498               0.001712067               0.000963569               0.000000000               0.000000000               0.000000000               0.000000000              -0.000449145               0.003859429              -0.000826302              -0.000650857               0.001503416               0.000852559               0.000000000               0.000000000               0.000000000               0.000000000              -0.000342217               0.003364349              -0.000675461              -0.000548874               0.001304396               0.000755522               0.000000000               0.000000000               0.000000000               0.000000000              -0.000224854               0.002912354              -0.000490455              -0.000448364               0.001120229               0.000671866               0.000000000               0.000000000               0.000000000               0.000000000              -0.000111342               0.002527459              -0.000265437              -0.000357685               0.000961706               0.000604021               0.000000000               0.000000000               0.000000000               0.000000000              -0.000076388               0.002307570              -0.000152866              -0.000317091               0.000874879               0.000557788               0.000000000               0.000000000               0.000000000               0.000000000               0.002272508               0.016050772               0.003922166              -0.001154156               0.005734922               0.004580766               0.000000000               0.000000000               0.000000000               0.000000000               0.000717802               0.013284840               0.001668231              -0.001391427               0.004892044               0.003500618               0.000000000               0.000000000               0.000000000               0.000000000              -0.000236432               0.011473188              -0.000443836              -0.001522807               0.004331960               0.002809153               0.000000000               0.000000000               0.000000000               0.000000000              -0.000816177               0.010209161              -0.001141563              -0.001582208               0.003930422               0.002348214               0.000000000               0.000000000               0.000000000               0.000000000              -0.001122358               0.009219452              -0.001339050              -0.001573312               0.003597557               0.002024245               0.000000000               0.000000000               0.000000000               0.000000000              -0.001253750               0.008380093              -0.001352423              -0.001517664               0.003299224               0.001781560               0.000000000               0.000000000               0.000000000               0.000000000              -0.001277003               0.007626266              -0.001290462              -0.001432156               0.003019449               0.001587292               0.000000000               0.000000000               0.000000000               0.000000000              -0.001230636               0.006941645              -0.001200626              -0.001329191               0.002756922               0.001427731               0.000000000               0.000000000               0.000000000               0.000000000              -0.001139644               0.006310421              -0.001107769              -0.001216167               0.002508841               0.001292675               0.000000000               0.000000000               0.000000000               0.000000000              -0.001013242               0.005724374              -0.001018648              -0.001095510               0.002273275               0.001177765               0.000000000               0.000000000               0.000000000               0.000000000              -0.000860462               0.005178162              -0.000930558              -0.000969941               0.002049350               0.001079409               0.000000000               0.000000000               0.000000000               0.000000000              -0.000692510               0.004669520              -0.000834759              -0.000843380               0.001837618               0.000994238               0.000000000               0.000000000               0.000000000               0.000000000              -0.000520413               0.004213512              -0.000713822              -0.000721842               0.001645104               0.000923262               0.000000000               0.000000000               0.000000000               0.000000000              -0.000352224               0.003827589              -0.000558927              -0.000610531               0.001479360               0.000868829               0.000000000               0.000000000               0.000000000               0.000000000              -0.000201528               0.003522956              -0.000382597              -0.000515941               0.001346287               0.000830346               0.000000000               0.000000000               0.000000000               0.000000000              -0.000085478               0.003323414              -0.000196446              -0.000447480               0.001256954               0.000809474               0.000000000               0.000000000               0.000000000               0.000000000              -0.000039184               0.003249562              -0.000102886              -0.000420888               0.001223473               0.000802584               0.000000000               0.000000000               0.000000000               0.000000000               0.001825633               0.013218117               0.003799341              -0.000967653               0.004728545               0.003760892               0.000000000               0.000000000               0.000000000               0.000000000              -0.000094335               0.011625431               0.001670395              -0.001488552               0.004371289               0.002882737               0.000000000               0.000000000               0.000000000               0.000000000              -0.001450986               0.010827818              -0.000293540              -0.001897592               0.004241767               0.002344175               0.000000000               0.000000000               0.000000000               0.000000000              -0.001990413               0.009962735              -0.000888842              -0.001991742               0.003984792               0.001993051               0.000000000               0.000000000               0.000000000               0.000000000              -0.002130849               0.009138939              -0.001037960              -0.001941431               0.003693426               0.001751995               0.000000000               0.000000000               0.000000000               0.000000000              -0.002073732               0.008363879              -0.001036043              -0.001823130               0.003395642               0.001572512               0.000000000               0.000000000               0.000000000               0.000000000              -0.001918398               0.007644240              -0.000979648              -0.001674925               0.003106363               0.001431437               0.000000000               0.000000000               0.000000000               0.000000000              -0.001710197               0.006993072              -0.000903051              -0.001515454               0.002836152               0.001320698               0.000000000               0.000000000               0.000000000               0.000000000              -0.001472901               0.006394233              -0.000822540              -0.001351614               0.002581927               0.001230314               0.000000000               0.000000000               0.000000000               0.000000000              -0.001220073               0.005841453              -0.000744552              -0.001187706               0.002343033               0.001155327               0.000000000               0.000000000               0.000000000               0.000000000              -0.000961285               0.005336540              -0.000661688              -0.001027547               0.002121345               0.001093798               0.000000000               0.000000000               0.000000000               0.000000000              -0.000708899               0.004883826              -0.000571037              -0.000876313               0.001920030               0.001043717               0.000000000               0.000000000               0.000000000               0.000000000              -0.000479475               0.004501842              -0.000468275              -0.000742532               0.001748109               0.001005578               0.000000000               0.000000000               0.000000000               0.000000000              -0.000284246               0.004209752              -0.000341182              -0.000632810               0.001614173               0.000981364               0.000000000               0.000000000               0.000000000               0.000000000              -0.000135692               0.004015491              -0.000206668              -0.000552820               0.001522757               0.000969937               0.000000000               0.000000000               0.000000000               0.000000000              -0.000043712               0.003921751              -0.000092191              -0.000506610               0.001476107               0.000969498               0.000000000               0.000000000               0.000000000               0.000000000              -0.000008712               0.003909952              -0.000039971              -0.000492010               0.001467307               0.000975298               0.000000000               0.000000000               0.000000000               0.000000000               0.001014671               0.010439990               0.003301278              -0.000924497               0.003788127               0.002863630               0.000000000               0.000000000               0.000000000               0.000000000              -0.001040716               0.010017363               0.001578852              -0.001642436               0.003886566               0.002244130               0.000000000               0.000000000               0.000000000               0.000000000              -0.002592799               0.010145529              -0.000005322              -0.002240485               0.004128637               0.001888152               0.000000000               0.000000000               0.000000000               0.000000000              -0.002966931               0.009606066              -0.000458066              -0.002313352               0.003973107               0.001659756               0.000000000               0.000000000               0.000000000               0.000000000              -0.002887891               0.008912441              -0.000570677              -0.002197009               0.003703120               0.001506111               0.000000000               0.000000000               0.000000000               0.000000000              -0.002625011               0.008205531              -0.000576932              -0.002010066               0.003405172               0.001395106               0.000000000               0.000000000               0.000000000               0.000000000              -0.002290039               0.007541363              -0.000550342              -0.001801430               0.003114239               0.001312809               0.000000000               0.000000000               0.000000000               0.000000000              -0.001931781               0.006933844              -0.000505646              -0.001591144               0.002841640               0.001250495               0.000000000               0.000000000               0.000000000               0.000000000              -0.001567739               0.006372187              -0.000449810              -0.001384422               0.002585515               0.001201093               0.000000000               0.000000000               0.000000000               0.000000000              -0.001217135               0.005859852              -0.000392993              -0.001188904               0.002349566               0.001160662               0.000000000               0.000000000               0.000000000               0.000000000              -0.000894722               0.005400712              -0.000329870              -0.001010607               0.002137089               0.001126481               0.000000000               0.000000000               0.000000000               0.000000000              -0.000603660               0.005011635              -0.000264706              -0.000852825               0.001954803               0.001101978               0.000000000               0.000000000               0.000000000               0.000000000              -0.000360401               0.004705390              -0.000201189              -0.000723322               0.001809555               0.001086233               0.000000000               0.000000000               0.000000000               0.000000000              -0.000178720               0.004489852              -0.000129397              -0.000628250               0.001706019               0.001077769               0.000000000               0.000000000               0.000000000               0.000000000              -0.000064219               0.004366505              -0.000062596              -0.000569894               0.001645452               0.001075558               0.000000000               0.000000000               0.000000000               0.000000000              -0.000011316               0.004322743              -0.000021954              -0.000544585               0.001622428               0.001077843               0.000000000               0.000000000               0.000000000               0.000000000               0.000001859               0.004322466              -0.000009318              -0.000539610               0.001620678               0.001081068               0.000000000               0.000000000               0.000000000               0.000000000              -0.000111261               0.007901607               0.002544621              -0.001029423               0.002976983               0.001947560               0.000000000               0.000000000               0.000000000               0.000000000              -0.002064528               0.008556939               0.001441752              -0.001843811               0.003466888               0.001623077               0.000000000               0.000000000               0.000000000               0.000000000              -0.003559022               0.009425972               0.000398912              -0.002512873               0.003979584               0.001466710               0.000000000               0.000000000               0.000000000               0.000000000              -0.003661071               0.009127498               0.000075114              -0.002513832               0.003880413               0.001366581               0.000000000               0.000000000               0.000000000               0.000000000              -0.003330502               0.008550025              -0.000039699              -0.002317686               0.003622542               0.001304856               0.000000000               0.000000000               0.000000000               0.000000000              -0.002869440               0.007927459              -0.000082314              -0.002066967               0.003331449               0.001264482               0.000000000               0.000000000               0.000000000               0.000000000              -0.002376197               0.007330881              -0.000098747              -0.001807430               0.003046079               0.001238650               0.000000000               0.000000000               0.000000000               0.000000000              -0.001897962               0.006768108              -0.000095786              -0.001557746               0.002775262               0.001217516               0.000000000               0.000000000               0.000000000               0.000000000              -0.001445453               0.006248389              -0.000076616              -0.001323090               0.002523806               0.001200715               0.000000000               0.000000000               0.000000000               0.000000000              -0.001035378               0.005781357              -0.000054879              -0.001110934               0.002297411               0.001186477               0.000000000               0.000000000               0.000000000               0.000000000              -0.000683781               0.005375234              -0.000033063              -0.000928320               0.002101167               0.001172847               0.000000000               0.000000000               0.000000000               0.000000000              -0.000396698               0.005051830              -0.000016701              -0.000780239               0.001944006               0.001163767               0.000000000               0.000000000               0.000000000               0.000000000              -0.000185773               0.004818114              -0.000009589              -0.000671928               0.001829998               0.001158070               0.000000000               0.000000000               0.000000000               0.000000000              -0.000052595               0.004674421              -0.000001709              -0.000604024               0.001759466               0.001155442               0.000000000               0.000000000               0.000000000               0.000000000               0.000004367               0.004612665               0.000003724              -0.000574944               0.001729188               0.001154244               0.000000000               0.000000000               0.000000000               0.000000000               0.000011163               0.004611335               0.000000652              -0.000572229               0.001727839               0.001155610               0.000000000               0.000000000               0.000000000               0.000000000               0.000007902               0.004629021              -0.000000673              -0.000575663               0.001734879               0.001159216               0.000000000               0.000000000               0.000000000               0.000000000              -0.001421968               0.005785236               0.001647453              -0.001256390               0.002347189               0.001090799               0.000000000               0.000000000               0.000000000               0.000000000              -0.003064500               0.007256489               0.001296959              -0.002056244               0.003104220               0.001047976               0.000000000               0.000000000               0.000000000               0.000000000              -0.004319473               0.008686439               0.000879362              -0.002705601               0.003797318               0.001091717               0.000000000               0.000000000               0.000000000               0.000000000              -0.004138338               0.008636029               0.000636497              -0.002631374               0.003755772               0.001124398               0.000000000               0.000000000               0.000000000               0.000000000              -0.003593022               0.008204788               0.000486210              -0.002372976               0.003525894               0.001152918               0.000000000               0.000000000               0.000000000               0.000000000              -0.002970992               0.007682358               0.000389600              -0.002074412               0.003252231               0.001177819               0.000000000               0.000000000               0.000000000               0.000000000              -0.002354312               0.007160891               0.000326738              -0.001777974               0.002979598               0.001201624               0.000000000               0.000000000               0.000000000               0.000000000              -0.001781251               0.006652754               0.000280869              -0.001499560               0.002717416               0.001217856               0.000000000               0.000000000               0.000000000               0.000000000              -0.001266705               0.006177645               0.000250729              -0.001247217               0.002474933               0.001227717               0.000000000               0.000000000               0.000000000               0.000000000              -0.000819096               0.005749075               0.000226959              -0.001025793               0.002258270               0.001232477               0.000000000               0.000000000               0.000000000               0.000000000              -0.000450868               0.005381149               0.000200780              -0.000841717               0.002074271               0.001232554               0.000000000               0.000000000               0.000000000               0.000000000              -0.000170262               0.005099967               0.000162455              -0.000701342               0.001933753               0.001232411               0.000000000               0.000000000               0.000000000               0.000000000               0.000010409               0.004909965               0.000111705              -0.000609841               0.001839919               0.001230078               0.000000000               0.000000000               0.000000000               0.000000000               0.000092807               0.004805927               0.000062958              -0.000565937               0.001790605               0.001224668               0.000000000               0.000000000               0.000000000               0.000000000               0.000099109               0.004783905               0.000024775              -0.000560821               0.001781559               0.001220739               0.000000000               0.000000000               0.000000000               0.000000000               0.000070500               0.004819395               0.000000508              -0.000575985               0.001798444               0.001222459               0.000000000               0.000000000               0.000000000               0.000000000               0.000052266               0.004852297              -0.000006389              -0.000586936               0.001813061               0.001226126               0.000000000               0.000000000               0.000000000               0.000000000              -0.002933511               0.003843957               0.000717398              -0.001580558               0.001808158               0.000227601               0.000000000               0.000000000               0.000000000               0.000000000              -0.003917114               0.005751250               0.001142996              -0.002187819               0.002646337               0.000458518               0.000000000               0.000000000               0.000000000               0.000000000              -0.004793605               0.007576323               0.001379896              -0.002744635               0.003440294               0.000695659               0.000000000               0.000000000               0.000000000               0.000000000              -0.004459656               0.007907718               0.001224851              -0.002660829               0.003522823               0.000861993               0.000000000               0.000000000               0.000000000               0.000000000              -0.003828536               0.007747177               0.001040482              -0.002404092               0.003383731               0.000979638               0.000000000               0.000000000               0.000000000               0.000000000              -0.003140752               0.007423693               0.000888185              -0.002105739               0.003176452               0.001070714               0.000000000               0.000000000               0.000000000               0.000000000              -0.002476130               0.007055063               0.000767834              -0.001810427               0.002955140               0.001144712               0.000000000               0.000000000               0.000000000               0.000000000              -0.001863976               0.006674321               0.000664978              -0.001533277               0.002735844               0.001202566               0.000000000               0.000000000               0.000000000               0.000000000              -0.001320896               0.006295117               0.000579299              -0.001282222               0.002525759               0.001243536               0.000000000               0.000000000               0.000000000               0.000000000              -0.000849901               0.005921563               0.000510111              -0.001058906               0.002326803               0.001267898               0.000000000               0.000000000               0.000000000               0.000000000              -0.000451400               0.005572198               0.000441811              -0.000865798               0.002145980               0.001280182               0.000000000               0.000000000               0.000000000               0.000000000              -0.000136570               0.005280631               0.000356999              -0.000711291               0.001997290               0.001285999               0.000000000               0.000000000               0.000000000               0.000000000               0.000082499               0.005064620               0.000258377              -0.000602139               0.001888903               0.001286764               0.000000000               0.000000000               0.000000000               0.000000000               0.000201323               0.004933764               0.000159701              -0.000541223               0.001824979               0.001283756               0.000000000               0.000000000               0.000000000               0.000000000               0.000236092               0.004893578               0.000077053              -0.000523161               0.001805564               0.001282402               0.000000000               0.000000000               0.000000000               0.000000000               0.000215834               0.004925792               0.000023850              -0.000534785               0.001820176               0.001285391               0.000000000               0.000000000               0.000000000               0.000000000               0.000179726               0.004944456              -0.000000112              -0.000550658               0.001831688               0.001281030               0.000000000               0.000000000               0.000000000               0.000000000              -0.004839517               0.002100440              -0.000169018              -0.002077371               0.001392594              -0.000684776               0.000000000               0.000000000               0.000000000               0.000000000              -0.004880788               0.004233243               0.000935245              -0.002359446               0.002197548              -0.000161898               0.000000000               0.000000000               0.000000000               0.000000000              -0.005194127               0.006254437               0.001782539              -0.002729596               0.002994656               0.000265060               0.000000000               0.000000000               0.000000000               0.000000000              -0.004725073               0.006946397               0.001783708              -0.002640196               0.003195507               0.000555312               0.000000000               0.000000000               0.000000000               0.000000000              -0.004045759               0.007094030               0.001604508              -0.002403908               0.003165955               0.000762048               0.000000000               0.000000000               0.000000000               0.000000000              -0.003336445               0.007007191               0.001410684              -0.002127061               0.003044727               0.000917666               0.000000000               0.000000000               0.000000000               0.000000000              -0.002653074               0.006828018               0.001235318              -0.001848401               0.002892116               0.001043716               0.000000000               0.000000000               0.000000000               0.000000000              -0.002018391               0.006603059               0.001077289              -0.001582275               0.002728422               0.001146147               0.000000000               0.000000000               0.000000000               0.000000000              -0.001444021               0.006347592               0.000941446              -0.001334954               0.002560827               0.001225873               0.000000000               0.000000000               0.000000000               0.000000000              -0.000936233               0.006062768               0.000831594              -0.001108931               0.002390546               0.001281615               0.000000000               0.000000000               0.000000000               0.000000000              -0.000492265               0.005764242               0.000730743              -0.000905128               0.002223104               0.001317976               0.000000000               0.000000000               0.000000000               0.000000000              -0.000112454               0.005485021               0.000616449              -0.000727796               0.002070921               0.001343124               0.000000000               0.000000000               0.000000000               0.000000000               0.000190161               0.005252166               0.000482566              -0.000585209               0.001945774               0.001360565               0.000000000               0.000000000               0.000000000               0.000000000               0.000394331               0.005082009               0.000337128              -0.000487376               0.001856445               0.001369069               0.000000000               0.000000000               0.000000000               0.000000000               0.000494522               0.004987864               0.000201443              -0.000438036               0.001808617               0.001370581               0.000000000               0.000000000               0.000000000               0.000000000               0.000500786               0.004968106               0.000089296              -0.000433217               0.001800425               0.001367207               0.000000000               0.000000000               0.000000000               0.000000000               0.000453297               0.004954605               0.000029248              -0.000449338               0.001801298               0.001351960               0.000000000               0.000000000               0.000000000               0.000000000              -0.007002912               0.000701480              -0.000922138              -0.002713774               0.001138410              -0.001575364               0.000000000               0.000000000               0.000000000               0.000000000              -0.005991479               0.002805322               0.000668290              -0.002597465               0.001800917              -0.000796549               0.000000000               0.000000000               0.000000000               0.000000000              -0.005539121               0.004744847               0.001987486              -0.002670271               0.002471689              -0.000198582               0.000000000               0.000000000               0.000000000               0.000000000              -0.004851691               0.005681745               0.002178764              -0.002529597               0.002737094               0.000207498               0.000000000               0.000000000               0.000000000               0.000000000              -0.004117040               0.006111884               0.002054995              -0.002307870               0.002806564               0.000498694               0.000000000               0.000000000               0.000000000               0.000000000              -0.003396886               0.006278073               0.001856798              -0.002058587               0.002778865               0.000720278               0.000000000               0.000000000               0.000000000               0.000000000              -0.002709741               0.006313474               0.001653660              -0.001805333               0.002706247               0.000900914               0.000000000               0.000000000               0.000000000               0.000000000              -0.002064307               0.006265110               0.001460456              -0.001557251               0.002607432               0.001050182               0.000000000               0.000000000               0.000000000               0.000000000              -0.001469308               0.006153932               0.001291059              -0.001320229               0.002491366               0.001171137               0.000000000               0.000000000               0.000000000               0.000000000              -0.000928043               0.005997466               0.001149309              -0.001097697               0.002365034               0.001267337               0.000000000               0.000000000               0.000000000               0.000000000              -0.000440567               0.005802422               0.001022176              -0.000890513               0.002230959               0.001340445               0.000000000               0.000000000               0.000000000               0.000000000              -0.000004930               0.005583762               0.000887797              -0.000699817               0.002094508               0.001394690               0.000000000               0.000000000               0.000000000               0.000000000               0.000373904               0.005374437               0.000730081              -0.000531590               0.001968658               0.001437068               0.000000000               0.000000000               0.000000000               0.000000000               0.000675026               0.005198924               0.000548144              -0.000396730               0.001865201               0.001468471               0.000000000               0.000000000               0.000000000               0.000000000               0.000878808               0.005080428               0.000361870              -0.000305500               0.001795292               0.001489792               0.000000000               0.000000000               0.000000000               0.000000000               0.000967205               0.005021029               0.000181531              -0.000264926               0.001761968               0.001497042               0.000000000               0.000000000               0.000000000               0.000000000               0.000957064               0.004989245               0.000085826              -0.000264756               0.001751317               0.001486561               0.000000000               0.000000000               0.000000000               0.000000000              -0.009271687              -0.000283643              -0.001426932              -0.003441424               0.001052586              -0.002388838               0.000000000               0.000000000               0.000000000               0.000000000              -0.007177768               0.001544886               0.000384955              -0.002884770               0.001476542              -0.001408228               0.000000000               0.000000000               0.000000000               0.000000000              -0.005848852               0.003175743               0.001964761              -0.002590283               0.001921995              -0.000668288               0.000000000               0.000000000               0.000000000               0.000000000              -0.004861386               0.004225679               0.002319696              -0.002351225               0.002192286              -0.000158939               0.000000000               0.000000000               0.000000000               0.000000000              -0.004039197               0.004879512               0.002276247              -0.002124633               0.002334698               0.000210065               0.000000000               0.000000000               0.000000000               0.000000000              -0.003298723               0.005278560               0.002111960              -0.001896837               0.002391781               0.000494944               0.000000000               0.000000000               0.000000000               0.000000000              -0.002617667               0.005519874               0.001916598              -0.001671606               0.002397141               0.000725535               0.000000000               0.000000000               0.000000000               0.000000000              -0.001973192               0.005657772               0.001720072              -0.001447166               0.002368293               0.000921128               0.000000000               0.000000000               0.000000000               0.000000000              -0.001370548               0.005713582               0.001540187              -0.001228151               0.002313891               0.001085741               0.000000000               0.000000000               0.000000000               0.000000000              -0.000807788               0.005703614               0.001386696              -0.001015870               0.002239809               0.001223939               0.000000000               0.000000000               0.000000000               0.000000000              -0.000282292               0.005635372               0.001247529              -0.000810279               0.002148531               0.001338252               0.000000000               0.000000000               0.000000000               0.000000000               0.000208119               0.005521101               0.001103425              -0.000612092               0.002044379               0.001432287               0.000000000               0.000000000               0.000000000               0.000000000               0.000660201               0.005383474               0.000934484              -0.000425358               0.001936259               0.001510901               0.000000000               0.000000000               0.000000000               0.000000000               0.001064239               0.005245258               0.000734577              -0.000256567               0.001833924               0.001577357               0.000000000               0.000000000               0.000000000               0.000000000               0.001400314               0.005132831               0.000514434              -0.000116486               0.001749755               0.001633269               0.000000000               0.000000000               0.000000000               0.000000000               0.001635353               0.005054723               0.000271491              -0.000018584               0.001691086               0.001672502               0.000000000               0.000000000               0.000000000               0.000000000               0.001731055               0.005026692               0.000146211               0.000020808               0.001668611               0.001689420               0.000000000               0.000000000               0.000000000               0.000000000              -0.011435394              -0.000888581              -0.001583110              -0.004177197               0.001096197              -0.003081000               0.000000000               0.000000000               0.000000000               0.000000000              -0.008341732               0.000522468               0.000144250              -0.003193455               0.001238632              -0.001954823               0.000000000               0.000000000               0.000000000               0.000000000              -0.006126312               0.001716453               0.001705991              -0.002511920               0.001409447              -0.001102473               0.000000000               0.000000000               0.000000000               0.000000000              -0.004791233               0.002753008               0.002146101              -0.002140835               0.001631269              -0.000509566               0.000000000               0.000000000               0.000000000               0.000000000              -0.003842080               0.003543835               0.002180148              -0.001883756               0.001809184              -0.000074572               0.000000000               0.000000000               0.000000000               0.000000000              -0.003070266               0.004126314               0.002067641              -0.001667136               0.001931135               0.000264000               0.000000000               0.000000000               0.000000000               0.000000000              -0.002389131               0.004552826               0.001908042              -0.001465025               0.002005934               0.000540910               0.000000000               0.000000000               0.000000000               0.000000000              -0.001752288               0.004869094               0.001737666              -0.001265742               0.002044929               0.000779186               0.000000000               0.000000000               0.000000000               0.000000000              -0.001147233               0.005082412               0.001574673              -0.001065512               0.002049291               0.000983779               0.000000000               0.000000000               0.000000000               0.000000000              -0.000571765               0.005209986               0.001433794              -0.000865659               0.002025197               0.001159538               0.000000000               0.000000000               0.000000000               0.000000000              -0.000019902               0.005273061               0.001305522              -0.000666595               0.001979868               0.001313273               0.000000000               0.000000000               0.000000000               0.000000000               0.000516336               0.005284863               0.001171377              -0.000466981               0.001917264               0.001450282               0.000000000               0.000000000               0.000000000               0.000000000               0.001041399               0.005250934               0.001013957              -0.000265842               0.001838908               0.001573066               0.000000000               0.000000000               0.000000000               0.000000000               0.001554684               0.005188218               0.000822751              -0.000065521               0.001751229               0.001685708               0.000000000               0.000000000               0.000000000               0.000000000               0.002037820               0.005119382               0.000594051               0.000124258               0.001665024               0.001789282               0.000000000               0.000000000               0.000000000               0.000000000               0.002464401               0.005055319               0.000321416               0.000292233               0.001587679               0.001879911               0.000000000               0.000000000               0.000000000               0.000000000               0.002720087               0.005050603               0.000186208               0.000388703               0.001553950               0.001942653               0.000000000               0.000000000               0.000000000               0.000000000              -0.013233216              -0.001182906              -0.001352466              -0.004814590               0.001210553              -0.003604037               0.000000000               0.000000000               0.000000000               0.000000000              -0.009343988              -0.000207543              -0.000003632              -0.003478050               0.001090161              -0.002387888               0.000000000               0.000000000               0.000000000               0.000000000              -0.006369124               0.000532971               0.001248019              -0.002455041               0.000995997              -0.001459044               0.000000000               0.000000000               0.000000000               0.000000000              -0.004697146               0.001478181               0.001648683              -0.001946200               0.001141452              -0.000804748               0.000000000               0.000000000               0.000000000               0.000000000              -0.003604240               0.002327532               0.001721946              -0.001642529               0.001323344              -0.000319185               0.000000000               0.000000000               0.000000000               0.000000000              -0.002784636               0.003028835               0.001663404              -0.001422840               0.001483881               0.000061041               0.000000000               0.000000000               0.000000000               0.000000000              -0.002094051               0.003594366               0.001555525              -0.001234563               0.001609630               0.000375068               0.000000000               0.000000000               0.000000000               0.000000000              -0.001463762               0.004042859               0.001432599              -0.001054266               0.001699028               0.000644762               0.000000000               0.000000000               0.000000000               0.000000000              -0.000860983               0.004382864               0.001310023              -0.000870725               0.001751181               0.000880456               0.000000000               0.000000000               0.000000000               0.000000000              -0.000277090               0.004636832               0.001200474              -0.000683511               0.001773432               0.001089921               0.000000000               0.000000000               0.000000000               0.000000000               0.000291408               0.004822956               0.001101082              -0.000493591               0.001772166               0.001278575               0.000000000               0.000000000               0.000000000               0.000000000               0.000859889               0.004948478               0.001003228              -0.000296101               0.001748177               0.001452075               0.000000000               0.000000000               0.000000000               0.000000000               0.001445892               0.005018395               0.000888920              -0.000085091               0.001701145               0.001616055               0.000000000               0.000000000               0.000000000               0.000000000               0.002051463               0.005047309               0.000737430               0.000138383               0.001636292               0.001774675               0.000000000               0.000000000               0.000000000               0.000000000               0.002675543               0.005049080               0.000542216               0.000372190               0.001558946               0.001931136               0.000000000               0.000000000               0.000000000               0.000000000               0.003315022               0.005030920               0.000297768               0.000614262               0.001472203               0.002086465               0.000000000               0.000000000               0.000000000               0.000000000               0.003758568               0.005063369               0.000178892               0.000776534               0.001428928               0.002205462               0.000000000               0.000000000               0.000000000               0.000000000              -0.014422869              -0.001286678              -0.000776495              -0.005247738               0.001320344              -0.003927394               0.000000000               0.000000000               0.000000000               0.000000000              -0.010021912              -0.000633022              -0.000040831              -0.003679087               0.001015348              -0.002663739               0.000000000               0.000000000               0.000000000               0.000000000              -0.006542527              -0.000234387               0.000653787              -0.002424147               0.000729915              -0.001694232               0.000000000               0.000000000               0.000000000               0.000000000              -0.004626472               0.000611153               0.000892376              -0.001811319               0.000807485              -0.001003834               0.000000000               0.000000000               0.000000000               0.000000000              -0.003412212               0.001473846               0.000949367              -0.001463808               0.000979211              -0.000484597               0.000000000               0.000000000               0.000000000               0.000000000              -0.002541287               0.002233437               0.000929719              -0.001232160               0.001155191              -0.000076969               0.000000000               0.000000000               0.000000000               0.000000000              -0.001838175               0.002873522               0.000877054              -0.001048504               0.001307332               0.000258828               0.000000000               0.000000000               0.000000000               0.000000000              -0.001215175               0.003402693               0.000812369              -0.000881025               0.001427895               0.000546869               0.000000000               0.000000000               0.000000000               0.000000000              -0.000624526               0.003832547               0.000746106              -0.000713264               0.001515258               0.000801993               0.000000000               0.000000000               0.000000000               0.000000000              -0.000042208               0.004181352               0.000685005              -0.000538496               0.001573269               0.001034773               0.000000000               0.000000000               0.000000000               0.000000000               0.000541161               0.004457398               0.000630700              -0.000354239               0.001603864               0.001249625               0.000000000               0.000000000               0.000000000               0.000000000               0.001134764               0.004666728               0.000584742              -0.000157804               0.001608162               0.001450357               0.000000000               0.000000000               0.000000000               0.000000000               0.001751938               0.004816891               0.000528226               0.000054865               0.001587326               0.001642190               0.000000000               0.000000000               0.000000000               0.000000000               0.002415212               0.004919396               0.000443112               0.000290777               0.001542857               0.001833634               0.000000000               0.000000000               0.000000000               0.000000000               0.003148577               0.004980609               0.000332072               0.000558135               0.001474141               0.002032276               0.000000000               0.000000000               0.000000000               0.000000000               0.003968224               0.005002404               0.000187073               0.000862775               0.001379860               0.002242635               0.000000000               0.000000000               0.000000000               0.000000000               0.004580990               0.005067465               0.000115928               0.001084427               0.001327662               0.002412090               0.000000000               0.000000000               0.000000000               0.000000000               0.000000000               0.000000000               0.000000000               0.000000000               0.000000000               0.000000000               0.000000000               0.000000000               0.000000000               0.000000000               0.000000000               0.000000000               0.000000000               0.000000000               0.000000000               0.000000000               0.000000000               0.000000000               0.000000000               0.000000000               0.000000000               0.000000000               0.000000000               0.000000000               0.000000000               0.000000000               0.000000000               0.000000000               0.000000000               0.000000000               0.000000000               0.000000000               0.000000000               0.000000000               0.000000000               0.000000000               0.000000000               0.000000000               0.000000000               0.000000000               0.000000000               0.000000000               0.000000000               0.000000000               0.000000000               0.000000000               0.000000000               0.000000000               0.000000000               0.000000000               0.000000000               0.000000000               0.000000000               0.000000000               0.000000000               0.000000000               0.000000000               0.000000000               0.000000000               0.000000000               0.000000000               0.000000000               0.000000000               0.000000000               0.000000000               0.000000000               0.000000000               0.000000000               0.000000000               0.000000000               0.000000000               0.000000000               0.000000000               0.000000000               0.000000000               0.000000000               0.000000000               0.000000000               0.000000000               0.000000000               0.000000000               0.000000000               0.000000000               0.000000000               0.000000000               0.000000000               0.000000000               0.000000000               0.000000000               0.000000000               0.000000000               0.000000000               0.000000000               0.000000000               0.000000000               0.000000000               0.000000000               0.000000000               0.000000000               0.000000000               0.000000000               0.000000000               0.000000000               0.000000000               0.000000000               0.000000000               0.000000000               0.000000000               0.000000000               0.000000000               0.000000000               0.000000000               0.000000000               0.000000000               0.000000000               0.000000000               0.000000000               0.000000000               0.000000000               0.000000000               0.000000000               0.000000000               0.000000000               0.000000000               0.000000000               0.000000000               0.000000000               0.000000000               0.000000000               0.000000000               0.000000000               0.000000000               0.000000000               0.000000000               0.000000000               0.000000000               0.000000000               0.000000000               0.000000000               0.000000000               0.000000000               0.000000000               0.000000000               0.000000000               0.000000000               0.000000000               0.000000000               0.000000000               0.000000000               0.000000000               0.000000000               0.000000000               0.000000000               0.000000000               0.000000000               0.000000000               0.000000000               0.000000000               0.000000000               0.000000000               0.000000000               0.000000000               0.000000000               0.000000000               0.000000000               0.000000000               0.000000000               0.000000000               0.000000000               0.000000000 </DataArray>
</PointData>
</Piece>
</UnstructuredGrid> </VTKFile>
