<?xml version="1.0"?>
<VTKFile type="UnstructuredGrid" version="0.1">
<UnstructuredGrid>
<Piece NumberOfPoints="      1156" NumberOfCells="      1024">
<Points>
<DataArray type="Float64"                                    Name="coordinates"                                                      NumberOfComponents=" 3" format="ascii">
              0.133000000               0.000000000               0.000000000               0.155937500               0.000000000               0.000000000               0.178875000               0.000000000               0.000000000               0.201812500               0.000000000               0.000000000               0.224750000               0.000000000               0.000000000               0.247687500               0.000000000               0.000000000               0.270625000               0.000000000               0.000000000               0.293562500               0.000000000               0.000000000               0.316500000               0.000000000               0.000000000               0.339437500               0.000000000               0.000000000               0.362375000               0.000000000               0.000000000               0.385312500               0.000000000               0.000000000               0.408250000               0.000000000               0.000000000               0.431187500               0.000000000               0.000000000               0.454125000               0.000000000               0.000000000               0.477062500               0.000000000               0.000000000               0.500000000               0.000000000               0.000000000               0.132359569               0.013036280               0.000000000               0.155337096               0.016127762               0.000000000               0.178314623               0.019219245               0.000000000               0.201292150               0.022310727               0.000000000               0.224269676               0.025402210               0.000000000               0.247247203               0.028493692               0.000000000               0.270224730               0.031585175               0.000000000               0.293202257               0.034676657               0.000000000               0.316179784               0.037768140               0.000000000               0.339157311               0.040859622               0.000000000               0.362134838               0.043951105               0.000000000               0.385112365               0.047042587               0.000000000               0.408089892               0.050134070               0.000000000               0.431067419               0.053225552               0.000000000               0.454044946               0.056317035               0.000000000               0.477022473               0.059408517               0.000000000               0.500000000               0.062500000               0.000000000               0.130444442               0.025947013               0.000000000               0.153541665               0.032137825               0.000000000               0.176638887               0.038328636               0.000000000               0.199736109               0.044519448               0.000000000               0.222833332               0.050710260               0.000000000               0.245930554               0.056901071               0.000000000               0.269027776               0.063091883               0.000000000               0.292124999               0.069282695               0.000000000               0.315222221               0.075473506               0.000000000               0.338319444               0.081664318               0.000000000               0.361416666               0.087855130               0.000000000               0.384513888               0.094045942               0.000000000               0.407611111               0.100236753               0.000000000               0.430708333               0.106427565               0.000000000               0.453805555               0.112618377               0.000000000               0.476902778               0.118809188               0.000000000               0.500000000               0.125000000               0.000000000               0.127273065               0.038607862               0.000000000               0.150568498               0.047913621               0.000000000               0.173863932               0.057219379               0.000000000               0.197159365               0.066525138               0.000000000               0.220454798               0.075830897               0.000000000               0.243750232               0.085136655               0.000000000               0.267045665               0.094442414               0.000000000               0.290341099               0.103748172               0.000000000               0.313636532               0.113053931               0.000000000               0.336931966               0.122359690               0.000000000               0.360227399               0.131665448               0.000000000               0.383522833               0.140971207               0.000000000               0.406818266               0.150276966               0.000000000               0.430113700               0.159582724               0.000000000               0.453409133               0.168888483               0.000000000               0.476704567               0.178194241               0.000000000               0.500000000               0.187500000               0.000000000               0.122875978               0.050896897               0.000000000               0.146446229               0.063340840               0.000000000               0.170016481               0.075784784               0.000000000               0.193586732               0.088228728               0.000000000               0.217156983               0.100672672               0.000000000               0.240727235               0.113116616               0.000000000               0.264297486               0.125560560               0.000000000               0.287867738               0.138004504               0.000000000               0.311437989               0.150448448               0.000000000               0.335008240               0.162892392               0.000000000               0.358578492               0.175336336               0.000000000               0.382148743               0.187780280               0.000000000               0.405718994               0.200224224               0.000000000               0.429289246               0.212668168               0.000000000               0.452859497               0.225112112               0.000000000               0.476429749               0.237556056               0.000000000               0.500000000               0.250000000               0.000000000               0.117295528               0.062695766               0.000000000               0.141214558               0.078308531               0.000000000               0.165133587               0.093921295               0.000000000               0.189052617               0.109534060               0.000000000               0.212971646               0.125146824               0.000000000               0.236890676               0.140759589               0.000000000               0.260809705               0.156372354               0.000000000               0.284728735               0.171985118               0.000000000               0.308647764               0.187597883               0.000000000               0.332566794               0.203210648               0.000000000               0.356485823               0.218823412               0.000000000               0.380404853               0.234436177               0.000000000               0.404323882               0.250048941               0.000000000               0.428242912               0.265661706               0.000000000               0.452161941               0.281274471               0.000000000               0.476080971               0.296887235               0.000000000               0.500000000               0.312500000               0.000000000               0.110585458               0.073890841               0.000000000               0.134923867               0.092710163               0.000000000               0.159262276               0.111529486               0.000000000               0.183600685               0.130348808               0.000000000               0.207939094               0.149168131               0.000000000               0.232277503               0.167987453               0.000000000               0.256615912               0.186806776               0.000000000               0.280954320               0.205626098               0.000000000               0.305292729               0.224445420               0.000000000               0.329631138               0.243264743               0.000000000               0.353969547               0.262084065               0.000000000               0.378307956               0.280903388               0.000000000               0.402646365               0.299722710               0.000000000               0.426984773               0.318542033               0.000000000               0.451323182               0.337361355               0.000000000               0.475661591               0.356180678               0.000000000               0.500000000               0.375000000               0.000000000               0.102810390               0.084374307               0.000000000               0.127634741               0.106444663               0.000000000               0.152459092               0.128515018               0.000000000               0.177283442               0.150585374               0.000000000               0.202107793               0.172655730               0.000000000               0.226932143               0.194726086               0.000000000               0.251756494               0.216796442               0.000000000               0.276580845               0.238866798               0.000000000               0.301405195               0.260937153               0.000000000               0.326229546               0.283007509               0.000000000               0.351053896               0.305077865               0.000000000               0.375878247               0.327148221               0.000000000               0.400702598               0.349218577               0.000000000               0.425526948               0.371288933               0.000000000               0.450351299               0.393359288               0.000000000               0.475175649               0.415429644               0.000000000               0.500000000               0.437500000               0.000000000               0.094045202               0.094045202               0.000000000               0.119417377               0.119417377               0.000000000               0.144789552               0.144789552               0.000000000               0.170161727               0.170161727               0.000000000               0.195533901               0.195533901               0.000000000               0.220906076               0.220906076               0.000000000               0.246278251               0.246278251               0.000000000               0.271650426               0.271650426               0.000000000               0.297022601               0.297022601               0.000000000               0.322394776               0.322394776               0.000000000               0.347766951               0.347766951               0.000000000               0.373139126               0.373139126               0.000000000               0.398511300               0.398511300               0.000000000               0.423883475               0.423883475               0.000000000               0.449255650               0.449255650               0.000000000               0.474627825               0.474627825               0.000000000               0.500000000               0.500000000               0.000000000               0.084374307               0.102810390               0.000000000               0.106444663               0.127634741               0.000000000               0.128515018               0.152459092               0.000000000               0.150585374               0.177283442               0.000000000               0.172655730               0.202107793               0.000000000               0.194726086               0.226932143               0.000000000               0.216796442               0.251756494               0.000000000               0.238866798               0.276580845               0.000000000               0.260937153               0.301405195               0.000000000               0.283007509               0.326229546               0.000000000               0.305077865               0.351053896               0.000000000               0.327148221               0.375878247               0.000000000               0.349218577               0.400702598               0.000000000               0.371288933               0.425526948               0.000000000               0.393359288               0.450351299               0.000000000               0.415429644               0.475175649               0.000000000               0.437500000               0.500000000               0.000000000               0.073890841               0.110585458               0.000000000               0.092710163               0.134923867               0.000000000               0.111529486               0.159262276               0.000000000               0.130348808               0.183600685               0.000000000               0.149168131               0.207939094               0.000000000               0.167987453               0.232277503               0.000000000               0.186806776               0.256615912               0.000000000               0.205626098               0.280954320               0.000000000               0.224445420               0.305292729               0.000000000               0.243264743               0.329631138               0.000000000               0.262084065               0.353969547               0.000000000               0.280903388               0.378307956               0.000000000               0.299722710               0.402646365               0.000000000               0.318542033               0.426984773               0.000000000               0.337361355               0.451323182               0.000000000               0.356180678               0.475661591               0.000000000               0.375000000               0.500000000               0.000000000               0.062695766               0.117295528               0.000000000               0.078308531               0.141214558               0.000000000               0.093921295               0.165133587               0.000000000               0.109534060               0.189052617               0.000000000               0.125146824               0.212971646               0.000000000               0.140759589               0.236890676               0.000000000               0.156372354               0.260809705               0.000000000               0.171985118               0.284728735               0.000000000               0.187597883               0.308647764               0.000000000               0.203210648               0.332566794               0.000000000               0.218823412               0.356485823               0.000000000               0.234436177               0.380404853               0.000000000               0.250048941               0.404323882               0.000000000               0.265661706               0.428242912               0.000000000               0.281274471               0.452161941               0.000000000               0.296887235               0.476080971               0.000000000               0.312500000               0.500000000               0.000000000               0.050896897               0.122875978               0.000000000               0.063340840               0.146446229               0.000000000               0.075784784               0.170016481               0.000000000               0.088228728               0.193586732               0.000000000               0.100672672               0.217156983               0.000000000               0.113116616               0.240727235               0.000000000               0.125560560               0.264297486               0.000000000               0.138004504               0.287867738               0.000000000               0.150448448               0.311437989               0.000000000               0.162892392               0.335008240               0.000000000               0.175336336               0.358578492               0.000000000               0.187780280               0.382148743               0.000000000               0.200224224               0.405718994               0.000000000               0.212668168               0.429289246               0.000000000               0.225112112               0.452859497               0.000000000               0.237556056               0.476429749               0.000000000               0.250000000               0.500000000               0.000000000               0.038607862               0.127273065               0.000000000               0.047913621               0.150568498               0.000000000               0.057219379               0.173863932               0.000000000               0.066525138               0.197159365               0.000000000               0.075830897               0.220454798               0.000000000               0.085136655               0.243750232               0.000000000               0.094442414               0.267045665               0.000000000               0.103748172               0.290341099               0.000000000               0.113053931               0.313636532               0.000000000               0.122359690               0.336931966               0.000000000               0.131665448               0.360227399               0.000000000               0.140971207               0.383522833               0.000000000               0.150276966               0.406818266               0.000000000               0.159582724               0.430113700               0.000000000               0.168888483               0.453409133               0.000000000               0.178194241               0.476704567               0.000000000               0.187500000               0.500000000               0.000000000               0.025947013               0.130444442               0.000000000               0.032137825               0.153541665               0.000000000               0.038328636               0.176638887               0.000000000               0.044519448               0.199736109               0.000000000               0.050710260               0.222833332               0.000000000               0.056901071               0.245930554               0.000000000               0.063091883               0.269027776               0.000000000               0.069282695               0.292124999               0.000000000               0.075473506               0.315222221               0.000000000               0.081664318               0.338319444               0.000000000               0.087855130               0.361416666               0.000000000               0.094045942               0.384513888               0.000000000               0.100236753               0.407611111               0.000000000               0.106427565               0.430708333               0.000000000               0.112618377               0.453805555               0.000000000               0.118809188               0.476902778               0.000000000               0.125000000               0.500000000               0.000000000               0.013036280               0.132359569               0.000000000               0.016127762               0.155337096               0.000000000               0.019219245               0.178314623               0.000000000               0.022310727               0.201292150               0.000000000               0.025402210               0.224269676               0.000000000               0.028493692               0.247247203               0.000000000               0.031585175               0.270224730               0.000000000               0.034676657               0.293202257               0.000000000               0.037768140               0.316179784               0.000000000               0.040859622               0.339157311               0.000000000               0.043951105               0.362134838               0.000000000               0.047042587               0.385112365               0.000000000               0.050134070               0.408089892               0.000000000               0.053225552               0.431067419               0.000000000               0.056317035               0.454044946               0.000000000               0.059408517               0.477022473               0.000000000               0.062500000               0.500000000               0.000000000               0.000000000               0.133000000               0.000000000               0.000000000               0.155937500               0.000000000               0.000000000               0.178875000               0.000000000               0.000000000               0.201812500               0.000000000               0.000000000               0.224750000               0.000000000               0.000000000               0.247687500               0.000000000               0.000000000               0.270625000               0.000000000               0.000000000               0.293562500               0.000000000               0.000000000               0.316500000               0.000000000               0.000000000               0.339437500               0.000000000               0.000000000               0.362375000               0.000000000               0.000000000               0.385312500               0.000000000               0.000000000               0.408250000               0.000000000               0.000000000               0.431187500               0.000000000               0.000000000               0.454125000               0.000000000               0.000000000               0.477062500               0.000000000               0.000000000               0.500000000               0.000000000               0.133000000               0.000000000               0.000000000               0.155937500               0.000000000               0.000000000               0.178875000               0.000000000               0.000000000               0.201812500               0.000000000               0.000000000               0.224750000               0.000000000               0.000000000               0.247687500               0.000000000               0.000000000               0.270625000               0.000000000               0.000000000               0.293562500               0.000000000               0.000000000               0.316500000               0.000000000               0.000000000               0.339437500               0.000000000               0.000000000               0.362375000               0.000000000               0.000000000               0.385312500               0.000000000               0.000000000               0.408250000               0.000000000               0.000000000               0.431187500               0.000000000               0.000000000               0.454125000               0.000000000               0.000000000               0.477062500               0.000000000               0.000000000               0.500000000               0.000000000               0.000000000               0.132359569              -0.013036280               0.000000000               0.155337096              -0.016127762               0.000000000               0.178314623              -0.019219245               0.000000000               0.201292150              -0.022310727               0.000000000               0.224269676              -0.025402210               0.000000000               0.247247203              -0.028493692               0.000000000               0.270224730              -0.031585175               0.000000000               0.293202257              -0.034676657               0.000000000               0.316179784              -0.037768140               0.000000000               0.339157311              -0.040859622               0.000000000               0.362134838              -0.043951105               0.000000000               0.385112365              -0.047042587               0.000000000               0.408089892              -0.050134070               0.000000000               0.431067419              -0.053225552               0.000000000               0.454044946              -0.056317035               0.000000000               0.477022473              -0.059408517               0.000000000               0.500000000              -0.062500000               0.000000000               0.130444442              -0.025947013               0.000000000               0.153541665              -0.032137825               0.000000000               0.176638887              -0.038328636               0.000000000               0.199736109              -0.044519448               0.000000000               0.222833332              -0.050710260               0.000000000               0.245930554              -0.056901071               0.000000000               0.269027776              -0.063091883               0.000000000               0.292124999              -0.069282695               0.000000000               0.315222221              -0.075473506               0.000000000               0.338319444              -0.081664318               0.000000000               0.361416666              -0.087855130               0.000000000               0.384513888              -0.094045942               0.000000000               0.407611111              -0.100236753               0.000000000               0.430708333              -0.106427565               0.000000000               0.453805555              -0.112618377               0.000000000               0.476902778              -0.118809188               0.000000000               0.500000000              -0.125000000               0.000000000               0.127273065              -0.038607862               0.000000000               0.150568498              -0.047913621               0.000000000               0.173863932              -0.057219379               0.000000000               0.197159365              -0.066525138               0.000000000               0.220454798              -0.075830897               0.000000000               0.243750232              -0.085136655               0.000000000               0.267045665              -0.094442414               0.000000000               0.290341099              -0.103748172               0.000000000               0.313636532              -0.113053931               0.000000000               0.336931966              -0.122359690               0.000000000               0.360227399              -0.131665448               0.000000000               0.383522833              -0.140971207               0.000000000               0.406818266              -0.150276966               0.000000000               0.430113700              -0.159582724               0.000000000               0.453409133              -0.168888483               0.000000000               0.476704567              -0.178194241               0.000000000               0.500000000              -0.187500000               0.000000000               0.122875978              -0.050896897               0.000000000               0.146446229              -0.063340840               0.000000000               0.170016481              -0.075784784               0.000000000               0.193586732              -0.088228728               0.000000000               0.217156983              -0.100672672               0.000000000               0.240727235              -0.113116616               0.000000000               0.264297486              -0.125560560               0.000000000               0.287867738              -0.138004504               0.000000000               0.311437989              -0.150448448               0.000000000               0.335008240              -0.162892392               0.000000000               0.358578492              -0.175336336               0.000000000               0.382148743              -0.187780280               0.000000000               0.405718994              -0.200224224               0.000000000               0.429289246              -0.212668168               0.000000000               0.452859497              -0.225112112               0.000000000               0.476429749              -0.237556056               0.000000000               0.500000000              -0.250000000               0.000000000               0.117295528              -0.062695766               0.000000000               0.141214558              -0.078308531               0.000000000               0.165133587              -0.093921295               0.000000000               0.189052617              -0.109534060               0.000000000               0.212971646              -0.125146824               0.000000000               0.236890676              -0.140759589               0.000000000               0.260809705              -0.156372354               0.000000000               0.284728735              -0.171985118               0.000000000               0.308647764              -0.187597883               0.000000000               0.332566794              -0.203210648               0.000000000               0.356485823              -0.218823412               0.000000000               0.380404853              -0.234436177               0.000000000               0.404323882              -0.250048941               0.000000000               0.428242912              -0.265661706               0.000000000               0.452161941              -0.281274471               0.000000000               0.476080971              -0.296887235               0.000000000               0.500000000              -0.312500000               0.000000000               0.110585458              -0.073890841               0.000000000               0.134923867              -0.092710163               0.000000000               0.159262276              -0.111529486               0.000000000               0.183600685              -0.130348808               0.000000000               0.207939094              -0.149168131               0.000000000               0.232277503              -0.167987453               0.000000000               0.256615912              -0.186806776               0.000000000               0.280954320              -0.205626098               0.000000000               0.305292729              -0.224445420               0.000000000               0.329631138              -0.243264743               0.000000000               0.353969547              -0.262084065               0.000000000               0.378307956              -0.280903388               0.000000000               0.402646365              -0.299722710               0.000000000               0.426984773              -0.318542033               0.000000000               0.451323182              -0.337361355               0.000000000               0.475661591              -0.356180678               0.000000000               0.500000000              -0.375000000               0.000000000               0.102810390              -0.084374307               0.000000000               0.127634741              -0.106444663               0.000000000               0.152459092              -0.128515018               0.000000000               0.177283442              -0.150585374               0.000000000               0.202107793              -0.172655730               0.000000000               0.226932143              -0.194726086               0.000000000               0.251756494              -0.216796442               0.000000000               0.276580845              -0.238866798               0.000000000               0.301405195              -0.260937153               0.000000000               0.326229546              -0.283007509               0.000000000               0.351053896              -0.305077865               0.000000000               0.375878247              -0.327148221               0.000000000               0.400702598              -0.349218577               0.000000000               0.425526948              -0.371288933               0.000000000               0.450351299              -0.393359288               0.000000000               0.475175649              -0.415429644               0.000000000               0.500000000              -0.437500000               0.000000000               0.094045202              -0.094045202               0.000000000               0.119417377              -0.119417377               0.000000000               0.144789552              -0.144789552               0.000000000               0.170161727              -0.170161727               0.000000000               0.195533901              -0.195533901               0.000000000               0.220906076              -0.220906076               0.000000000               0.246278251              -0.246278251               0.000000000               0.271650426              -0.271650426               0.000000000               0.297022601              -0.297022601               0.000000000               0.322394776              -0.322394776               0.000000000               0.347766951              -0.347766951               0.000000000               0.373139126              -0.373139126               0.000000000               0.398511300              -0.398511300               0.000000000               0.423883475              -0.423883475               0.000000000               0.449255650              -0.449255650               0.000000000               0.474627825              -0.474627825               0.000000000               0.500000000              -0.500000000               0.000000000               0.084374307              -0.102810390               0.000000000               0.106444663              -0.127634741               0.000000000               0.128515018              -0.152459092               0.000000000               0.150585374              -0.177283442               0.000000000               0.172655730              -0.202107793               0.000000000               0.194726086              -0.226932143               0.000000000               0.216796442              -0.251756494               0.000000000               0.238866798              -0.276580845               0.000000000               0.260937153              -0.301405195               0.000000000               0.283007509              -0.326229546               0.000000000               0.305077865              -0.351053896               0.000000000               0.327148221              -0.375878247               0.000000000               0.349218577              -0.400702598               0.000000000               0.371288933              -0.425526948               0.000000000               0.393359288              -0.450351299               0.000000000               0.415429644              -0.475175649               0.000000000               0.437500000              -0.500000000               0.000000000               0.073890841              -0.110585458               0.000000000               0.092710163              -0.134923867               0.000000000               0.111529486              -0.159262276               0.000000000               0.130348808              -0.183600685               0.000000000               0.149168131              -0.207939094               0.000000000               0.167987453              -0.232277503               0.000000000               0.186806776              -0.256615912               0.000000000               0.205626098              -0.280954320               0.000000000               0.224445420              -0.305292729               0.000000000               0.243264743              -0.329631138               0.000000000               0.262084065              -0.353969547               0.000000000               0.280903388              -0.378307956               0.000000000               0.299722710              -0.402646365               0.000000000               0.318542033              -0.426984773               0.000000000               0.337361355              -0.451323182               0.000000000               0.356180678              -0.475661591               0.000000000               0.375000000              -0.500000000               0.000000000               0.062695766              -0.117295528               0.000000000               0.078308531              -0.141214558               0.000000000               0.093921295              -0.165133587               0.000000000               0.109534060              -0.189052617               0.000000000               0.125146824              -0.212971646               0.000000000               0.140759589              -0.236890676               0.000000000               0.156372354              -0.260809705               0.000000000               0.171985118              -0.284728735               0.000000000               0.187597883              -0.308647764               0.000000000               0.203210648              -0.332566794               0.000000000               0.218823412              -0.356485823               0.000000000               0.234436177              -0.380404853               0.000000000               0.250048941              -0.404323882               0.000000000               0.265661706              -0.428242912               0.000000000               0.281274471              -0.452161941               0.000000000               0.296887235              -0.476080971               0.000000000               0.312500000              -0.500000000               0.000000000               0.050896897              -0.122875978               0.000000000               0.063340840              -0.146446229               0.000000000               0.075784784              -0.170016481               0.000000000               0.088228728              -0.193586732               0.000000000               0.100672672              -0.217156983               0.000000000               0.113116616              -0.240727235               0.000000000               0.125560560              -0.264297486               0.000000000               0.138004504              -0.287867738               0.000000000               0.150448448              -0.311437989               0.000000000               0.162892392              -0.335008240               0.000000000               0.175336336              -0.358578492               0.000000000               0.187780280              -0.382148743               0.000000000               0.200224224              -0.405718994               0.000000000               0.212668168              -0.429289246               0.000000000               0.225112112              -0.452859497               0.000000000               0.237556056              -0.476429749               0.000000000               0.250000000              -0.500000000               0.000000000               0.038607862              -0.127273065               0.000000000               0.047913621              -0.150568498               0.000000000               0.057219379              -0.173863932               0.000000000               0.066525138              -0.197159365               0.000000000               0.075830897              -0.220454798               0.000000000               0.085136655              -0.243750232               0.000000000               0.094442414              -0.267045665               0.000000000               0.103748172              -0.290341099               0.000000000               0.113053931              -0.313636532               0.000000000               0.122359690              -0.336931966               0.000000000               0.131665448              -0.360227399               0.000000000               0.140971207              -0.383522833               0.000000000               0.150276966              -0.406818266               0.000000000               0.159582724              -0.430113700               0.000000000               0.168888483              -0.453409133               0.000000000               0.178194241              -0.476704567               0.000000000               0.187500000              -0.500000000               0.000000000               0.025947013              -0.130444442               0.000000000               0.032137825              -0.153541665               0.000000000               0.038328636              -0.176638887               0.000000000               0.044519448              -0.199736109               0.000000000               0.050710260              -0.222833332               0.000000000               0.056901071              -0.245930554               0.000000000               0.063091883              -0.269027776               0.000000000               0.069282695              -0.292124999               0.000000000               0.075473506              -0.315222221               0.000000000               0.081664318              -0.338319444               0.000000000               0.087855130              -0.361416666               0.000000000               0.094045942              -0.384513888               0.000000000               0.100236753              -0.407611111               0.000000000               0.106427565              -0.430708333               0.000000000               0.112618377              -0.453805555               0.000000000               0.118809188              -0.476902778               0.000000000               0.125000000              -0.500000000               0.000000000               0.013036280              -0.132359569               0.000000000               0.016127762              -0.155337096               0.000000000               0.019219245              -0.178314623               0.000000000               0.022310727              -0.201292150               0.000000000               0.025402210              -0.224269676               0.000000000               0.028493692              -0.247247203               0.000000000               0.031585175              -0.270224730               0.000000000               0.034676657              -0.293202257               0.000000000               0.037768140              -0.316179784               0.000000000               0.040859622              -0.339157311               0.000000000               0.043951105              -0.362134838               0.000000000               0.047042587              -0.385112365               0.000000000               0.050134070              -0.408089892               0.000000000               0.053225552              -0.431067419               0.000000000               0.056317035              -0.454044946               0.000000000               0.059408517              -0.477022473               0.000000000               0.062500000              -0.500000000               0.000000000               0.000000000              -0.133000000               0.000000000               0.000000000              -0.155937500               0.000000000               0.000000000              -0.178875000               0.000000000               0.000000000              -0.201812500               0.000000000               0.000000000              -0.224750000               0.000000000               0.000000000              -0.247687500               0.000000000               0.000000000              -0.270625000               0.000000000               0.000000000              -0.293562500               0.000000000               0.000000000              -0.316500000               0.000000000               0.000000000              -0.339437500               0.000000000               0.000000000              -0.362375000               0.000000000               0.000000000              -0.385312500               0.000000000               0.000000000              -0.408250000               0.000000000               0.000000000              -0.431187500               0.000000000               0.000000000              -0.454125000               0.000000000               0.000000000              -0.477062500               0.000000000               0.000000000              -0.500000000               0.000000000              -0.133000000               0.000000000               0.000000000              -0.155937500               0.000000000               0.000000000              -0.178875000               0.000000000               0.000000000              -0.201812500               0.000000000               0.000000000              -0.224750000               0.000000000               0.000000000              -0.247687500               0.000000000               0.000000000              -0.270625000               0.000000000               0.000000000              -0.293562500               0.000000000               0.000000000              -0.316500000               0.000000000               0.000000000              -0.339437500               0.000000000               0.000000000              -0.362375000               0.000000000               0.000000000              -0.385312500               0.000000000               0.000000000              -0.408250000               0.000000000               0.000000000              -0.431187500               0.000000000               0.000000000              -0.454125000               0.000000000               0.000000000              -0.477062500               0.000000000               0.000000000              -0.500000000               0.000000000               0.000000000              -0.132359569              -0.013036280               0.000000000              -0.155337096              -0.016127762               0.000000000              -0.178314623              -0.019219245               0.000000000              -0.201292150              -0.022310727               0.000000000              -0.224269676              -0.025402210               0.000000000              -0.247247203              -0.028493692               0.000000000              -0.270224730              -0.031585175               0.000000000              -0.293202257              -0.034676657               0.000000000              -0.316179784              -0.037768140               0.000000000              -0.339157311              -0.040859622               0.000000000              -0.362134838              -0.043951105               0.000000000              -0.385112365              -0.047042587               0.000000000              -0.408089892              -0.050134070               0.000000000              -0.431067419              -0.053225552               0.000000000              -0.454044946              -0.056317035               0.000000000              -0.477022473              -0.059408517               0.000000000              -0.500000000              -0.062500000               0.000000000              -0.130444442              -0.025947013               0.000000000              -0.153541665              -0.032137825               0.000000000              -0.176638887              -0.038328636               0.000000000              -0.199736109              -0.044519448               0.000000000              -0.222833332              -0.050710260               0.000000000              -0.245930554              -0.056901071               0.000000000              -0.269027776              -0.063091883               0.000000000              -0.292124999              -0.069282695               0.000000000              -0.315222221              -0.075473506               0.000000000              -0.338319444              -0.081664318               0.000000000              -0.361416666              -0.087855130               0.000000000              -0.384513888              -0.094045942               0.000000000              -0.407611111              -0.100236753               0.000000000              -0.430708333              -0.106427565               0.000000000              -0.453805555              -0.112618377               0.000000000              -0.476902778              -0.118809188               0.000000000              -0.500000000              -0.125000000               0.000000000              -0.127273065              -0.038607862               0.000000000              -0.150568498              -0.047913621               0.000000000              -0.173863932              -0.057219379               0.000000000              -0.197159365              -0.066525138               0.000000000              -0.220454798              -0.075830897               0.000000000              -0.243750232              -0.085136655               0.000000000              -0.267045665              -0.094442414               0.000000000              -0.290341099              -0.103748172               0.000000000              -0.313636532              -0.113053931               0.000000000              -0.336931966              -0.122359690               0.000000000              -0.360227399              -0.131665448               0.000000000              -0.383522833              -0.140971207               0.000000000              -0.406818266              -0.150276966               0.000000000              -0.430113700              -0.159582724               0.000000000              -0.453409133              -0.168888483               0.000000000              -0.476704567              -0.178194241               0.000000000              -0.500000000              -0.187500000               0.000000000              -0.122875978              -0.050896897               0.000000000              -0.146446229              -0.063340840               0.000000000              -0.170016481              -0.075784784               0.000000000              -0.193586732              -0.088228728               0.000000000              -0.217156983              -0.100672672               0.000000000              -0.240727235              -0.113116616               0.000000000              -0.264297486              -0.125560560               0.000000000              -0.287867738              -0.138004504               0.000000000              -0.311437989              -0.150448448               0.000000000              -0.335008240              -0.162892392               0.000000000              -0.358578492              -0.175336336               0.000000000              -0.382148743              -0.187780280               0.000000000              -0.405718994              -0.200224224               0.000000000              -0.429289246              -0.212668168               0.000000000              -0.452859497              -0.225112112               0.000000000              -0.476429749              -0.237556056               0.000000000              -0.500000000              -0.250000000               0.000000000              -0.117295528              -0.062695766               0.000000000              -0.141214558              -0.078308531               0.000000000              -0.165133587              -0.093921295               0.000000000              -0.189052617              -0.109534060               0.000000000              -0.212971646              -0.125146824               0.000000000              -0.236890676              -0.140759589               0.000000000              -0.260809705              -0.156372354               0.000000000              -0.284728735              -0.171985118               0.000000000              -0.308647764              -0.187597883               0.000000000              -0.332566794              -0.203210648               0.000000000              -0.356485823              -0.218823412               0.000000000              -0.380404853              -0.234436177               0.000000000              -0.404323882              -0.250048941               0.000000000              -0.428242912              -0.265661706               0.000000000              -0.452161941              -0.281274471               0.000000000              -0.476080971              -0.296887235               0.000000000              -0.500000000              -0.312500000               0.000000000              -0.110585458              -0.073890841               0.000000000              -0.134923867              -0.092710163               0.000000000              -0.159262276              -0.111529486               0.000000000              -0.183600685              -0.130348808               0.000000000              -0.207939094              -0.149168131               0.000000000              -0.232277503              -0.167987453               0.000000000              -0.256615912              -0.186806776               0.000000000              -0.280954320              -0.205626098               0.000000000              -0.305292729              -0.224445420               0.000000000              -0.329631138              -0.243264743               0.000000000              -0.353969547              -0.262084065               0.000000000              -0.378307956              -0.280903388               0.000000000              -0.402646365              -0.299722710               0.000000000              -0.426984773              -0.318542033               0.000000000              -0.451323182              -0.337361355               0.000000000              -0.475661591              -0.356180678               0.000000000              -0.500000000              -0.375000000               0.000000000              -0.102810390              -0.084374307               0.000000000              -0.127634741              -0.106444663               0.000000000              -0.152459092              -0.128515018               0.000000000              -0.177283442              -0.150585374               0.000000000              -0.202107793              -0.172655730               0.000000000              -0.226932143              -0.194726086               0.000000000              -0.251756494              -0.216796442               0.000000000              -0.276580845              -0.238866798               0.000000000              -0.301405195              -0.260937153               0.000000000              -0.326229546              -0.283007509               0.000000000              -0.351053896              -0.305077865               0.000000000              -0.375878247              -0.327148221               0.000000000              -0.400702598              -0.349218577               0.000000000              -0.425526948              -0.371288933               0.000000000              -0.450351299              -0.393359288               0.000000000              -0.475175649              -0.415429644               0.000000000              -0.500000000              -0.437500000               0.000000000              -0.094045202              -0.094045202               0.000000000              -0.119417377              -0.119417377               0.000000000              -0.144789552              -0.144789552               0.000000000              -0.170161727              -0.170161727               0.000000000              -0.195533901              -0.195533901               0.000000000              -0.220906076              -0.220906076               0.000000000              -0.246278251              -0.246278251               0.000000000              -0.271650426              -0.271650426               0.000000000              -0.297022601              -0.297022601               0.000000000              -0.322394776              -0.322394776               0.000000000              -0.347766951              -0.347766951               0.000000000              -0.373139126              -0.373139126               0.000000000              -0.398511300              -0.398511300               0.000000000              -0.423883475              -0.423883475               0.000000000              -0.449255650              -0.449255650               0.000000000              -0.474627825              -0.474627825               0.000000000              -0.500000000              -0.500000000               0.000000000              -0.084374307              -0.102810390               0.000000000              -0.106444663              -0.127634741               0.000000000              -0.128515018              -0.152459092               0.000000000              -0.150585374              -0.177283442               0.000000000              -0.172655730              -0.202107793               0.000000000              -0.194726086              -0.226932143               0.000000000              -0.216796442              -0.251756494               0.000000000              -0.238866798              -0.276580845               0.000000000              -0.260937153              -0.301405195               0.000000000              -0.283007509              -0.326229546               0.000000000              -0.305077865              -0.351053896               0.000000000              -0.327148221              -0.375878247               0.000000000              -0.349218577              -0.400702598               0.000000000              -0.371288933              -0.425526948               0.000000000              -0.393359288              -0.450351299               0.000000000              -0.415429644              -0.475175649               0.000000000              -0.437500000              -0.500000000               0.000000000              -0.073890841              -0.110585458               0.000000000              -0.092710163              -0.134923867               0.000000000              -0.111529486              -0.159262276               0.000000000              -0.130348808              -0.183600685               0.000000000              -0.149168131              -0.207939094               0.000000000              -0.167987453              -0.232277503               0.000000000              -0.186806776              -0.256615912               0.000000000              -0.205626098              -0.280954320               0.000000000              -0.224445420              -0.305292729               0.000000000              -0.243264743              -0.329631138               0.000000000              -0.262084065              -0.353969547               0.000000000              -0.280903388              -0.378307956               0.000000000              -0.299722710              -0.402646365               0.000000000              -0.318542033              -0.426984773               0.000000000              -0.337361355              -0.451323182               0.000000000              -0.356180678              -0.475661591               0.000000000              -0.375000000              -0.500000000               0.000000000              -0.062695766              -0.117295528               0.000000000              -0.078308531              -0.141214558               0.000000000              -0.093921295              -0.165133587               0.000000000              -0.109534060              -0.189052617               0.000000000              -0.125146824              -0.212971646               0.000000000              -0.140759589              -0.236890676               0.000000000              -0.156372354              -0.260809705               0.000000000              -0.171985118              -0.284728735               0.000000000              -0.187597883              -0.308647764               0.000000000              -0.203210648              -0.332566794               0.000000000              -0.218823412              -0.356485823               0.000000000              -0.234436177              -0.380404853               0.000000000              -0.250048941              -0.404323882               0.000000000              -0.265661706              -0.428242912               0.000000000              -0.281274471              -0.452161941               0.000000000              -0.296887235              -0.476080971               0.000000000              -0.312500000              -0.500000000               0.000000000              -0.050896897              -0.122875978               0.000000000              -0.063340840              -0.146446229               0.000000000              -0.075784784              -0.170016481               0.000000000              -0.088228728              -0.193586732               0.000000000              -0.100672672              -0.217156983               0.000000000              -0.113116616              -0.240727235               0.000000000              -0.125560560              -0.264297486               0.000000000              -0.138004504              -0.287867738               0.000000000              -0.150448448              -0.311437989               0.000000000              -0.162892392              -0.335008240               0.000000000              -0.175336336              -0.358578492               0.000000000              -0.187780280              -0.382148743               0.000000000              -0.200224224              -0.405718994               0.000000000              -0.212668168              -0.429289246               0.000000000              -0.225112112              -0.452859497               0.000000000              -0.237556056              -0.476429749               0.000000000              -0.250000000              -0.500000000               0.000000000              -0.038607862              -0.127273065               0.000000000              -0.047913621              -0.150568498               0.000000000              -0.057219379              -0.173863932               0.000000000              -0.066525138              -0.197159365               0.000000000              -0.075830897              -0.220454798               0.000000000              -0.085136655              -0.243750232               0.000000000              -0.094442414              -0.267045665               0.000000000              -0.103748172              -0.290341099               0.000000000              -0.113053931              -0.313636532               0.000000000              -0.122359690              -0.336931966               0.000000000              -0.131665448              -0.360227399               0.000000000              -0.140971207              -0.383522833               0.000000000              -0.150276966              -0.406818266               0.000000000              -0.159582724              -0.430113700               0.000000000              -0.168888483              -0.453409133               0.000000000              -0.178194241              -0.476704567               0.000000000              -0.187500000              -0.500000000               0.000000000              -0.025947013              -0.130444442               0.000000000              -0.032137825              -0.153541665               0.000000000              -0.038328636              -0.176638887               0.000000000              -0.044519448              -0.199736109               0.000000000              -0.050710260              -0.222833332               0.000000000              -0.056901071              -0.245930554               0.000000000              -0.063091883              -0.269027776               0.000000000              -0.069282695              -0.292124999               0.000000000              -0.075473506              -0.315222221               0.000000000              -0.081664318              -0.338319444               0.000000000              -0.087855130              -0.361416666               0.000000000              -0.094045942              -0.384513888               0.000000000              -0.100236753              -0.407611111               0.000000000              -0.106427565              -0.430708333               0.000000000              -0.112618377              -0.453805555               0.000000000              -0.118809188              -0.476902778               0.000000000              -0.125000000              -0.500000000               0.000000000              -0.013036280              -0.132359569               0.000000000              -0.016127762              -0.155337096               0.000000000              -0.019219245              -0.178314623               0.000000000              -0.022310727              -0.201292150               0.000000000              -0.025402210              -0.224269676               0.000000000              -0.028493692              -0.247247203               0.000000000              -0.031585175              -0.270224730               0.000000000              -0.034676657              -0.293202257               0.000000000              -0.037768140              -0.316179784               0.000000000              -0.040859622              -0.339157311               0.000000000              -0.043951105              -0.362134838               0.000000000              -0.047042587              -0.385112365               0.000000000              -0.050134070              -0.408089892               0.000000000              -0.053225552              -0.431067419               0.000000000              -0.056317035              -0.454044946               0.000000000              -0.059408517              -0.477022473               0.000000000              -0.062500000              -0.500000000               0.000000000               0.000000000              -0.133000000               0.000000000               0.000000000              -0.155937500               0.000000000               0.000000000              -0.178875000               0.000000000               0.000000000              -0.201812500               0.000000000               0.000000000              -0.224750000               0.000000000               0.000000000              -0.247687500               0.000000000               0.000000000              -0.270625000               0.000000000               0.000000000              -0.293562500               0.000000000               0.000000000              -0.316500000               0.000000000               0.000000000              -0.339437500               0.000000000               0.000000000              -0.362375000               0.000000000               0.000000000              -0.385312500               0.000000000               0.000000000              -0.408250000               0.000000000               0.000000000              -0.431187500               0.000000000               0.000000000              -0.454125000               0.000000000               0.000000000              -0.477062500               0.000000000               0.000000000              -0.500000000               0.000000000              -0.133000000               0.000000000               0.000000000              -0.155937500               0.000000000               0.000000000              -0.178875000               0.000000000               0.000000000              -0.201812500               0.000000000               0.000000000              -0.224750000               0.000000000               0.000000000              -0.247687500               0.000000000               0.000000000              -0.270625000               0.000000000               0.000000000              -0.293562500               0.000000000               0.000000000              -0.316500000               0.000000000               0.000000000              -0.339437500               0.000000000               0.000000000              -0.362375000               0.000000000               0.000000000              -0.385312500               0.000000000               0.000000000              -0.408250000               0.000000000               0.000000000              -0.431187500               0.000000000               0.000000000              -0.454125000               0.000000000               0.000000000              -0.477062500               0.000000000               0.000000000              -0.500000000               0.000000000               0.000000000              -0.132359569               0.013036280               0.000000000              -0.155337096               0.016127762               0.000000000              -0.178314623               0.019219245               0.000000000              -0.201292150               0.022310727               0.000000000              -0.224269676               0.025402210               0.000000000              -0.247247203               0.028493692               0.000000000              -0.270224730               0.031585175               0.000000000              -0.293202257               0.034676657               0.000000000              -0.316179784               0.037768140               0.000000000              -0.339157311               0.040859622               0.000000000              -0.362134838               0.043951105               0.000000000              -0.385112365               0.047042587               0.000000000              -0.408089892               0.050134070               0.000000000              -0.431067419               0.053225552               0.000000000              -0.454044946               0.056317035               0.000000000              -0.477022473               0.059408517               0.000000000              -0.500000000               0.062500000               0.000000000              -0.130444442               0.025947013               0.000000000              -0.153541665               0.032137825               0.000000000              -0.176638887               0.038328636               0.000000000              -0.199736109               0.044519448               0.000000000              -0.222833332               0.050710260               0.000000000              -0.245930554               0.056901071               0.000000000              -0.269027776               0.063091883               0.000000000              -0.292124999               0.069282695               0.000000000              -0.315222221               0.075473506               0.000000000              -0.338319444               0.081664318               0.000000000              -0.361416666               0.087855130               0.000000000              -0.384513888               0.094045942               0.000000000              -0.407611111               0.100236753               0.000000000              -0.430708333               0.106427565               0.000000000              -0.453805555               0.112618377               0.000000000              -0.476902778               0.118809188               0.000000000              -0.500000000               0.125000000               0.000000000              -0.127273065               0.038607862               0.000000000              -0.150568498               0.047913621               0.000000000              -0.173863932               0.057219379               0.000000000              -0.197159365               0.066525138               0.000000000              -0.220454798               0.075830897               0.000000000              -0.243750232               0.085136655               0.000000000              -0.267045665               0.094442414               0.000000000              -0.290341099               0.103748172               0.000000000              -0.313636532               0.113053931               0.000000000              -0.336931966               0.122359690               0.000000000              -0.360227399               0.131665448               0.000000000              -0.383522833               0.140971207               0.000000000              -0.406818266               0.150276966               0.000000000              -0.430113700               0.159582724               0.000000000              -0.453409133               0.168888483               0.000000000              -0.476704567               0.178194241               0.000000000              -0.500000000               0.187500000               0.000000000              -0.122875978               0.050896897               0.000000000              -0.146446229               0.063340840               0.000000000              -0.170016481               0.075784784               0.000000000              -0.193586732               0.088228728               0.000000000              -0.217156983               0.100672672               0.000000000              -0.240727235               0.113116616               0.000000000              -0.264297486               0.125560560               0.000000000              -0.287867738               0.138004504               0.000000000              -0.311437989               0.150448448               0.000000000              -0.335008240               0.162892392               0.000000000              -0.358578492               0.175336336               0.000000000              -0.382148743               0.187780280               0.000000000              -0.405718994               0.200224224               0.000000000              -0.429289246               0.212668168               0.000000000              -0.452859497               0.225112112               0.000000000              -0.476429749               0.237556056               0.000000000              -0.500000000               0.250000000               0.000000000              -0.117295528               0.062695766               0.000000000              -0.141214558               0.078308531               0.000000000              -0.165133587               0.093921295               0.000000000              -0.189052617               0.109534060               0.000000000              -0.212971646               0.125146824               0.000000000              -0.236890676               0.140759589               0.000000000              -0.260809705               0.156372354               0.000000000              -0.284728735               0.171985118               0.000000000              -0.308647764               0.187597883               0.000000000              -0.332566794               0.203210648               0.000000000              -0.356485823               0.218823412               0.000000000              -0.380404853               0.234436177               0.000000000              -0.404323882               0.250048941               0.000000000              -0.428242912               0.265661706               0.000000000              -0.452161941               0.281274471               0.000000000              -0.476080971               0.296887235               0.000000000              -0.500000000               0.312500000               0.000000000              -0.110585458               0.073890841               0.000000000              -0.134923867               0.092710163               0.000000000              -0.159262276               0.111529486               0.000000000              -0.183600685               0.130348808               0.000000000              -0.207939094               0.149168131               0.000000000              -0.232277503               0.167987453               0.000000000              -0.256615912               0.186806776               0.000000000              -0.280954320               0.205626098               0.000000000              -0.305292729               0.224445420               0.000000000              -0.329631138               0.243264743               0.000000000              -0.353969547               0.262084065               0.000000000              -0.378307956               0.280903388               0.000000000              -0.402646365               0.299722710               0.000000000              -0.426984773               0.318542033               0.000000000              -0.451323182               0.337361355               0.000000000              -0.475661591               0.356180678               0.000000000              -0.500000000               0.375000000               0.000000000              -0.102810390               0.084374307               0.000000000              -0.127634741               0.106444663               0.000000000              -0.152459092               0.128515018               0.000000000              -0.177283442               0.150585374               0.000000000              -0.202107793               0.172655730               0.000000000              -0.226932143               0.194726086               0.000000000              -0.251756494               0.216796442               0.000000000              -0.276580845               0.238866798               0.000000000              -0.301405195               0.260937153               0.000000000              -0.326229546               0.283007509               0.000000000              -0.351053896               0.305077865               0.000000000              -0.375878247               0.327148221               0.000000000              -0.400702598               0.349218577               0.000000000              -0.425526948               0.371288933               0.000000000              -0.450351299               0.393359288               0.000000000              -0.475175649               0.415429644               0.000000000              -0.500000000               0.437500000               0.000000000              -0.094045202               0.094045202               0.000000000              -0.119417377               0.119417377               0.000000000              -0.144789552               0.144789552               0.000000000              -0.170161727               0.170161727               0.000000000              -0.195533901               0.195533901               0.000000000              -0.220906076               0.220906076               0.000000000              -0.246278251               0.246278251               0.000000000              -0.271650426               0.271650426               0.000000000              -0.297022601               0.297022601               0.000000000              -0.322394776               0.322394776               0.000000000              -0.347766951               0.347766951               0.000000000              -0.373139126               0.373139126               0.000000000              -0.398511300               0.398511300               0.000000000              -0.423883475               0.423883475               0.000000000              -0.449255650               0.449255650               0.000000000              -0.474627825               0.474627825               0.000000000              -0.500000000               0.500000000               0.000000000              -0.084374307               0.102810390               0.000000000              -0.106444663               0.127634741               0.000000000              -0.128515018               0.152459092               0.000000000              -0.150585374               0.177283442               0.000000000              -0.172655730               0.202107793               0.000000000              -0.194726086               0.226932143               0.000000000              -0.216796442               0.251756494               0.000000000              -0.238866798               0.276580845               0.000000000              -0.260937153               0.301405195               0.000000000              -0.283007509               0.326229546               0.000000000              -0.305077865               0.351053896               0.000000000              -0.327148221               0.375878247               0.000000000              -0.349218577               0.400702598               0.000000000              -0.371288933               0.425526948               0.000000000              -0.393359288               0.450351299               0.000000000              -0.415429644               0.475175649               0.000000000              -0.437500000               0.500000000               0.000000000              -0.073890841               0.110585458               0.000000000              -0.092710163               0.134923867               0.000000000              -0.111529486               0.159262276               0.000000000              -0.130348808               0.183600685               0.000000000              -0.149168131               0.207939094               0.000000000              -0.167987453               0.232277503               0.000000000              -0.186806776               0.256615912               0.000000000              -0.205626098               0.280954320               0.000000000              -0.224445420               0.305292729               0.000000000              -0.243264743               0.329631138               0.000000000              -0.262084065               0.353969547               0.000000000              -0.280903388               0.378307956               0.000000000              -0.299722710               0.402646365               0.000000000              -0.318542033               0.426984773               0.000000000              -0.337361355               0.451323182               0.000000000              -0.356180678               0.475661591               0.000000000              -0.375000000               0.500000000               0.000000000              -0.062695766               0.117295528               0.000000000              -0.078308531               0.141214558               0.000000000              -0.093921295               0.165133587               0.000000000              -0.109534060               0.189052617               0.000000000              -0.125146824               0.212971646               0.000000000              -0.140759589               0.236890676               0.000000000              -0.156372354               0.260809705               0.000000000              -0.171985118               0.284728735               0.000000000              -0.187597883               0.308647764               0.000000000              -0.203210648               0.332566794               0.000000000              -0.218823412               0.356485823               0.000000000              -0.234436177               0.380404853               0.000000000              -0.250048941               0.404323882               0.000000000              -0.265661706               0.428242912               0.000000000              -0.281274471               0.452161941               0.000000000              -0.296887235               0.476080971               0.000000000              -0.312500000               0.500000000               0.000000000              -0.050896897               0.122875978               0.000000000              -0.063340840               0.146446229               0.000000000              -0.075784784               0.170016481               0.000000000              -0.088228728               0.193586732               0.000000000              -0.100672672               0.217156983               0.000000000              -0.113116616               0.240727235               0.000000000              -0.125560560               0.264297486               0.000000000              -0.138004504               0.287867738               0.000000000              -0.150448448               0.311437989               0.000000000              -0.162892392               0.335008240               0.000000000              -0.175336336               0.358578492               0.000000000              -0.187780280               0.382148743               0.000000000              -0.200224224               0.405718994               0.000000000              -0.212668168               0.429289246               0.000000000              -0.225112112               0.452859497               0.000000000              -0.237556056               0.476429749               0.000000000              -0.250000000               0.500000000               0.000000000              -0.038607862               0.127273065               0.000000000              -0.047913621               0.150568498               0.000000000              -0.057219379               0.173863932               0.000000000              -0.066525138               0.197159365               0.000000000              -0.075830897               0.220454798               0.000000000              -0.085136655               0.243750232               0.000000000              -0.094442414               0.267045665               0.000000000              -0.103748172               0.290341099               0.000000000              -0.113053931               0.313636532               0.000000000              -0.122359690               0.336931966               0.000000000              -0.131665448               0.360227399               0.000000000              -0.140971207               0.383522833               0.000000000              -0.150276966               0.406818266               0.000000000              -0.159582724               0.430113700               0.000000000              -0.168888483               0.453409133               0.000000000              -0.178194241               0.476704567               0.000000000              -0.187500000               0.500000000               0.000000000              -0.025947013               0.130444442               0.000000000              -0.032137825               0.153541665               0.000000000              -0.038328636               0.176638887               0.000000000              -0.044519448               0.199736109               0.000000000              -0.050710260               0.222833332               0.000000000              -0.056901071               0.245930554               0.000000000              -0.063091883               0.269027776               0.000000000              -0.069282695               0.292124999               0.000000000              -0.075473506               0.315222221               0.000000000              -0.081664318               0.338319444               0.000000000              -0.087855130               0.361416666               0.000000000              -0.094045942               0.384513888               0.000000000              -0.100236753               0.407611111               0.000000000              -0.106427565               0.430708333               0.000000000              -0.112618377               0.453805555               0.000000000              -0.118809188               0.476902778               0.000000000              -0.125000000               0.500000000               0.000000000              -0.013036280               0.132359569               0.000000000              -0.016127762               0.155337096               0.000000000              -0.019219245               0.178314623               0.000000000              -0.022310727               0.201292150               0.000000000              -0.025402210               0.224269676               0.000000000              -0.028493692               0.247247203               0.000000000              -0.031585175               0.270224730               0.000000000              -0.034676657               0.293202257               0.000000000              -0.037768140               0.316179784               0.000000000              -0.040859622               0.339157311               0.000000000              -0.043951105               0.362134838               0.000000000              -0.047042587               0.385112365               0.000000000              -0.050134070               0.408089892               0.000000000              -0.053225552               0.431067419               0.000000000              -0.056317035               0.454044946               0.000000000              -0.059408517               0.477022473               0.000000000              -0.062500000               0.500000000               0.000000000               0.000000000               0.133000000               0.000000000               0.000000000               0.155937500               0.000000000               0.000000000               0.178875000               0.000000000               0.000000000               0.201812500               0.000000000               0.000000000               0.224750000               0.000000000               0.000000000               0.247687500               0.000000000               0.000000000               0.270625000               0.000000000               0.000000000               0.293562500               0.000000000               0.000000000               0.316500000               0.000000000               0.000000000               0.339437500               0.000000000               0.000000000               0.362375000               0.000000000               0.000000000               0.385312500               0.000000000               0.000000000               0.408250000               0.000000000               0.000000000               0.431187500               0.000000000               0.000000000               0.454125000               0.000000000               0.000000000               0.477062500               0.000000000               0.000000000               0.500000000               0.000000000 </DataArray>
</Points>
<Cells>
<DataArray type="Int32"                                    Name="connectivity"                                                      NumberOfComponents=" 1" format="ascii">
         0          1         18         17          1          2         19         18          2          3         20         19          3          4         21         20          4          5         22         21          5          6         23         22          6          7         24         23          7          8         25         24          8          9         26         25          9         10         27         26         10         11         28         27         11         12         29         28         12         13         30         29         13         14         31         30         14         15         32         31         15         16         33         32         17         18         35         34         18         19         36         35         19         20         37         36         20         21         38         37         21         22         39         38         22         23         40         39         23         24         41         40         24         25         42         41         25         26         43         42         26         27         44         43         27         28         45         44         28         29         46         45         29         30         47         46         30         31         48         47         31         32         49         48         32         33         50         49         34         35         52         51         35         36         53         52         36         37         54         53         37         38         55         54         38         39         56         55         39         40         57         56         40         41         58         57         41         42         59         58         42         43         60         59         43         44         61         60         44         45         62         61         45         46         63         62         46         47         64         63         47         48         65         64         48         49         66         65         49         50         67         66         51         52         69         68         52         53         70         69         53         54         71         70         54         55         72         71         55         56         73         72         56         57         74         73         57         58         75         74         58         59         76         75         59         60         77         76         60         61         78         77         61         62         79         78         62         63         80         79         63         64         81         80         64         65         82         81         65         66         83         82         66         67         84         83         68         69         86         85         69         70         87         86         70         71         88         87         71         72         89         88         72         73         90         89         73         74         91         90         74         75         92         91         75         76         93         92         76         77         94         93         77         78         95         94         78         79         96         95         79         80         97         96         80         81         98         97         81         82         99         98         82         83        100         99         83         84        101        100         85         86        103        102         86         87        104        103         87         88        105        104         88         89        106        105         89         90        107        106         90         91        108        107         91         92        109        108         92         93        110        109         93         94        111        110         94         95        112        111         95         96        113        112         96         97        114        113         97         98        115        114         98         99        116        115         99        100        117        116        100        101        118        117        102        103        120        119        103        104        121        120        104        105        122        121        105        106        123        122        106        107        124        123        107        108        125        124        108        109        126        125        109        110        127        126        110        111        128        127        111        112        129        128        112        113        130        129        113        114        131        130        114        115        132        131        115        116        133        132        116        117        134        133        117        118        135        134        119        120        137        136        120        121        138        137        121        122        139        138        122        123        140        139        123        124        141        140        124        125        142        141        125        126        143        142        126        127        144        143        127        128        145        144        128        129        146        145        129        130        147        146        130        131        148        147        131        132        149        148        132        133        150        149        133        134        151        150        134        135        152        151        136        137        154        153        137        138        155        154        138        139        156        155        139        140        157        156        140        141        158        157        141        142        159        158        142        143        160        159        143        144        161        160        144        145        162        161        145        146        163        162        146        147        164        163        147        148        165        164        148        149        166        165        149        150        167        166        150        151        168        167        151        152        169        168        153        154        171        170        154        155        172        171        155        156        173        172        156        157        174        173        157        158        175        174        158        159        176        175        159        160        177        176        160        161        178        177        161        162        179        178        162        163        180        179        163        164        181        180        164        165        182        181        165        166        183        182        166        167        184        183        167        168        185        184        168        169        186        185        170        171        188        187        171        172        189        188        172        173        190        189        173        174        191        190        174        175        192        191        175        176        193        192        176        177        194        193        177        178        195        194        178        179        196        195        179        180        197        196        180        181        198        197        181        182        199        198        182        183        200        199        183        184        201        200        184        185        202        201        185        186        203        202        187        188        205        204        188        189        206        205        189        190        207        206        190        191        208        207        191        192        209        208        192        193        210        209        193        194        211        210        194        195        212        211        195        196        213        212        196        197        214        213        197        198        215        214        198        199        216        215        199        200        217        216        200        201        218        217        201        202        219        218        202        203        220        219        204        205        222        221        205        206        223        222        206        207        224        223        207        208        225        224        208        209        226        225        209        210        227        226        210        211        228        227        211        212        229        228        212        213        230        229        213        214        231        230        214        215        232        231        215        216        233        232        216        217        234        233        217        218        235        234        218        219        236        235        219        220        237        236        221        222        239        238        222        223        240        239        223        224        241        240        224        225        242        241        225        226        243        242        226        227        244        243        227        228        245        244        228        229        246        245        229        230        247        246        230        231        248        247        231        232        249        248        232        233        250        249        233        234        251        250        234        235        252        251        235        236        253        252        236        237        254        253        238        239        256        255        239        240        257        256        240        241        258        257        241        242        259        258        242        243        260        259        243        244        261        260        244        245        262        261        245        246        263        262        246        247        264        263        247        248        265        264        248        249        266        265        249        250        267        266        250        251        268        267        251        252        269        268        252        253        270        269        253        254        271        270        255        256        273        272        256        257        274        273        257        258        275        274        258        259        276        275        259        260        277        276        260        261        278        277        261        262        279        278        262        263        280        279        263        264        281        280        264        265        282        281        265        266        283        282        266        267        284        283        267        268        285        284        268        269        286        285        269        270        287        286        270        271        288        287        306        307          1          0        307        308          2          1        308        309          3          2        309        310          4          3        310        311          5          4        311        312          6          5        312        313          7          6        313        314          8          7        314        315          9          8        315        316         10          9        316        317         11         10        317        318         12         11        318        319         13         12        319        320         14         13        320        321         15         14        321        322         16         15        323        324        307        306        324        325        308        307        325        326        309        308        326        327        310        309        327        328        311        310        328        329        312        311        329        330        313        312        330        331        314        313        331        332        315        314        332        333        316        315        333        334        317        316        334        335        318        317        335        336        319        318        336        337        320        319        337        338        321        320        338        339        322        321        340        341        324        323        341        342        325        324        342        343        326        325        343        344        327        326        344        345        328        327        345        346        329        328        346        347        330        329        347        348        331        330        348        349        332        331        349        350        333        332        350        351        334        333        351        352        335        334        352        353        336        335        353        354        337        336        354        355        338        337        355        356        339        338        357        358        341        340        358        359        342        341        359        360        343        342        360        361        344        343        361        362        345        344        362        363        346        345        363        364        347        346        364        365        348        347        365        366        349        348        366        367        350        349        367        368        351        350        368        369        352        351        369        370        353        352        370        371        354        353        371        372        355        354        372        373        356        355        374        375        358        357        375        376        359        358        376        377        360        359        377        378        361        360        378        379        362        361        379        380        363        362        380        381        364        363        381        382        365        364        382        383        366        365        383        384        367        366        384        385        368        367        385        386        369        368        386        387        370        369        387        388        371        370        388        389        372        371        389        390        373        372        391        392        375        374        392        393        376        375        393        394        377        376        394        395        378        377        395        396        379        378        396        397        380        379        397        398        381        380        398        399        382        381        399        400        383        382        400        401        384        383        401        402        385        384        402        403        386        385        403        404        387        386        404        405        388        387        405        406        389        388        406        407        390        389        408        409        392        391        409        410        393        392        410        411        394        393        411        412        395        394        412        413        396        395        413        414        397        396        414        415        398        397        415        416        399        398        416        417        400        399        417        418        401        400        418        419        402        401        419        420        403        402        420        421        404        403        421        422        405        404        422        423        406        405        423        424        407        406        425        426        409        408        426        427        410        409        427        428        411        410        428        429        412        411        429        430        413        412        430        431        414        413        431        432        415        414        432        433        416        415        433        434        417        416        434        435        418        417        435        436        419        418        436        437        420        419        437        438        421        420        438        439        422        421        439        440        423        422        440        441        424        423        442        443        426        425        443        444        427        426        444        445        428        427        445        446        429        428        446        447        430        429        447        448        431        430        448        449        432        431        449        450        433        432        450        451        434        433        451        452        435        434        452        453        436        435        453        454        437        436        454        455        438        437        455        456        439        438        456        457        440        439        457        458        441        440        459        460        443        442        460        461        444        443        461        462        445        444        462        463        446        445        463        464        447        446        464        465        448        447        465        466        449        448        466        467        450        449        467        468        451        450        468        469        452        451        469        470        453        452        470        471        454        453        471        472        455        454        472        473        456        455        473        474        457        456        474        475        458        457        476        477        460        459        477        478        461        460        478        479        462        461        479        480        463        462        480        481        464        463        481        482        465        464        482        483        466        465        483        484        467        466        484        485        468        467        485        486        469        468        486        487        470        469        487        488        471        470        488        489        472        471        489        490        473        472        490        491        474        473        491        492        475        474        493        494        477        476        494        495        478        477        495        496        479        478        496        497        480        479        497        498        481        480        498        499        482        481        499        500        483        482        500        501        484        483        501        502        485        484        502        503        486        485        503        504        487        486        504        505        488        487        505        506        489        488        506        507        490        489        507        508        491        490        508        509        492        491        510        511        494        493        511        512        495        494        512        513        496        495        513        514        497        496        514        515        498        497        515        516        499        498        516        517        500        499        517        518        501        500        518        519        502        501        519        520        503        502        520        521        504        503        521        522        505        504        522        523        506        505        523        524        507        506        524        525        508        507        525        526        509        508        527        528        511        510        528        529        512        511        529        530        513        512        530        531        514        513        531        532        515        514        532        533        516        515        533        534        517        516        534        535        518        517        535        536        519        518        536        537        520        519        537        538        521        520        538        539        522        521        539        540        523        522        540        541        524        523        541        542        525        524        542        543        526        525        544        545        528        527        545        546        529        528        546        547        530        529        547        548        531        530        548        549        532        531        549        550        533        532        550        551        534        533        551        552        535        534        552        553        536        535        553        554        537        536        554        555        538        537        555        556        539        538        556        557        540        539        557        558        541        540        558        559        542        541        559        560        543        542        561        562        545        544        562        563        546        545        563        564        547        546        564        565        548        547        565        566        549        548        566        567        550        549        567        568        551        550        568        569        552        551        569        570        553        552        570        571        554        553        571        572        555        554        572        573        556        555        573        574        557        556        574        575        558        557        575        576        559        558        576        577        560        559        578        579        596        595        579        580        597        596        580        581        598        597        581        582        599        598        582        583        600        599        583        584        601        600        584        585        602        601        585        586        603        602        586        587        604        603        587        588        605        604        588        589        606        605        589        590        607        606        590        591        608        607        591        592        609        608        592        593        610        609        593        594        611        610        595        596        613        612        596        597        614        613        597        598        615        614        598        599        616        615        599        600        617        616        600        601        618        617        601        602        619        618        602        603        620        619        603        604        621        620        604        605        622        621        605        606        623        622        606        607        624        623        607        608        625        624        608        609        626        625        609        610        627        626        610        611        628        627        612        613        630        629        613        614        631        630        614        615        632        631        615        616        633        632        616        617        634        633        617        618        635        634        618        619        636        635        619        620        637        636        620        621        638        637        621        622        639        638        622        623        640        639        623        624        641        640        624        625        642        641        625        626        643        642        626        627        644        643        627        628        645        644        629        630        647        646        630        631        648        647        631        632        649        648        632        633        650        649        633        634        651        650        634        635        652        651        635        636        653        652        636        637        654        653        637        638        655        654        638        639        656        655        639        640        657        656        640        641        658        657        641        642        659        658        642        643        660        659        643        644        661        660        644        645        662        661        646        647        664        663        647        648        665        664        648        649        666        665        649        650        667        666        650        651        668        667        651        652        669        668        652        653        670        669        653        654        671        670        654        655        672        671        655        656        673        672        656        657        674        673        657        658        675        674        658        659        676        675        659        660        677        676        660        661        678        677        661        662        679        678        663        664        681        680        664        665        682        681        665        666        683        682        666        667        684        683        667        668        685        684        668        669        686        685        669        670        687        686        670        671        688        687        671        672        689        688        672        673        690        689        673        674        691        690        674        675        692        691        675        676        693        692        676        677        694        693        677        678        695        694        678        679        696        695        680        681        698        697        681        682        699        698        682        683        700        699        683        684        701        700        684        685        702        701        685        686        703        702        686        687        704        703        687        688        705        704        688        689        706        705        689        690        707        706        690        691        708        707        691        692        709        708        692        693        710        709        693        694        711        710        694        695        712        711        695        696        713        712        697        698        715        714        698        699        716        715        699        700        717        716        700        701        718        717        701        702        719        718        702        703        720        719        703        704        721        720        704        705        722        721        705        706        723        722        706        707        724        723        707        708        725        724        708        709        726        725        709        710        727        726        710        711        728        727        711        712        729        728        712        713        730        729        714        715        732        731        715        716        733        732        716        717        734        733        717        718        735        734        718        719        736        735        719        720        737        736        720        721        738        737        721        722        739        738        722        723        740        739        723        724        741        740        724        725        742        741        725        726        743        742        726        727        744        743        727        728        745        744        728        729        746        745        729        730        747        746        731        732        749        748        732        733        750        749        733        734        751        750        734        735        752        751        735        736        753        752        736        737        754        753        737        738        755        754        738        739        756        755        739        740        757        756        740        741        758        757        741        742        759        758        742        743        760        759        743        744        761        760        744        745        762        761        745        746        763        762        746        747        764        763        748        749        766        765        749        750        767        766        750        751        768        767        751        752        769        768        752        753        770        769        753        754        771        770        754        755        772        771        755        756        773        772        756        757        774        773        757        758        775        774        758        759        776        775        759        760        777        776        760        761        778        777        761        762        779        778        762        763        780        779        763        764        781        780        765        766        783        782        766        767        784        783        767        768        785        784        768        769        786        785        769        770        787        786        770        771        788        787        771        772        789        788        772        773        790        789        773        774        791        790        774        775        792        791        775        776        793        792        776        777        794        793        777        778        795        794        778        779        796        795        779        780        797        796        780        781        798        797        782        783        800        799        783        784        801        800        784        785        802        801        785        786        803        802        786        787        804        803        787        788        805        804        788        789        806        805        789        790        807        806        790        791        808        807        791        792        809        808        792        793        810        809        793        794        811        810        794        795        812        811        795        796        813        812        796        797        814        813        797        798        815        814        799        800        817        816        800        801        818        817        801        802        819        818        802        803        820        819        803        804        821        820        804        805        822        821        805        806        823        822        806        807        824        823        807        808        825        824        808        809        826        825        809        810        827        826        810        811        828        827        811        812        829        828        812        813        830        829        813        814        831        830        814        815        832        831        816        817        834        833        817        818        835        834        818        819        836        835        819        820        837        836        820        821        838        837        821        822        839        838        822        823        840        839        823        824        841        840        824        825        842        841        825        826        843        842        826        827        844        843        827        828        845        844        828        829        846        845        829        830        847        846        830        831        848        847        831        832        849        848        833        834        562        561        834        835        563        562        835        836        564        563        836        837        565        564        837        838        566        565        838        839        567        566        839        840        568        567        840        841        569        568        841        842        570        569        842        843        571        570        843        844        572        571        844        845        573        572        845        846        574        573        846        847        575        574        847        848        576        575        848        849        577        576        884        885        579        578        885        886        580        579        886        887        581        580        887        888        582        581        888        889        583        582        889        890        584        583        890        891        585        584        891        892        586        585        892        893        587        586        893        894        588        587        894        895        589        588        895        896        590        589        896        897        591        590        897        898        592        591        898        899        593        592        899        900        594        593        901        902        885        884        902        903        886        885        903        904        887        886        904        905        888        887        905        906        889        888        906        907        890        889        907        908        891        890        908        909        892        891        909        910        893        892        910        911        894        893        911        912        895        894        912        913        896        895        913        914        897        896        914        915        898        897        915        916        899        898        916        917        900        899        918        919        902        901        919        920        903        902        920        921        904        903        921        922        905        904        922        923        906        905        923        924        907        906        924        925        908        907        925        926        909        908        926        927        910        909        927        928        911        910        928        929        912        911        929        930        913        912        930        931        914        913        931        932        915        914        932        933        916        915        933        934        917        916        935        936        919        918        936        937        920        919        937        938        921        920        938        939        922        921        939        940        923        922        940        941        924        923        941        942        925        924        942        943        926        925        943        944        927        926        944        945        928        927        945        946        929        928        946        947        930        929        947        948        931        930        948        949        932        931        949        950        933        932        950        951        934        933        952        953        936        935        953        954        937        936        954        955        938        937        955        956        939        938        956        957        940        939        957        958        941        940        958        959        942        941        959        960        943        942        960        961        944        943        961        962        945        944        962        963        946        945        963        964        947        946        964        965        948        947        965        966        949        948        966        967        950        949        967        968        951        950        969        970        953        952        970        971        954        953        971        972        955        954        972        973        956        955        973        974        957        956        974        975        958        957        975        976        959        958        976        977        960        959        977        978        961        960        978        979        962        961        979        980        963        962        980        981        964        963        981        982        965        964        982        983        966        965        983        984        967        966        984        985        968        967        986        987        970        969        987        988        971        970        988        989        972        971        989        990        973        972        990        991        974        973        991        992        975        974        992        993        976        975        993        994        977        976        994        995        978        977        995        996        979        978        996        997        980        979        997        998        981        980        998        999        982        981        999       1000        983        982       1000       1001        984        983       1001       1002        985        984       1003       1004        987        986       1004       1005        988        987       1005       1006        989        988       1006       1007        990        989       1007       1008        991        990       1008       1009        992        991       1009       1010        993        992       1010       1011        994        993       1011       1012        995        994       1012       1013        996        995       1013       1014        997        996       1014       1015        998        997       1015       1016        999        998       1016       1017       1000        999       1017       1018       1001       1000       1018       1019       1002       1001       1020       1021       1004       1003       1021       1022       1005       1004       1022       1023       1006       1005       1023       1024       1007       1006       1024       1025       1008       1007       1025       1026       1009       1008       1026       1027       1010       1009       1027       1028       1011       1010       1028       1029       1012       1011       1029       1030       1013       1012       1030       1031       1014       1013       1031       1032       1015       1014       1032       1033       1016       1015       1033       1034       1017       1016       1034       1035       1018       1017       1035       1036       1019       1018       1037       1038       1021       1020       1038       1039       1022       1021       1039       1040       1023       1022       1040       1041       1024       1023       1041       1042       1025       1024       1042       1043       1026       1025       1043       1044       1027       1026       1044       1045       1028       1027       1045       1046       1029       1028       1046       1047       1030       1029       1047       1048       1031       1030       1048       1049       1032       1031       1049       1050       1033       1032       1050       1051       1034       1033       1051       1052       1035       1034       1052       1053       1036       1035       1054       1055       1038       1037       1055       1056       1039       1038       1056       1057       1040       1039       1057       1058       1041       1040       1058       1059       1042       1041       1059       1060       1043       1042       1060       1061       1044       1043       1061       1062       1045       1044       1062       1063       1046       1045       1063       1064       1047       1046       1064       1065       1048       1047       1065       1066       1049       1048       1066       1067       1050       1049       1067       1068       1051       1050       1068       1069       1052       1051       1069       1070       1053       1052       1071       1072       1055       1054       1072       1073       1056       1055       1073       1074       1057       1056       1074       1075       1058       1057       1075       1076       1059       1058       1076       1077       1060       1059       1077       1078       1061       1060       1078       1079       1062       1061       1079       1080       1063       1062       1080       1081       1064       1063       1081       1082       1065       1064       1082       1083       1066       1065       1083       1084       1067       1066       1084       1085       1068       1067       1085       1086       1069       1068       1086       1087       1070       1069       1088       1089       1072       1071       1089       1090       1073       1072       1090       1091       1074       1073       1091       1092       1075       1074       1092       1093       1076       1075       1093       1094       1077       1076       1094       1095       1078       1077       1095       1096       1079       1078       1096       1097       1080       1079       1097       1098       1081       1080       1098       1099       1082       1081       1099       1100       1083       1082       1100       1101       1084       1083       1101       1102       1085       1084       1102       1103       1086       1085       1103       1104       1087       1086       1105       1106       1089       1088       1106       1107       1090       1089       1107       1108       1091       1090       1108       1109       1092       1091       1109       1110       1093       1092       1110       1111       1094       1093       1111       1112       1095       1094       1112       1113       1096       1095       1113       1114       1097       1096       1114       1115       1098       1097       1115       1116       1099       1098       1116       1117       1100       1099       1117       1118       1101       1100       1118       1119       1102       1101       1119       1120       1103       1102       1120       1121       1104       1103       1122       1123       1106       1105       1123       1124       1107       1106       1124       1125       1108       1107       1125       1126       1109       1108       1126       1127       1110       1109       1127       1128       1111       1110       1128       1129       1112       1111       1129       1130       1113       1112       1130       1131       1114       1113       1131       1132       1115       1114       1132       1133       1116       1115       1133       1134       1117       1116       1134       1135       1118       1117       1135       1136       1119       1118       1136       1137       1120       1119       1137       1138       1121       1120        272        273       1123       1122        273        274       1124       1123        274        275       1125       1124        275        276       1126       1125        276        277       1127       1126        277        278       1128       1127        278        279       1129       1128        279        280       1130       1129        280        281       1131       1130        281        282       1132       1131        282        283       1133       1132        283        284       1134       1133        284        285       1135       1134        285        286       1136       1135        286        287       1137       1136        287        288       1138       1137 </DataArray>
<DataArray type="Int32"                                    Name="offsets"                                                      NumberOfComponents=" 1" format="ascii">
         4          8         12         16         20         24         28         32         36         40         44         48         52         56         60         64         68         72         76         80         84         88         92         96        100        104        108        112        116        120        124        128        132        136        140        144        148        152        156        160        164        168        172        176        180        184        188        192        196        200        204        208        212        216        220        224        228        232        236        240        244        248        252        256        260        264        268        272        276        280        284        288        292        296        300        304        308        312        316        320        324        328        332        336        340        344        348        352        356        360        364        368        372        376        380        384        388        392        396        400        404        408        412        416        420        424        428        432        436        440        444        448        452        456        460        464        468        472        476        480        484        488        492        496        500        504        508        512        516        520        524        528        532        536        540        544        548        552        556        560        564        568        572        576        580        584        588        592        596        600        604        608        612        616        620        624        628        632        636        640        644        648        652        656        660        664        668        672        676        680        684        688        692        696        700        704        708        712        716        720        724        728        732        736        740        744        748        752        756        760        764        768        772        776        780        784        788        792        796        800        804        808        812        816        820        824        828        832        836        840        844        848        852        856        860        864        868        872        876        880        884        888        892        896        900        904        908        912        916        920        924        928        932        936        940        944        948        952        956        960        964        968        972        976        980        984        988        992        996       1000       1004       1008       1012       1016       1020       1024       1028       1032       1036       1040       1044       1048       1052       1056       1060       1064       1068       1072       1076       1080       1084       1088       1092       1096       1100       1104       1108       1112       1116       1120       1124       1128       1132       1136       1140       1144       1148       1152       1156       1160       1164       1168       1172       1176       1180       1184       1188       1192       1196       1200       1204       1208       1212       1216       1220       1224       1228       1232       1236       1240       1244       1248       1252       1256       1260       1264       1268       1272       1276       1280       1284       1288       1292       1296       1300       1304       1308       1312       1316       1320       1324       1328       1332       1336       1340       1344       1348       1352       1356       1360       1364       1368       1372       1376       1380       1384       1388       1392       1396       1400       1404       1408       1412       1416       1420       1424       1428       1432       1436       1440       1444       1448       1452       1456       1460       1464       1468       1472       1476       1480       1484       1488       1492       1496       1500       1504       1508       1512       1516       1520       1524       1528       1532       1536       1540       1544       1548       1552       1556       1560       1564       1568       1572       1576       1580       1584       1588       1592       1596       1600       1604       1608       1612       1616       1620       1624       1628       1632       1636       1640       1644       1648       1652       1656       1660       1664       1668       1672       1676       1680       1684       1688       1692       1696       1700       1704       1708       1712       1716       1720       1724       1728       1732       1736       1740       1744       1748       1752       1756       1760       1764       1768       1772       1776       1780       1784       1788       1792       1796       1800       1804       1808       1812       1816       1820       1824       1828       1832       1836       1840       1844       1848       1852       1856       1860       1864       1868       1872       1876       1880       1884       1888       1892       1896       1900       1904       1908       1912       1916       1920       1924       1928       1932       1936       1940       1944       1948       1952       1956       1960       1964       1968       1972       1976       1980       1984       1988       1992       1996       2000       2004       2008       2012       2016       2020       2024       2028       2032       2036       2040       2044       2048       2052       2056       2060       2064       2068       2072       2076       2080       2084       2088       2092       2096       2100       2104       2108       2112       2116       2120       2124       2128       2132       2136       2140       2144       2148       2152       2156       2160       2164       2168       2172       2176       2180       2184       2188       2192       2196       2200       2204       2208       2212       2216       2220       2224       2228       2232       2236       2240       2244       2248       2252       2256       2260       2264       2268       2272       2276       2280       2284       2288       2292       2296       2300       2304       2308       2312       2316       2320       2324       2328       2332       2336       2340       2344       2348       2352       2356       2360       2364       2368       2372       2376       2380       2384       2388       2392       2396       2400       2404       2408       2412       2416       2420       2424       2428       2432       2436       2440       2444       2448       2452       2456       2460       2464       2468       2472       2476       2480       2484       2488       2492       2496       2500       2504       2508       2512       2516       2520       2524       2528       2532       2536       2540       2544       2548       2552       2556       2560       2564       2568       2572       2576       2580       2584       2588       2592       2596       2600       2604       2608       2612       2616       2620       2624       2628       2632       2636       2640       2644       2648       2652       2656       2660       2664       2668       2672       2676       2680       2684       2688       2692       2696       2700       2704       2708       2712       2716       2720       2724       2728       2732       2736       2740       2744       2748       2752       2756       2760       2764       2768       2772       2776       2780       2784       2788       2792       2796       2800       2804       2808       2812       2816       2820       2824       2828       2832       2836       2840       2844       2848       2852       2856       2860       2864       2868       2872       2876       2880       2884       2888       2892       2896       2900       2904       2908       2912       2916       2920       2924       2928       2932       2936       2940       2944       2948       2952       2956       2960       2964       2968       2972       2976       2980       2984       2988       2992       2996       3000       3004       3008       3012       3016       3020       3024       3028       3032       3036       3040       3044       3048       3052       3056       3060       3064       3068       3072       3076       3080       3084       3088       3092       3096       3100       3104       3108       3112       3116       3120       3124       3128       3132       3136       3140       3144       3148       3152       3156       3160       3164       3168       3172       3176       3180       3184       3188       3192       3196       3200       3204       3208       3212       3216       3220       3224       3228       3232       3236       3240       3244       3248       3252       3256       3260       3264       3268       3272       3276       3280       3284       3288       3292       3296       3300       3304       3308       3312       3316       3320       3324       3328       3332       3336       3340       3344       3348       3352       3356       3360       3364       3368       3372       3376       3380       3384       3388       3392       3396       3400       3404       3408       3412       3416       3420       3424       3428       3432       3436       3440       3444       3448       3452       3456       3460       3464       3468       3472       3476       3480       3484       3488       3492       3496       3500       3504       3508       3512       3516       3520       3524       3528       3532       3536       3540       3544       3548       3552       3556       3560       3564       3568       3572       3576       3580       3584       3588       3592       3596       3600       3604       3608       3612       3616       3620       3624       3628       3632       3636       3640       3644       3648       3652       3656       3660       3664       3668       3672       3676       3680       3684       3688       3692       3696       3700       3704       3708       3712       3716       3720       3724       3728       3732       3736       3740       3744       3748       3752       3756       3760       3764       3768       3772       3776       3780       3784       3788       3792       3796       3800       3804       3808       3812       3816       3820       3824       3828       3832       3836       3840       3844       3848       3852       3856       3860       3864       3868       3872       3876       3880       3884       3888       3892       3896       3900       3904       3908       3912       3916       3920       3924       3928       3932       3936       3940       3944       3948       3952       3956       3960       3964       3968       3972       3976       3980       3984       3988       3992       3996       4000       4004       4008       4012       4016       4020       4024       4028       4032       4036       4040       4044       4048       4052       4056       4060       4064       4068       4072       4076       4080       4084       4088       4092       4096 </DataArray>
<DataArray type="UInt8"                                    Name="types"                                                      NumberOfComponents=" 1" format="ascii">
         9          9          9          9          9          9          9          9          9          9          9          9          9          9          9          9          9          9          9          9          9          9          9          9          9          9          9          9          9          9          9          9          9          9          9          9          9          9          9          9          9          9          9          9          9          9          9          9          9          9          9          9          9          9          9          9          9          9          9          9          9          9          9          9          9          9          9          9          9          9          9          9          9          9          9          9          9          9          9          9          9          9          9          9          9          9          9          9          9          9          9          9          9          9          9          9          9          9          9          9          9          9          9          9          9          9          9          9          9          9          9          9          9          9          9          9          9          9          9          9          9          9          9          9          9          9          9          9          9          9          9          9          9          9          9          9          9          9          9          9          9          9          9          9          9          9          9          9          9          9          9          9          9          9          9          9          9          9          9          9          9          9          9          9          9          9          9          9          9          9          9          9          9          9          9          9          9          9          9          9          9          9          9          9          9          9          9          9          9          9          9          9          9          9          9          9          9          9          9          9          9          9          9          9          9          9          9          9          9          9          9          9          9          9          9          9          9          9          9          9          9          9          9          9          9          9          9          9          9          9          9          9          9          9          9          9          9          9          9          9          9          9          9          9          9          9          9          9          9          9          9          9          9          9          9          9          9          9          9          9          9          9          9          9          9          9          9          9          9          9          9          9          9          9          9          9          9          9          9          9          9          9          9          9          9          9          9          9          9          9          9          9          9          9          9          9          9          9          9          9          9          9          9          9          9          9          9          9          9          9          9          9          9          9          9          9          9          9          9          9          9          9          9          9          9          9          9          9          9          9          9          9          9          9          9          9          9          9          9          9          9          9          9          9          9          9          9          9          9          9          9          9          9          9          9          9          9          9          9          9          9          9          9          9          9          9          9          9          9          9          9          9          9          9          9          9          9          9          9          9          9          9          9          9          9          9          9          9          9          9          9          9          9          9          9          9          9          9          9          9          9          9          9          9          9          9          9          9          9          9          9          9          9          9          9          9          9          9          9          9          9          9          9          9          9          9          9          9          9          9          9          9          9          9          9          9          9          9          9          9          9          9          9          9          9          9          9          9          9          9          9          9          9          9          9          9          9          9          9          9          9          9          9          9          9          9          9          9          9          9          9          9          9          9          9          9          9          9          9          9          9          9          9          9          9          9          9          9          9          9          9          9          9          9          9          9          9          9          9          9          9          9          9          9          9          9          9          9          9          9          9          9          9          9          9          9          9          9          9          9          9          9          9          9          9          9          9          9          9          9          9          9          9          9          9          9          9          9          9          9          9          9          9          9          9          9          9          9          9          9          9          9          9          9          9          9          9          9          9          9          9          9          9          9          9          9          9          9          9          9          9          9          9          9          9          9          9          9          9          9          9          9          9          9          9          9          9          9          9          9          9          9          9          9          9          9          9          9          9          9          9          9          9          9          9          9          9          9          9          9          9          9          9          9          9          9          9          9          9          9          9          9          9          9          9          9          9          9          9          9          9          9          9          9          9          9          9          9          9          9          9          9          9          9          9          9          9          9          9          9          9          9          9          9          9          9          9          9          9          9          9          9          9          9          9          9          9          9          9          9          9          9          9          9          9          9          9          9          9          9          9          9          9          9          9          9          9          9          9          9          9          9          9          9          9          9          9          9          9          9          9          9          9          9          9          9          9          9          9          9          9          9          9          9          9          9          9          9          9          9          9          9          9          9          9          9          9          9          9          9          9          9          9          9          9          9          9          9          9          9          9          9          9          9          9          9          9          9          9          9          9          9          9          9          9          9          9          9          9          9          9          9          9          9          9          9          9          9          9          9          9          9          9          9          9          9          9          9          9          9          9          9          9          9          9          9          9          9          9          9          9          9          9          9          9          9          9          9          9          9          9          9          9          9          9          9          9          9          9          9          9          9          9          9          9          9          9          9          9          9          9          9          9          9          9          9          9          9          9          9          9          9          9          9          9          9          9          9          9          9          9          9          9          9          9          9          9          9          9          9          9          9          9          9          9          9          9          9          9          9          9          9          9          9          9          9          9          9          9          9          9          9          9          9          9          9          9          9          9          9          9          9          9          9          9          9          9          9          9          9          9          9          9          9          9          9          9          9          9          9          9          9          9          9          9          9          9          9          9          9          9          9          9          9          9          9          9          9          9          9          9          9          9          9          9          9          9          9          9          9          9          9          9          9          9          9          9          9          9          9          9          9          9          9          9          9          9          9          9          9          9          9          9          9          9          9          9          9          9          9          9          9          9          9          9          9          9          9          9          9          9          9          9          9          9          9          9          9          9          9          9          9          9          9          9          9          9          9          9          9          9          9          9          9          9          9          9          9          9          9          9          9          9          9          9          9          9          9          9          9          9          9          9          9          9          9          9          9          9          9          9          9          9          9 </DataArray>
</Cells>
<CellData>
<DataArray type="Int32"                                    Name="material"                                                      NumberOfComponents=" 1" format="ascii">
         1          1          1          1          1          1          1          1          1          1          1          1          1          1          1          1          1          1          1          1          1          1          1          1          1          1          1          1          1          1          1          1          1          1          1          1          1          1          1          1          1          1          1          1          1          1          1          1          1          1          1          1          1          1          1          1          1          1          1          1          1          1          1          1          1          1          1          1          1          1          1          1          1          1          1          1          1          1          1          1          1          1          1          1          1          1          1          1          1          1          1          1          1          1          1          1          1          1          1          1          1          1          1          1          1          1          1          1          1          1          1          1          1          1          1          1          1          1          1          1          1          1          1          1          1          1          1          1          1          1          1          1          1          1          1          1          1          1          1          1          1          1          1          1          1          1          1          1          1          1          1          1          1          1          1          1          1          1          1          1          1          1          1          1          1          1          1          1          1          1          1          1          1          1          1          1          1          1          1          1          1          1          1          1          1          1          1          1          1          1          1          1          1          1          1          1          1          1          1          1          1          1          1          1          1          1          1          1          1          1          1          1          1          1          1          1          1          1          1          1          1          1          1          1          1          1          1          1          1          1          1          1          1          1          1          1          1          1          1          1          1          1          1          1          1          1          1          1          1          1          1          1          1          1          1          1          1          1          1          1          1          1          1          1          1          1          1          1          1          1          1          1          1          1          1          1          1          1          1          1          1          1          1          1          1          1          1          1          1          1          1          1          1          1          1          1          1          1          1          1          1          1          1          1          1          1          1          1          1          1          1          1          1          1          1          1          1          1          1          1          1          1          1          1          1          1          1          1          1          1          1          1          1          1          1          1          1          1          1          1          1          1          1          1          1          1          1          1          1          1          1          1          1          1          1          1          1          1          1          1          1          1          1          1          1          1          1          1          1          1          1          1          1          1          1          1          1          1          1          1          1          1          1          1          1          1          1          1          1          1          1          1          1          1          1          1          1          1          1          1          1          1          1          1          1          1          1          1          1          1          1          1          1          1          1          1          1          1          1          1          1          1          1          1          1          1          1          1          1          1          1          1          1          1          1          1          1          1          1          1          1          1          1          1          1          1          1          1          1          1          1          1          1          1          1          1          1          1          1          1          1          1          1          1          1          1          1          1          1          1          1          1          1          1          1          1          1          1          1          1          1          1          1          1          1          1          1          1          1          1          1          1          1          1          1          1          1          1          1          1          1          1          1          1          1          1          1          1          1          1          1          1          1          1          1          1          1          1          1          1          1          1          1          1          1          1          1          1          1          1          1          1          1          1          1          1          1          1          1          1          1          1          1          1          1          1          1          1          1          1          1          1          1          1          1          1          1          1          1          1          1          1          1          1          1          1          1          1          1          1          1          1          1          1          1          1          1          1          1          1          1          1          1          1          1          1          1          1          1          1          1          1          1          1          1          1          1          1          1          1          1          1          1          1          1          1          1          1          1          1          1          1          1          1          1          1          1          1          1          1          1          1          1          1          1          1          1          1          1          1          1          1          1          1          1          1          1          1          1          1          1          1          1          1          1          1          1          1          1          1          1          1          1          1          1          1          1          1          1          1          1          1          1          1          1          1          1          1          1          1          1          1          1          1          1          1          1          1          1          1          1          1          1          1          1          1          1          1          1          1          1          1          1          1          1          1          1          1          1          1          1          1          1          1          1          1          1          1          1          1          1          1          1          1          1          1          1          1          1          1          1          1          1          1          1          1          1          1          1          1          1          1          1          1          1          1          1          1          1          1          1          1          1          1          1          1          1          1          1          1          1          1          1          1          1          1          1          1          1          1          1          1          1          1          1          1          1          1          1          1          1          1          1          1          1          1          1          1          1          1          1          1          1          1          1          1          1          1          1          1          1          1          1          1          1          1          1          1          1          1          1          1          1          1          1          1          1          1          1          1          1          1          1          1          1          1          1          1          1          1          1          1          1          1          1          1          1          1          1          1          1          1          1          1          1          1          1          1          1          1          1          1          1          1          1          1          1          1          1          1          1          1          1          1          1          1          1          1          1          1          1          1          1          1          1          1          1          1          1          1          1          1          1          1          1          1          1          1          1          1          1          1          1          1          1          1          1          1          1          1          1          1          1          1          1          1          1          1          1          1          1          1          1          1          1          1          1          1          1          1          1          1          1          1          1          1          1          1          1          1          1          1          1          1          1          1          1          1          1          1          1          1          1          1          1          1          1          1          1          1          1          1          1          1          1          1          1          1          1          1          1          1          1          1          1          1          1          1          1          1          1          1          1          1          1          1          1          1          1          1          1          1          1          1          1          1          1          1          1          1          1          1          1          1          1          1          1          1          1          1          1          1          1          1          1          1          1          1          1          1          1          1          1          1          1          1          1          1          1          1          1          1          1          1          1          1          1          1          1          1          1          1          1          1 </DataArray>
</CellData>
<PointData>
<DataArray type="Float64"                                    Name="u"                                                      NumberOfComponents=" 3" format="ascii">
              0.000008876              -0.000000000               0.999999999               0.000002993              -0.000000000               0.999999999               0.000000297              -0.000000000               0.999999999              -0.000000993               0.000000000               0.999999999              -0.000001657              -0.000000000               0.999999999              -0.000002120              -0.000000000               0.999999999              -0.000002624              -0.000000000               0.999999999              -0.000003305              -0.000000000               0.999999999              -0.000004236               0.000000000               0.999999999              -0.000005529              -0.000000000               0.999999999              -0.000007310              -0.000000000               0.999999999              -0.000009557              -0.000000000               0.999999999              -0.000012239              -0.000000000               0.999999999              -0.000015376               0.000000000               0.999999999              -0.000018932              -0.000000000               0.999999999              -0.000022952              -0.000000000               0.999999999              -0.000027541              -0.000000000               0.999999999               0.000008818               0.000014700               0.999999999               0.000003106               0.000013256               0.999999999               0.000000505               0.000012912               0.999999999              -0.000000754               0.000013129               0.999999999              -0.000001490               0.000013787               0.999999999              -0.000002063               0.000014739               0.999999999              -0.000002697               0.000015968               0.999999999              -0.000003541               0.000017417               0.999999999              -0.000004664               0.000019138               0.999999999              -0.000006183               0.000021168               0.999999999              -0.000008160               0.000023430               0.999999999              -0.000010607               0.000025895               0.999999999              -0.000013527               0.000028390               0.999999999              -0.000016846               0.000030947               0.999999999              -0.000020595               0.000033752               0.999999999              -0.000024876               0.000036770               0.999999999              -0.000029668               0.000040006               0.999999999               0.000008605               0.000029231               0.999999999               0.000003473               0.000026381               0.999999999               0.000001136               0.000025712               0.999999999              -0.000000131               0.000026301               0.999999999              -0.000001039               0.000027658               0.999999999              -0.000001909               0.000029649               0.999999999              -0.000002957               0.000032084               0.999999999              -0.000004267               0.000035049               0.999999999              -0.000005927               0.000038483               0.999999999              -0.000008013               0.000042502               0.999999999              -0.000010583               0.000047057               0.999999999              -0.000013610               0.000051849               0.999999999              -0.000017022               0.000056746               0.999999999              -0.000020880               0.000061757               0.999999999              -0.000025177               0.000067256               0.999999999              -0.000029869               0.000073020               0.999999999              -0.000035019               0.000079097               0.999999999               0.000008271               0.000043468               0.999999999               0.000004046               0.000039223               0.999999999               0.000002052               0.000038388               0.999999999               0.000000771               0.000039462               0.999999999              -0.000000403               0.000041675               0.999999999              -0.000001775               0.000044758               0.999999999              -0.000003419               0.000048546               0.999999999              -0.000005463               0.000053015               0.999999999              -0.000007908               0.000058238               0.999999999              -0.000010883               0.000064277               0.999999999              -0.000014347               0.000070946               0.999999999              -0.000018169               0.000077927               0.999999999              -0.000022344               0.000084964               0.999999999              -0.000026872               0.000092329               0.999999999              -0.000031806               0.000100258               0.999999999              -0.000037188               0.000108441               0.999999999              -0.000042957               0.000116949               0.999999999               0.000007843               0.000057295               0.999999999               0.000004776               0.000051662               0.999999999               0.000003192               0.000050867               0.999999999               0.000001795               0.000052558               0.999999999               0.000000172               0.000055792               0.999999999              -0.000001785               0.000060125               0.999999999              -0.000004203               0.000065327               0.999999999              -0.000007087               0.000071462               0.999999999              -0.000010494               0.000078498               0.999999999              -0.000014445               0.000086584               0.999999999              -0.000018815               0.000095227               0.999999999              -0.000023492               0.000104209               0.999999999              -0.000028428               0.000113303               0.999999999              -0.000033724               0.000122939               0.999999999              -0.000039380               0.000133147               0.999999999              -0.000045385               0.000143673               0.999999999              -0.000051784               0.000154519               0.999999999               0.000007293               0.000070531               0.999999999               0.000005648               0.000063640               0.999999999               0.000004372               0.000063044               0.999999999               0.000002737               0.000065540               0.999999999               0.000000588               0.000069932               0.999999999              -0.000002081               0.000075599               0.999999999              -0.000005279               0.000082416               0.999999999              -0.000009063               0.000090267               0.999999999              -0.000013447               0.000099360               0.999999999              -0.000018359               0.000109386               0.999999999              -0.000023625               0.000120019               0.999999999              -0.000029139               0.000130851               0.999999999              -0.000034883               0.000141993               0.999999999              -0.000041001               0.000153921               0.999999999              -0.000047451               0.000166405               0.999999999              -0.000054262               0.000179313               0.999999999              -0.000061575               0.000192789               0.999999999               0.000006660               0.000083022               0.999999999               0.000006556               0.000075101               0.999999999               0.000005429               0.000074856               0.999999999               0.000003436               0.000078278               0.999999999               0.000000675               0.000083910               0.999999999              -0.000002687               0.000091080               0.999999999              -0.000006670               0.000099609               0.999999999              -0.000011343               0.000109466               0.999999999              -0.000016640               0.000120622               0.999999999              -0.000022374               0.000132704               0.999999999              -0.000028441               0.000145223               0.999999999              -0.000034748               0.000158128               0.999999999              -0.000041361               0.000171658               0.999999999              -0.000048382               0.000186038               0.999999999              -0.000055804               0.000201170               0.999999999              -0.000063702               0.000216987               0.999999999              -0.000072133               0.000233484               0.999999999               0.000005977               0.000094657               0.999999999               0.000007370               0.000085970               0.999999999               0.000006254               0.000086195               0.999999999               0.000003754               0.000090604               0.999999999               0.000000376               0.000097552               0.999999999              -0.000003679               0.000106345               0.999999999              -0.000008415               0.000116759               0.999999999              -0.000013864               0.000128733               0.999999999              -0.000019973               0.000142119               0.999999999              -0.000026496               0.000156293               0.999999999              -0.000033220               0.000171046               0.999999999              -0.000040226               0.000186512               0.999999999              -0.000047603               0.000202905               0.999999999              -0.000055366               0.000220506               0.999999999              -0.000063704               0.000239080               0.999999999              -0.000072590               0.000258435               0.999999999              -0.000082002               0.000278578               0.999999999               0.000005151               0.000105187               0.999999999               0.000008078               0.000096223               0.999999999               0.000006737               0.000096977               0.999999999               0.000003664               0.000102407               0.999999999              -0.000000301               0.000110736               0.999999999              -0.000004990               0.000121255               0.999999999              -0.000010411               0.000133695               0.999999999              -0.000016702               0.000147944               0.999999999              -0.000023566               0.000163601               0.999999999              -0.000030590               0.000180163               0.999999999              -0.000037734               0.000197677               0.999999999              -0.000045218               0.000216385               0.999999999              -0.000053078               0.000236643               0.999999999              -0.000061601               0.000258262               0.999999999              -0.000070850               0.000280888               0.999999999              -0.000080632               0.000304357               0.999999999              -0.000090789               0.000328535               0.999999999               0.000004140               0.000114958               0.999999999               0.000008344               0.000106689               0.999999999               0.000007563               0.000106522               0.999999999               0.000004914               0.000110867               0.999999999               0.000001421               0.000118032               0.999999999              -0.000002616               0.000127361               0.999999999              -0.000007268               0.000138484               0.999999999              -0.000012651               0.000151332               0.999999999              -0.000018620               0.000165578               0.999999999              -0.000024806               0.000180924               0.999999999              -0.000031002               0.000197318               0.999999999              -0.000037114               0.000214814               0.999999999              -0.000043426               0.000233652               0.999999999              -0.000050374               0.000253785               0.999999999              -0.000057905               0.000275090               0.999999999              -0.000065824               0.000297517               0.999999999              -0.000074194               0.000320823               0.999999999               0.000003256               0.000123745               0.999999999               0.000008145               0.000116618               0.999999999               0.000007970               0.000116046               0.999999999               0.000005819               0.000119499               0.999999999               0.000002903               0.000125670               0.999999999              -0.000000518               0.000133942               0.999999999              -0.000004368               0.000143953               0.999999999              -0.000008867               0.000155488               0.999999999              -0.000013856               0.000168435               0.999999999              -0.000019050               0.000182616               0.999999999              -0.000024365               0.000197874               0.999999999              -0.000029620               0.000214193               0.999999999              -0.000034843               0.000231702               0.999999999              -0.000040278               0.000250457               0.999999999              -0.000046192               0.000270417               0.999999999              -0.000052415               0.000291405               0.999999999              -0.000059053               0.000313348               0.999999999               0.000002431               0.000131361               0.999999999               0.000007516               0.000125754               0.999999999               0.000007880               0.000125192               0.999999999               0.000006271               0.000128066               0.999999999               0.000003938               0.000133443               0.999999999               0.000001215               0.000140870               0.999999999              -0.000001900               0.000149910               0.999999999              -0.000005456               0.000160348               0.999999999              -0.000009454               0.000172173               0.999999999              -0.000013713               0.000185224               0.999999999              -0.000018201               0.000199383               0.999999999              -0.000022674               0.000214664               0.999999999              -0.000026990               0.000231025               0.999999999              -0.000031196               0.000248516               0.999999999              -0.000035640               0.000267195               0.999999999              -0.000040403               0.000286930               0.999999999              -0.000045343               0.000307518               0.999999999               0.000001726               0.000137774               0.999999999               0.000006530               0.000133826               0.999999999               0.000007220               0.000133549               0.999999999               0.000006142               0.000136134               0.999999999               0.000004413               0.000141013               0.999999999               0.000002334               0.000147735               0.999999999              -0.000000010               0.000156011               0.999999999              -0.000002736               0.000165589               0.999999999              -0.000005786               0.000176420               0.999999999              -0.000009226               0.000188449               0.999999999              -0.000012799               0.000201692               0.999999999              -0.000016413               0.000216107               0.999999999              -0.000019873               0.000231557               0.999999999              -0.000023105               0.000248080               0.999999999              -0.000026325               0.000265588               0.999999999              -0.000029750               0.000284108               0.999999999              -0.000033274               0.000303547               0.999999999               0.000001153               0.000142867               0.999999999               0.000005191               0.000140496               0.999999999               0.000006017               0.000140690               0.999999999               0.000005376               0.000143232               0.999999999               0.000004184               0.000147827               0.999999999               0.000002736               0.000154082               0.999999999               0.000001085               0.000161729               0.999999999              -0.000000898               0.000170654               0.999999999              -0.000003164               0.000180781               0.999999999              -0.000005629               0.000192079               0.999999999              -0.000008260               0.000204624               0.999999999              -0.000010981               0.000218324               0.999999999              -0.000013580               0.000233103               0.999999999              -0.000016036               0.000248860               0.999999999              -0.000018320               0.000265462               0.999999999              -0.000020505               0.000282958               0.999999999              -0.000022564               0.000301498               0.999999999               0.000000685               0.000146533               0.999999999               0.000003592               0.000145502               0.999999999               0.000004340               0.000146190               0.999999999               0.000003999               0.000148821               0.999999999               0.000003266               0.000153312               0.999999999               0.000002387               0.000159254               0.999999999               0.000001303               0.000166486               0.999999999               0.000000042               0.000174986               0.999999999              -0.000001425               0.000184721               0.999999999              -0.000002946               0.000195644               0.999999999              -0.000004716               0.000207697               0.999999999              -0.000006587               0.000220861               0.999999999              -0.000008315               0.000235115               0.999999999              -0.000009951               0.000250295               0.999999999              -0.000011407               0.000266352               0.999999999              -0.000012604               0.000283274               0.999999999              -0.000013432               0.000301223               0.999999999               0.000000317               0.000148777               0.999999999               0.000001841               0.000148611               0.999999999               0.000002266               0.000149657               0.999999999               0.000002140               0.000152417               0.999999999               0.000001807               0.000156878               0.999999999               0.000001355               0.000162672               0.999999999               0.000000866               0.000169700               0.999999999               0.000000211               0.000177971               0.999999999              -0.000000393               0.000187489               0.999999999              -0.000001231               0.000198223               0.999999999              -0.000002132               0.000210067               0.999999999              -0.000003048               0.000222965               0.999999999              -0.000003929               0.000236873               0.999999999              -0.000004681               0.000251696               0.999999999              -0.000005344               0.000267464               0.999999999              -0.000005908               0.000284279               0.999999999              -0.000006157               0.000302097               0.999999999              -0.000000000               0.000149546               0.999999999               0.000000000               0.000149650               0.999999999              -0.000000000               0.000150831               0.999999999              -0.000000000               0.000153689               0.999999999               0.000000000               0.000158102               0.999999999               0.000000000               0.000163873               0.999999999              -0.000000000               0.000170862               0.999999999              -0.000000000               0.000179023               0.999999999               0.000000000               0.000188464               0.999999999               0.000000000               0.000199146               0.999999999               0.000000000               0.000210976               0.999999999               0.000000000               0.000223820               0.999999999              -0.000000000               0.000237513               0.999999999               0.000000000               0.000252230               0.999999999               0.000000000               0.000268088               0.999999999              -0.000000000               0.000284867               0.999999999              -0.000000000               0.000302574               0.999999999               0.000008876              -0.000000000               0.999999999               0.000002993              -0.000000000               0.999999999               0.000000297              -0.000000000               0.999999999              -0.000000993               0.000000000               0.999999999              -0.000001657              -0.000000000               0.999999999              -0.000002120              -0.000000000               0.999999999              -0.000002624              -0.000000000               0.999999999              -0.000003305              -0.000000000               0.999999999              -0.000004236               0.000000000               0.999999999              -0.000005529              -0.000000000               0.999999999              -0.000007310              -0.000000000               0.999999999              -0.000009557              -0.000000000               0.999999999              -0.000012239              -0.000000000               0.999999999              -0.000015376               0.000000000               0.999999999              -0.000018932              -0.000000000               0.999999999              -0.000022952              -0.000000000               0.999999999              -0.000027541              -0.000000000               0.999999999               0.000008818              -0.000014700               0.999999999               0.000003106              -0.000013256               0.999999999               0.000000505              -0.000012912               0.999999999              -0.000000754              -0.000013129               0.999999999              -0.000001490              -0.000013787               0.999999999              -0.000002063              -0.000014739               0.999999999              -0.000002697              -0.000015968               0.999999999              -0.000003541              -0.000017417               0.999999999              -0.000004664              -0.000019138               0.999999999              -0.000006183              -0.000021168               0.999999999              -0.000008160              -0.000023430               0.999999999              -0.000010607              -0.000025895               0.999999999              -0.000013527              -0.000028390               0.999999999              -0.000016846              -0.000030947               0.999999999              -0.000020595              -0.000033752               0.999999999              -0.000024876              -0.000036770               0.999999999              -0.000029668              -0.000040006               0.999999999               0.000008605              -0.000029231               0.999999999               0.000003473              -0.000026381               0.999999999               0.000001136              -0.000025712               0.999999999              -0.000000131              -0.000026301               0.999999999              -0.000001039              -0.000027658               0.999999999              -0.000001909              -0.000029649               0.999999999              -0.000002957              -0.000032084               0.999999999              -0.000004267              -0.000035049               0.999999999              -0.000005927              -0.000038483               0.999999999              -0.000008013              -0.000042502               0.999999999              -0.000010583              -0.000047057               0.999999999              -0.000013610              -0.000051849               0.999999999              -0.000017022              -0.000056746               0.999999999              -0.000020880              -0.000061757               0.999999999              -0.000025177              -0.000067256               0.999999999              -0.000029869              -0.000073020               0.999999999              -0.000035019              -0.000079097               0.999999999               0.000008271              -0.000043468               0.999999999               0.000004046              -0.000039223               0.999999999               0.000002052              -0.000038388               0.999999999               0.000000771              -0.000039462               0.999999999              -0.000000403              -0.000041675               0.999999999              -0.000001775              -0.000044758               0.999999999              -0.000003419              -0.000048546               0.999999999              -0.000005463              -0.000053015               0.999999999              -0.000007908              -0.000058238               0.999999999              -0.000010883              -0.000064277               0.999999999              -0.000014347              -0.000070946               0.999999999              -0.000018169              -0.000077927               0.999999999              -0.000022344              -0.000084964               0.999999999              -0.000026872              -0.000092329               0.999999999              -0.000031806              -0.000100258               0.999999999              -0.000037188              -0.000108441               0.999999999              -0.000042957              -0.000116949               0.999999999               0.000007843              -0.000057295               0.999999999               0.000004776              -0.000051662               0.999999999               0.000003192              -0.000050867               0.999999999               0.000001795              -0.000052558               0.999999999               0.000000172              -0.000055792               0.999999999              -0.000001785              -0.000060125               0.999999999              -0.000004203              -0.000065327               0.999999999              -0.000007087              -0.000071462               0.999999999              -0.000010494              -0.000078498               0.999999999              -0.000014445              -0.000086584               0.999999999              -0.000018815              -0.000095227               0.999999999              -0.000023492              -0.000104209               0.999999999              -0.000028428              -0.000113303               0.999999999              -0.000033724              -0.000122939               0.999999999              -0.000039380              -0.000133147               0.999999999              -0.000045385              -0.000143673               0.999999999              -0.000051784              -0.000154519               0.999999999               0.000007293              -0.000070531               0.999999999               0.000005648              -0.000063640               0.999999999               0.000004372              -0.000063044               0.999999999               0.000002737              -0.000065540               0.999999999               0.000000588              -0.000069932               0.999999999              -0.000002081              -0.000075599               0.999999999              -0.000005279              -0.000082416               0.999999999              -0.000009063              -0.000090267               0.999999999              -0.000013447              -0.000099360               0.999999999              -0.000018359              -0.000109386               0.999999999              -0.000023625              -0.000120019               0.999999999              -0.000029139              -0.000130851               0.999999999              -0.000034883              -0.000141993               0.999999999              -0.000041001              -0.000153921               0.999999999              -0.000047451              -0.000166405               0.999999999              -0.000054262              -0.000179313               0.999999999              -0.000061575              -0.000192789               0.999999999               0.000006660              -0.000083022               0.999999999               0.000006556              -0.000075101               0.999999999               0.000005429              -0.000074856               0.999999999               0.000003436              -0.000078278               0.999999999               0.000000675              -0.000083910               0.999999999              -0.000002687              -0.000091080               0.999999999              -0.000006670              -0.000099609               0.999999999              -0.000011343              -0.000109466               0.999999999              -0.000016640              -0.000120622               0.999999999              -0.000022374              -0.000132704               0.999999999              -0.000028441              -0.000145223               0.999999999              -0.000034748              -0.000158128               0.999999999              -0.000041361              -0.000171658               0.999999999              -0.000048382              -0.000186038               0.999999999              -0.000055804              -0.000201170               0.999999999              -0.000063702              -0.000216987               0.999999999              -0.000072133              -0.000233484               0.999999999               0.000005977              -0.000094657               0.999999999               0.000007370              -0.000085970               0.999999999               0.000006254              -0.000086195               0.999999999               0.000003754              -0.000090604               0.999999999               0.000000376              -0.000097552               0.999999999              -0.000003679              -0.000106345               0.999999999              -0.000008415              -0.000116759               0.999999999              -0.000013864              -0.000128733               0.999999999              -0.000019973              -0.000142119               0.999999999              -0.000026496              -0.000156293               0.999999999              -0.000033220              -0.000171046               0.999999999              -0.000040226              -0.000186512               0.999999999              -0.000047603              -0.000202905               0.999999999              -0.000055366              -0.000220506               0.999999999              -0.000063704              -0.000239080               0.999999999              -0.000072590              -0.000258435               0.999999999              -0.000082002              -0.000278578               0.999999999               0.000005151              -0.000105187               0.999999999               0.000008078              -0.000096223               0.999999999               0.000006737              -0.000096977               0.999999999               0.000003664              -0.000102407               0.999999999              -0.000000301              -0.000110736               0.999999999              -0.000004990              -0.000121255               0.999999999              -0.000010411              -0.000133695               0.999999999              -0.000016702              -0.000147944               0.999999999              -0.000023566              -0.000163601               0.999999999              -0.000030590              -0.000180163               0.999999999              -0.000037734              -0.000197677               0.999999999              -0.000045218              -0.000216385               0.999999999              -0.000053078              -0.000236643               0.999999999              -0.000061601              -0.000258262               0.999999999              -0.000070850              -0.000280888               0.999999999              -0.000080632              -0.000304357               0.999999999              -0.000090789              -0.000328535               0.999999999               0.000004140              -0.000114958               0.999999999               0.000008344              -0.000106689               0.999999999               0.000007563              -0.000106522               0.999999999               0.000004914              -0.000110867               0.999999999               0.000001421              -0.000118032               0.999999999              -0.000002616              -0.000127361               0.999999999              -0.000007268              -0.000138484               0.999999999              -0.000012651              -0.000151332               0.999999999              -0.000018620              -0.000165578               0.999999999              -0.000024806              -0.000180924               0.999999999              -0.000031002              -0.000197318               0.999999999              -0.000037114              -0.000214814               0.999999999              -0.000043426              -0.000233652               0.999999999              -0.000050374              -0.000253785               0.999999999              -0.000057905              -0.000275090               0.999999999              -0.000065824              -0.000297517               0.999999999              -0.000074194              -0.000320823               0.999999999               0.000003256              -0.000123745               0.999999999               0.000008145              -0.000116618               0.999999999               0.000007970              -0.000116046               0.999999999               0.000005819              -0.000119499               0.999999999               0.000002903              -0.000125670               0.999999999              -0.000000518              -0.000133942               0.999999999              -0.000004368              -0.000143953               0.999999999              -0.000008867              -0.000155488               0.999999999              -0.000013856              -0.000168435               0.999999999              -0.000019050              -0.000182616               0.999999999              -0.000024365              -0.000197874               0.999999999              -0.000029620              -0.000214193               0.999999999              -0.000034843              -0.000231702               0.999999999              -0.000040278              -0.000250457               0.999999999              -0.000046192              -0.000270417               0.999999999              -0.000052415              -0.000291405               0.999999999              -0.000059053              -0.000313348               0.999999999               0.000002431              -0.000131361               0.999999999               0.000007516              -0.000125754               0.999999999               0.000007880              -0.000125192               0.999999999               0.000006271              -0.000128066               0.999999999               0.000003938              -0.000133443               0.999999999               0.000001215              -0.000140870               0.999999999              -0.000001900              -0.000149910               0.999999999              -0.000005456              -0.000160348               0.999999999              -0.000009454              -0.000172173               0.999999999              -0.000013713              -0.000185224               0.999999999              -0.000018201              -0.000199383               0.999999999              -0.000022674              -0.000214664               0.999999999              -0.000026990              -0.000231025               0.999999999              -0.000031196              -0.000248516               0.999999999              -0.000035640              -0.000267195               0.999999999              -0.000040403              -0.000286930               0.999999999              -0.000045343              -0.000307518               0.999999999               0.000001726              -0.000137774               0.999999999               0.000006530              -0.000133826               0.999999999               0.000007220              -0.000133549               0.999999999               0.000006142              -0.000136134               0.999999999               0.000004413              -0.000141013               0.999999999               0.000002334              -0.000147735               0.999999999              -0.000000010              -0.000156011               0.999999999              -0.000002736              -0.000165589               0.999999999              -0.000005786              -0.000176420               0.999999999              -0.000009226              -0.000188449               0.999999999              -0.000012799              -0.000201692               0.999999999              -0.000016413              -0.000216107               0.999999999              -0.000019873              -0.000231557               0.999999999              -0.000023105              -0.000248080               0.999999999              -0.000026325              -0.000265588               0.999999999              -0.000029750              -0.000284108               0.999999999              -0.000033274              -0.000303547               0.999999999               0.000001153              -0.000142867               0.999999999               0.000005191              -0.000140496               0.999999999               0.000006017              -0.000140690               0.999999999               0.000005376              -0.000143232               0.999999999               0.000004184              -0.000147827               0.999999999               0.000002736              -0.000154082               0.999999999               0.000001085              -0.000161729               0.999999999              -0.000000898              -0.000170654               0.999999999              -0.000003164              -0.000180781               0.999999999              -0.000005629              -0.000192079               0.999999999              -0.000008260              -0.000204624               0.999999999              -0.000010981              -0.000218324               0.999999999              -0.000013580              -0.000233103               0.999999999              -0.000016036              -0.000248860               0.999999999              -0.000018320              -0.000265462               0.999999999              -0.000020505              -0.000282958               0.999999999              -0.000022564              -0.000301498               0.999999999               0.000000685              -0.000146533               0.999999999               0.000003592              -0.000145502               0.999999999               0.000004340              -0.000146190               0.999999999               0.000003999              -0.000148821               0.999999999               0.000003266              -0.000153312               0.999999999               0.000002387              -0.000159254               0.999999999               0.000001303              -0.000166486               0.999999999               0.000000042              -0.000174986               0.999999999              -0.000001425              -0.000184721               0.999999999              -0.000002946              -0.000195644               0.999999999              -0.000004716              -0.000207697               0.999999999              -0.000006587              -0.000220861               0.999999999              -0.000008315              -0.000235115               0.999999999              -0.000009951              -0.000250295               0.999999999              -0.000011407              -0.000266352               0.999999999              -0.000012604              -0.000283274               0.999999999              -0.000013432              -0.000301223               0.999999999               0.000000317              -0.000148777               0.999999999               0.000001841              -0.000148611               0.999999999               0.000002266              -0.000149657               0.999999999               0.000002140              -0.000152417               0.999999999               0.000001807              -0.000156878               0.999999999               0.000001355              -0.000162672               0.999999999               0.000000866              -0.000169700               0.999999999               0.000000211              -0.000177971               0.999999999              -0.000000393              -0.000187489               0.999999999              -0.000001231              -0.000198223               0.999999999              -0.000002132              -0.000210067               0.999999999              -0.000003048              -0.000222965               0.999999999              -0.000003929              -0.000236873               0.999999999              -0.000004681              -0.000251696               0.999999999              -0.000005344              -0.000267464               0.999999999              -0.000005908              -0.000284279               0.999999999              -0.000006157              -0.000302097               0.999999999              -0.000000000              -0.000149546               0.999999999               0.000000000              -0.000149650               0.999999999               0.000000000              -0.000150831               0.999999999              -0.000000000              -0.000153689               0.999999999               0.000000000              -0.000158102               0.999999999               0.000000000              -0.000163873               0.999999999              -0.000000000              -0.000170862               0.999999999              -0.000000000              -0.000179023               0.999999999               0.000000000              -0.000188464               0.999999999               0.000000000              -0.000199146               0.999999999              -0.000000000              -0.000210976               0.999999999              -0.000000000              -0.000223820               0.999999999              -0.000000000              -0.000237513               0.999999999               0.000000000              -0.000252230               0.999999999               0.000000000              -0.000268088               0.999999999               0.000000000              -0.000284867               0.999999999              -0.000000000              -0.000302574               0.999999999              -0.000008876               0.000000000               0.999999999              -0.000002993               0.000000000               0.999999999              -0.000000297               0.000000000               0.999999999               0.000000993               0.000000000               0.999999999               0.000001657               0.000000000               0.999999999               0.000002120               0.000000000               0.999999999               0.000002624               0.000000000               0.999999999               0.000003305              -0.000000000               0.999999999               0.000004236               0.000000000               0.999999999               0.000005529               0.000000000               0.999999999               0.000007310               0.000000000               0.999999999               0.000009557              -0.000000000               0.999999999               0.000012239              -0.000000000               0.999999999               0.000015376              -0.000000000               0.999999999               0.000018932               0.000000000               0.999999999               0.000022952              -0.000000000               0.999999999               0.000027541              -0.000000000               0.999999999              -0.000008818              -0.000014700               0.999999999              -0.000003106              -0.000013256               0.999999999              -0.000000505              -0.000012912               0.999999999               0.000000754              -0.000013129               0.999999999               0.000001490              -0.000013787               0.999999999               0.000002063              -0.000014739               0.999999999               0.000002697              -0.000015968               0.999999999               0.000003541              -0.000017417               0.999999999               0.000004664              -0.000019138               0.999999999               0.000006183              -0.000021168               0.999999999               0.000008160              -0.000023430               0.999999999               0.000010607              -0.000025895               0.999999999               0.000013527              -0.000028390               0.999999999               0.000016846              -0.000030947               0.999999999               0.000020595              -0.000033752               0.999999999               0.000024876              -0.000036770               0.999999999               0.000029668              -0.000040006               0.999999999              -0.000008605              -0.000029231               0.999999999              -0.000003473              -0.000026381               0.999999999              -0.000001136              -0.000025712               0.999999999               0.000000131              -0.000026301               0.999999999               0.000001039              -0.000027658               0.999999999               0.000001909              -0.000029649               0.999999999               0.000002957              -0.000032084               0.999999999               0.000004267              -0.000035049               0.999999999               0.000005927              -0.000038483               0.999999999               0.000008013              -0.000042502               0.999999999               0.000010583              -0.000047057               0.999999999               0.000013610              -0.000051849               0.999999999               0.000017022              -0.000056746               0.999999999               0.000020880              -0.000061757               0.999999999               0.000025177              -0.000067256               0.999999999               0.000029869              -0.000073020               0.999999999               0.000035019              -0.000079097               0.999999999              -0.000008271              -0.000043468               0.999999999              -0.000004046              -0.000039223               0.999999999              -0.000002052              -0.000038388               0.999999999              -0.000000771              -0.000039462               0.999999999               0.000000403              -0.000041675               0.999999999               0.000001775              -0.000044758               0.999999999               0.000003419              -0.000048546               0.999999999               0.000005463              -0.000053015               0.999999999               0.000007908              -0.000058238               0.999999999               0.000010883              -0.000064277               0.999999999               0.000014347              -0.000070946               0.999999999               0.000018169              -0.000077927               0.999999999               0.000022344              -0.000084964               0.999999999               0.000026872              -0.000092329               0.999999999               0.000031806              -0.000100258               0.999999999               0.000037188              -0.000108441               0.999999999               0.000042957              -0.000116949               0.999999999              -0.000007843              -0.000057295               0.999999999              -0.000004776              -0.000051662               0.999999999              -0.000003192              -0.000050867               0.999999999              -0.000001795              -0.000052558               0.999999999              -0.000000172              -0.000055792               0.999999999               0.000001785              -0.000060125               0.999999999               0.000004203              -0.000065327               0.999999999               0.000007087              -0.000071462               0.999999999               0.000010494              -0.000078498               0.999999999               0.000014445              -0.000086584               0.999999999               0.000018815              -0.000095227               0.999999999               0.000023492              -0.000104209               0.999999999               0.000028428              -0.000113303               0.999999999               0.000033724              -0.000122939               0.999999999               0.000039380              -0.000133147               0.999999999               0.000045385              -0.000143673               0.999999999               0.000051784              -0.000154519               0.999999999              -0.000007293              -0.000070531               0.999999999              -0.000005648              -0.000063640               0.999999999              -0.000004372              -0.000063044               0.999999999              -0.000002737              -0.000065540               0.999999999              -0.000000588              -0.000069932               0.999999999               0.000002081              -0.000075599               0.999999999               0.000005279              -0.000082416               0.999999999               0.000009063              -0.000090267               0.999999999               0.000013447              -0.000099360               0.999999999               0.000018359              -0.000109386               0.999999999               0.000023625              -0.000120019               0.999999999               0.000029139              -0.000130851               0.999999999               0.000034883              -0.000141993               0.999999999               0.000041001              -0.000153921               0.999999999               0.000047451              -0.000166405               0.999999999               0.000054262              -0.000179313               0.999999999               0.000061575              -0.000192789               0.999999999              -0.000006660              -0.000083022               0.999999999              -0.000006556              -0.000075101               0.999999999              -0.000005429              -0.000074856               0.999999999              -0.000003436              -0.000078278               0.999999999              -0.000000675              -0.000083910               0.999999999               0.000002687              -0.000091080               0.999999999               0.000006670              -0.000099609               0.999999999               0.000011343              -0.000109466               0.999999999               0.000016640              -0.000120622               0.999999999               0.000022374              -0.000132704               0.999999999               0.000028441              -0.000145223               0.999999999               0.000034748              -0.000158128               0.999999999               0.000041361              -0.000171658               0.999999999               0.000048382              -0.000186038               0.999999999               0.000055804              -0.000201170               0.999999999               0.000063702              -0.000216987               0.999999999               0.000072133              -0.000233484               0.999999999              -0.000005977              -0.000094657               0.999999999              -0.000007370              -0.000085970               0.999999999              -0.000006254              -0.000086195               0.999999999              -0.000003754              -0.000090604               0.999999999              -0.000000376              -0.000097552               0.999999999               0.000003679              -0.000106345               0.999999999               0.000008415              -0.000116759               0.999999999               0.000013864              -0.000128733               0.999999999               0.000019973              -0.000142119               0.999999999               0.000026496              -0.000156293               0.999999999               0.000033220              -0.000171046               0.999999999               0.000040226              -0.000186512               0.999999999               0.000047603              -0.000202905               0.999999999               0.000055366              -0.000220506               0.999999999               0.000063704              -0.000239080               0.999999999               0.000072590              -0.000258435               0.999999999               0.000082002              -0.000278578               0.999999999              -0.000005151              -0.000105187               0.999999999              -0.000008078              -0.000096223               0.999999999              -0.000006737              -0.000096977               0.999999999              -0.000003664              -0.000102407               0.999999999               0.000000301              -0.000110736               0.999999999               0.000004990              -0.000121255               0.999999999               0.000010411              -0.000133695               0.999999999               0.000016702              -0.000147944               0.999999999               0.000023566              -0.000163601               0.999999999               0.000030590              -0.000180163               0.999999999               0.000037734              -0.000197677               0.999999999               0.000045218              -0.000216385               0.999999999               0.000053078              -0.000236643               0.999999999               0.000061601              -0.000258262               0.999999999               0.000070850              -0.000280888               0.999999999               0.000080632              -0.000304357               0.999999999               0.000090789              -0.000328535               0.999999999              -0.000004140              -0.000114958               0.999999999              -0.000008344              -0.000106689               0.999999999              -0.000007563              -0.000106522               0.999999999              -0.000004914              -0.000110867               0.999999999              -0.000001421              -0.000118032               0.999999999               0.000002616              -0.000127361               0.999999999               0.000007268              -0.000138484               0.999999999               0.000012651              -0.000151332               0.999999999               0.000018620              -0.000165578               0.999999999               0.000024806              -0.000180924               0.999999999               0.000031002              -0.000197318               0.999999999               0.000037114              -0.000214814               0.999999999               0.000043426              -0.000233652               0.999999999               0.000050374              -0.000253785               0.999999999               0.000057905              -0.000275090               0.999999999               0.000065824              -0.000297517               0.999999999               0.000074194              -0.000320823               0.999999999              -0.000003256              -0.000123745               0.999999999              -0.000008145              -0.000116618               0.999999999              -0.000007970              -0.000116046               0.999999999              -0.000005819              -0.000119499               0.999999999              -0.000002903              -0.000125670               0.999999999               0.000000518              -0.000133942               0.999999999               0.000004368              -0.000143953               0.999999999               0.000008867              -0.000155488               0.999999999               0.000013856              -0.000168435               0.999999999               0.000019050              -0.000182616               0.999999999               0.000024365              -0.000197874               0.999999999               0.000029620              -0.000214193               0.999999999               0.000034843              -0.000231702               0.999999999               0.000040278              -0.000250457               0.999999999               0.000046192              -0.000270417               0.999999999               0.000052415              -0.000291405               0.999999999               0.000059053              -0.000313348               0.999999999              -0.000002431              -0.000131361               0.999999999              -0.000007516              -0.000125754               0.999999999              -0.000007880              -0.000125192               0.999999999              -0.000006271              -0.000128066               0.999999999              -0.000003938              -0.000133443               0.999999999              -0.000001215              -0.000140870               0.999999999               0.000001900              -0.000149910               0.999999999               0.000005456              -0.000160348               0.999999999               0.000009454              -0.000172173               0.999999999               0.000013713              -0.000185224               0.999999999               0.000018201              -0.000199383               0.999999999               0.000022674              -0.000214664               0.999999999               0.000026990              -0.000231025               0.999999999               0.000031196              -0.000248516               0.999999999               0.000035640              -0.000267195               0.999999999               0.000040403              -0.000286930               0.999999999               0.000045343              -0.000307518               0.999999999              -0.000001726              -0.000137774               0.999999999              -0.000006530              -0.000133826               0.999999999              -0.000007220              -0.000133549               0.999999999              -0.000006142              -0.000136134               0.999999999              -0.000004413              -0.000141013               0.999999999              -0.000002334              -0.000147735               0.999999999               0.000000010              -0.000156011               0.999999999               0.000002736              -0.000165589               0.999999999               0.000005786              -0.000176420               0.999999999               0.000009226              -0.000188449               0.999999999               0.000012799              -0.000201692               0.999999999               0.000016413              -0.000216107               0.999999999               0.000019873              -0.000231557               0.999999999               0.000023105              -0.000248080               0.999999999               0.000026325              -0.000265588               0.999999999               0.000029750              -0.000284108               0.999999999               0.000033274              -0.000303547               0.999999999              -0.000001153              -0.000142867               0.999999999              -0.000005191              -0.000140496               0.999999999              -0.000006017              -0.000140690               0.999999999              -0.000005376              -0.000143232               0.999999999              -0.000004184              -0.000147827               0.999999999              -0.000002736              -0.000154082               0.999999999              -0.000001085              -0.000161729               0.999999999               0.000000898              -0.000170654               0.999999999               0.000003164              -0.000180781               0.999999999               0.000005629              -0.000192079               0.999999999               0.000008260              -0.000204624               0.999999999               0.000010981              -0.000218324               0.999999999               0.000013580              -0.000233103               0.999999999               0.000016036              -0.000248860               0.999999999               0.000018320              -0.000265462               0.999999999               0.000020505              -0.000282958               0.999999999               0.000022564              -0.000301498               0.999999999              -0.000000685              -0.000146533               0.999999999              -0.000003592              -0.000145502               0.999999999              -0.000004340              -0.000146190               0.999999999              -0.000003999              -0.000148821               0.999999999              -0.000003266              -0.000153312               0.999999999              -0.000002387              -0.000159254               0.999999999              -0.000001303              -0.000166486               0.999999999              -0.000000042              -0.000174986               0.999999999               0.000001425              -0.000184721               0.999999999               0.000002946              -0.000195644               0.999999999               0.000004716              -0.000207697               0.999999999               0.000006587              -0.000220861               0.999999999               0.000008315              -0.000235115               0.999999999               0.000009951              -0.000250295               0.999999999               0.000011407              -0.000266352               0.999999999               0.000012604              -0.000283274               0.999999999               0.000013432              -0.000301223               0.999999999              -0.000000317              -0.000148777               0.999999999              -0.000001841              -0.000148611               0.999999999              -0.000002266              -0.000149657               0.999999999              -0.000002140              -0.000152417               0.999999999              -0.000001807              -0.000156878               0.999999999              -0.000001355              -0.000162672               0.999999999              -0.000000866              -0.000169700               0.999999999              -0.000000211              -0.000177971               0.999999999               0.000000393              -0.000187489               0.999999999               0.000001231              -0.000198223               0.999999999               0.000002132              -0.000210067               0.999999999               0.000003048              -0.000222965               0.999999999               0.000003929              -0.000236873               0.999999999               0.000004681              -0.000251696               0.999999999               0.000005344              -0.000267464               0.999999999               0.000005908              -0.000284279               0.999999999               0.000006157              -0.000302097               0.999999999              -0.000000000              -0.000149546               0.999999999               0.000000000              -0.000149650               0.999999999               0.000000000              -0.000150831               0.999999999              -0.000000000              -0.000153689               0.999999999               0.000000000              -0.000158102               0.999999999               0.000000000              -0.000163873               0.999999999              -0.000000000              -0.000170862               0.999999999              -0.000000000              -0.000179023               0.999999999               0.000000000              -0.000188464               0.999999999               0.000000000              -0.000199146               0.999999999              -0.000000000              -0.000210976               0.999999999              -0.000000000              -0.000223820               0.999999999              -0.000000000              -0.000237513               0.999999999               0.000000000              -0.000252230               0.999999999               0.000000000              -0.000268088               0.999999999               0.000000000              -0.000284867               0.999999999              -0.000000000              -0.000302574               0.999999999              -0.000008876               0.000000000               0.999999999              -0.000002993               0.000000000               0.999999999              -0.000000297               0.000000000               0.999999999               0.000000993               0.000000000               0.999999999               0.000001657               0.000000000               0.999999999               0.000002120               0.000000000               0.999999999               0.000002624               0.000000000               0.999999999               0.000003305              -0.000000000               0.999999999               0.000004236               0.000000000               0.999999999               0.000005529               0.000000000               0.999999999               0.000007310               0.000000000               0.999999999               0.000009557              -0.000000000               0.999999999               0.000012239              -0.000000000               0.999999999               0.000015376              -0.000000000               0.999999999               0.000018932               0.000000000               0.999999999               0.000022952              -0.000000000               0.999999999               0.000027541              -0.000000000               0.999999999              -0.000008818               0.000014700               0.999999999              -0.000003106               0.000013256               0.999999999              -0.000000505               0.000012912               0.999999999               0.000000754               0.000013129               0.999999999               0.000001490               0.000013787               0.999999999               0.000002063               0.000014739               0.999999999               0.000002697               0.000015968               0.999999999               0.000003541               0.000017417               0.999999999               0.000004664               0.000019138               0.999999999               0.000006183               0.000021168               0.999999999               0.000008160               0.000023430               0.999999999               0.000010607               0.000025895               0.999999999               0.000013527               0.000028390               0.999999999               0.000016846               0.000030947               0.999999999               0.000020595               0.000033752               0.999999999               0.000024876               0.000036770               0.999999999               0.000029668               0.000040006               0.999999999              -0.000008605               0.000029231               0.999999999              -0.000003473               0.000026381               0.999999999              -0.000001136               0.000025712               0.999999999               0.000000131               0.000026301               0.999999999               0.000001039               0.000027658               0.999999999               0.000001909               0.000029649               0.999999999               0.000002957               0.000032084               0.999999999               0.000004267               0.000035049               0.999999999               0.000005927               0.000038483               0.999999999               0.000008013               0.000042502               0.999999999               0.000010583               0.000047057               0.999999999               0.000013610               0.000051849               0.999999999               0.000017022               0.000056746               0.999999999               0.000020880               0.000061757               0.999999999               0.000025177               0.000067256               0.999999999               0.000029869               0.000073020               0.999999999               0.000035019               0.000079097               0.999999999              -0.000008271               0.000043468               0.999999999              -0.000004046               0.000039223               0.999999999              -0.000002052               0.000038388               0.999999999              -0.000000771               0.000039462               0.999999999               0.000000403               0.000041675               0.999999999               0.000001775               0.000044758               0.999999999               0.000003419               0.000048546               0.999999999               0.000005463               0.000053015               0.999999999               0.000007908               0.000058238               0.999999999               0.000010883               0.000064277               0.999999999               0.000014347               0.000070946               0.999999999               0.000018169               0.000077927               0.999999999               0.000022344               0.000084964               0.999999999               0.000026872               0.000092329               0.999999999               0.000031806               0.000100258               0.999999999               0.000037188               0.000108441               0.999999999               0.000042957               0.000116949               0.999999999              -0.000007843               0.000057295               0.999999999              -0.000004776               0.000051662               0.999999999              -0.000003192               0.000050867               0.999999999              -0.000001795               0.000052558               0.999999999              -0.000000172               0.000055792               0.999999999               0.000001785               0.000060125               0.999999999               0.000004203               0.000065327               0.999999999               0.000007087               0.000071462               0.999999999               0.000010494               0.000078498               0.999999999               0.000014445               0.000086584               0.999999999               0.000018815               0.000095227               0.999999999               0.000023492               0.000104209               0.999999999               0.000028428               0.000113303               0.999999999               0.000033724               0.000122939               0.999999999               0.000039380               0.000133147               0.999999999               0.000045385               0.000143673               0.999999999               0.000051784               0.000154519               0.999999999              -0.000007293               0.000070531               0.999999999              -0.000005648               0.000063640               0.999999999              -0.000004372               0.000063044               0.999999999              -0.000002737               0.000065540               0.999999999              -0.000000588               0.000069932               0.999999999               0.000002081               0.000075599               0.999999999               0.000005279               0.000082416               0.999999999               0.000009063               0.000090267               0.999999999               0.000013447               0.000099360               0.999999999               0.000018359               0.000109386               0.999999999               0.000023625               0.000120019               0.999999999               0.000029139               0.000130851               0.999999999               0.000034883               0.000141993               0.999999999               0.000041001               0.000153921               0.999999999               0.000047451               0.000166405               0.999999999               0.000054262               0.000179313               0.999999999               0.000061575               0.000192789               0.999999999              -0.000006660               0.000083022               0.999999999              -0.000006556               0.000075101               0.999999999              -0.000005429               0.000074856               0.999999999              -0.000003436               0.000078278               0.999999999              -0.000000675               0.000083910               0.999999999               0.000002687               0.000091080               0.999999999               0.000006670               0.000099609               0.999999999               0.000011343               0.000109466               0.999999999               0.000016640               0.000120622               0.999999999               0.000022374               0.000132704               0.999999999               0.000028441               0.000145223               0.999999999               0.000034748               0.000158128               0.999999999               0.000041361               0.000171658               0.999999999               0.000048382               0.000186038               0.999999999               0.000055804               0.000201170               0.999999999               0.000063702               0.000216987               0.999999999               0.000072133               0.000233484               0.999999999              -0.000005977               0.000094657               0.999999999              -0.000007370               0.000085970               0.999999999              -0.000006254               0.000086195               0.999999999              -0.000003754               0.000090604               0.999999999              -0.000000376               0.000097552               0.999999999               0.000003679               0.000106345               0.999999999               0.000008415               0.000116759               0.999999999               0.000013864               0.000128733               0.999999999               0.000019973               0.000142119               0.999999999               0.000026496               0.000156293               0.999999999               0.000033220               0.000171046               0.999999999               0.000040226               0.000186512               0.999999999               0.000047603               0.000202905               0.999999999               0.000055366               0.000220506               0.999999999               0.000063704               0.000239080               0.999999999               0.000072590               0.000258435               0.999999999               0.000082002               0.000278578               0.999999999              -0.000005151               0.000105187               0.999999999              -0.000008078               0.000096223               0.999999999              -0.000006737               0.000096977               0.999999999              -0.000003664               0.000102407               0.999999999               0.000000301               0.000110736               0.999999999               0.000004990               0.000121255               0.999999999               0.000010411               0.000133695               0.999999999               0.000016702               0.000147944               0.999999999               0.000023566               0.000163601               0.999999999               0.000030590               0.000180163               0.999999999               0.000037734               0.000197677               0.999999999               0.000045218               0.000216385               0.999999999               0.000053078               0.000236643               0.999999999               0.000061601               0.000258262               0.999999999               0.000070850               0.000280888               0.999999999               0.000080632               0.000304357               0.999999999               0.000090789               0.000328535               0.999999999              -0.000004140               0.000114958               0.999999999              -0.000008344               0.000106689               0.999999999              -0.000007563               0.000106522               0.999999999              -0.000004914               0.000110867               0.999999999              -0.000001421               0.000118032               0.999999999               0.000002616               0.000127361               0.999999999               0.000007268               0.000138484               0.999999999               0.000012651               0.000151332               0.999999999               0.000018620               0.000165578               0.999999999               0.000024806               0.000180924               0.999999999               0.000031002               0.000197318               0.999999999               0.000037114               0.000214814               0.999999999               0.000043426               0.000233652               0.999999999               0.000050374               0.000253785               0.999999999               0.000057905               0.000275090               0.999999999               0.000065824               0.000297517               0.999999999               0.000074194               0.000320823               0.999999999              -0.000003256               0.000123745               0.999999999              -0.000008145               0.000116618               0.999999999              -0.000007970               0.000116046               0.999999999              -0.000005819               0.000119499               0.999999999              -0.000002903               0.000125670               0.999999999               0.000000518               0.000133942               0.999999999               0.000004368               0.000143953               0.999999999               0.000008867               0.000155488               0.999999999               0.000013856               0.000168435               0.999999999               0.000019050               0.000182616               0.999999999               0.000024365               0.000197874               0.999999999               0.000029620               0.000214193               0.999999999               0.000034843               0.000231702               0.999999999               0.000040278               0.000250457               0.999999999               0.000046192               0.000270417               0.999999999               0.000052415               0.000291405               0.999999999               0.000059053               0.000313348               0.999999999              -0.000002431               0.000131361               0.999999999              -0.000007516               0.000125754               0.999999999              -0.000007880               0.000125192               0.999999999              -0.000006271               0.000128066               0.999999999              -0.000003938               0.000133443               0.999999999              -0.000001215               0.000140870               0.999999999               0.000001900               0.000149910               0.999999999               0.000005456               0.000160348               0.999999999               0.000009454               0.000172173               0.999999999               0.000013713               0.000185224               0.999999999               0.000018201               0.000199383               0.999999999               0.000022674               0.000214664               0.999999999               0.000026990               0.000231025               0.999999999               0.000031196               0.000248516               0.999999999               0.000035640               0.000267195               0.999999999               0.000040403               0.000286930               0.999999999               0.000045343               0.000307518               0.999999999              -0.000001726               0.000137774               0.999999999              -0.000006530               0.000133826               0.999999999              -0.000007220               0.000133549               0.999999999              -0.000006142               0.000136134               0.999999999              -0.000004413               0.000141013               0.999999999              -0.000002334               0.000147735               0.999999999               0.000000010               0.000156011               0.999999999               0.000002736               0.000165589               0.999999999               0.000005786               0.000176420               0.999999999               0.000009226               0.000188449               0.999999999               0.000012799               0.000201692               0.999999999               0.000016413               0.000216107               0.999999999               0.000019873               0.000231557               0.999999999               0.000023105               0.000248080               0.999999999               0.000026325               0.000265588               0.999999999               0.000029750               0.000284108               0.999999999               0.000033274               0.000303547               0.999999999              -0.000001153               0.000142867               0.999999999              -0.000005191               0.000140496               0.999999999              -0.000006017               0.000140690               0.999999999              -0.000005376               0.000143232               0.999999999              -0.000004184               0.000147827               0.999999999              -0.000002736               0.000154082               0.999999999              -0.000001085               0.000161729               0.999999999               0.000000898               0.000170654               0.999999999               0.000003164               0.000180781               0.999999999               0.000005629               0.000192079               0.999999999               0.000008260               0.000204624               0.999999999               0.000010981               0.000218324               0.999999999               0.000013580               0.000233103               0.999999999               0.000016036               0.000248860               0.999999999               0.000018320               0.000265462               0.999999999               0.000020505               0.000282958               0.999999999               0.000022564               0.000301498               0.999999999              -0.000000685               0.000146533               0.999999999              -0.000003592               0.000145502               0.999999999              -0.000004340               0.000146190               0.999999999              -0.000003999               0.000148821               0.999999999              -0.000003266               0.000153312               0.999999999              -0.000002387               0.000159254               0.999999999              -0.000001303               0.000166486               0.999999999              -0.000000042               0.000174986               0.999999999               0.000001425               0.000184721               0.999999999               0.000002946               0.000195644               0.999999999               0.000004716               0.000207697               0.999999999               0.000006587               0.000220861               0.999999999               0.000008315               0.000235115               0.999999999               0.000009951               0.000250295               0.999999999               0.000011407               0.000266352               0.999999999               0.000012604               0.000283274               0.999999999               0.000013432               0.000301223               0.999999999              -0.000000317               0.000148777               0.999999999              -0.000001841               0.000148611               0.999999999              -0.000002266               0.000149657               0.999999999              -0.000002140               0.000152417               0.999999999              -0.000001807               0.000156878               0.999999999              -0.000001355               0.000162672               0.999999999              -0.000000866               0.000169700               0.999999999              -0.000000211               0.000177971               0.999999999               0.000000393               0.000187489               0.999999999               0.000001231               0.000198223               0.999999999               0.000002132               0.000210067               0.999999999               0.000003048               0.000222965               0.999999999               0.000003929               0.000236873               0.999999999               0.000004681               0.000251696               0.999999999               0.000005344               0.000267464               0.999999999               0.000005908               0.000284279               0.999999999               0.000006157               0.000302097               0.999999999              -0.000000000               0.000149546               0.999999999               0.000000000               0.000149650               0.999999999              -0.000000000               0.000150831               0.999999999              -0.000000000               0.000153689               0.999999999               0.000000000               0.000158102               0.999999999               0.000000000               0.000163873               0.999999999              -0.000000000               0.000170862               0.999999999              -0.000000000               0.000179023               0.999999999               0.000000000               0.000188464               0.999999999               0.000000000               0.000199146               0.999999999               0.000000000               0.000210976               0.999999999               0.000000000               0.000223820               0.999999999              -0.000000000               0.000237513               0.999999999               0.000000000               0.000252230               0.999999999               0.000000000               0.000268088               0.999999999              -0.000000000               0.000284867               0.999999999              -0.000000000               0.000302574               0.999999999 </DataArray>
<DataArray type="Float64"                                    Name="defo"                                                      NumberOfComponents=" 3" format="ascii">
              0.000008876              -0.000000000               0.999999999               0.000002993              -0.000000000               0.999999999               0.000000297              -0.000000000               0.999999999              -0.000000993               0.000000000               0.999999999              -0.000001657              -0.000000000               0.999999999              -0.000002120              -0.000000000               0.999999999              -0.000002624              -0.000000000               0.999999999              -0.000003305              -0.000000000               0.999999999              -0.000004236               0.000000000               0.999999999              -0.000005529              -0.000000000               0.999999999              -0.000007310              -0.000000000               0.999999999              -0.000009557              -0.000000000               0.999999999              -0.000012239              -0.000000000               0.999999999              -0.000015376               0.000000000               0.999999999              -0.000018932              -0.000000000               0.999999999              -0.000022952              -0.000000000               0.999999999              -0.000027541              -0.000000000               0.999999999               0.000008818               0.000014700               0.999999999               0.000003106               0.000013256               0.999999999               0.000000505               0.000012912               0.999999999              -0.000000754               0.000013129               0.999999999              -0.000001490               0.000013787               0.999999999              -0.000002063               0.000014739               0.999999999              -0.000002697               0.000015968               0.999999999              -0.000003541               0.000017417               0.999999999              -0.000004664               0.000019138               0.999999999              -0.000006183               0.000021168               0.999999999              -0.000008160               0.000023430               0.999999999              -0.000010607               0.000025895               0.999999999              -0.000013527               0.000028390               0.999999999              -0.000016846               0.000030947               0.999999999              -0.000020595               0.000033752               0.999999999              -0.000024876               0.000036770               0.999999999              -0.000029668               0.000040006               0.999999999               0.000008605               0.000029231               0.999999999               0.000003473               0.000026381               0.999999999               0.000001136               0.000025712               0.999999999              -0.000000131               0.000026301               0.999999999              -0.000001039               0.000027658               0.999999999              -0.000001909               0.000029649               0.999999999              -0.000002957               0.000032084               0.999999999              -0.000004267               0.000035049               0.999999999              -0.000005927               0.000038483               0.999999999              -0.000008013               0.000042502               0.999999999              -0.000010583               0.000047057               0.999999999              -0.000013610               0.000051849               0.999999999              -0.000017022               0.000056746               0.999999999              -0.000020880               0.000061757               0.999999999              -0.000025177               0.000067256               0.999999999              -0.000029869               0.000073020               0.999999999              -0.000035019               0.000079097               0.999999999               0.000008271               0.000043468               0.999999999               0.000004046               0.000039223               0.999999999               0.000002052               0.000038388               0.999999999               0.000000771               0.000039462               0.999999999              -0.000000403               0.000041675               0.999999999              -0.000001775               0.000044758               0.999999999              -0.000003419               0.000048546               0.999999999              -0.000005463               0.000053015               0.999999999              -0.000007908               0.000058238               0.999999999              -0.000010883               0.000064277               0.999999999              -0.000014347               0.000070946               0.999999999              -0.000018169               0.000077927               0.999999999              -0.000022344               0.000084964               0.999999999              -0.000026872               0.000092329               0.999999999              -0.000031806               0.000100258               0.999999999              -0.000037188               0.000108441               0.999999999              -0.000042957               0.000116949               0.999999999               0.000007843               0.000057295               0.999999999               0.000004776               0.000051662               0.999999999               0.000003192               0.000050867               0.999999999               0.000001795               0.000052558               0.999999999               0.000000172               0.000055792               0.999999999              -0.000001785               0.000060125               0.999999999              -0.000004203               0.000065327               0.999999999              -0.000007087               0.000071462               0.999999999              -0.000010494               0.000078498               0.999999999              -0.000014445               0.000086584               0.999999999              -0.000018815               0.000095227               0.999999999              -0.000023492               0.000104209               0.999999999              -0.000028428               0.000113303               0.999999999              -0.000033724               0.000122939               0.999999999              -0.000039380               0.000133147               0.999999999              -0.000045385               0.000143673               0.999999999              -0.000051784               0.000154519               0.999999999               0.000007293               0.000070531               0.999999999               0.000005648               0.000063640               0.999999999               0.000004372               0.000063044               0.999999999               0.000002737               0.000065540               0.999999999               0.000000588               0.000069932               0.999999999              -0.000002081               0.000075599               0.999999999              -0.000005279               0.000082416               0.999999999              -0.000009063               0.000090267               0.999999999              -0.000013447               0.000099360               0.999999999              -0.000018359               0.000109386               0.999999999              -0.000023625               0.000120019               0.999999999              -0.000029139               0.000130851               0.999999999              -0.000034883               0.000141993               0.999999999              -0.000041001               0.000153921               0.999999999              -0.000047451               0.000166405               0.999999999              -0.000054262               0.000179313               0.999999999              -0.000061575               0.000192789               0.999999999               0.000006660               0.000083022               0.999999999               0.000006556               0.000075101               0.999999999               0.000005429               0.000074856               0.999999999               0.000003436               0.000078278               0.999999999               0.000000675               0.000083910               0.999999999              -0.000002687               0.000091080               0.999999999              -0.000006670               0.000099609               0.999999999              -0.000011343               0.000109466               0.999999999              -0.000016640               0.000120622               0.999999999              -0.000022374               0.000132704               0.999999999              -0.000028441               0.000145223               0.999999999              -0.000034748               0.000158128               0.999999999              -0.000041361               0.000171658               0.999999999              -0.000048382               0.000186038               0.999999999              -0.000055804               0.000201170               0.999999999              -0.000063702               0.000216987               0.999999999              -0.000072133               0.000233484               0.999999999               0.000005977               0.000094657               0.999999999               0.000007370               0.000085970               0.999999999               0.000006254               0.000086195               0.999999999               0.000003754               0.000090604               0.999999999               0.000000376               0.000097552               0.999999999              -0.000003679               0.000106345               0.999999999              -0.000008415               0.000116759               0.999999999              -0.000013864               0.000128733               0.999999999              -0.000019973               0.000142119               0.999999999              -0.000026496               0.000156293               0.999999999              -0.000033220               0.000171046               0.999999999              -0.000040226               0.000186512               0.999999999              -0.000047603               0.000202905               0.999999999              -0.000055366               0.000220506               0.999999999              -0.000063704               0.000239080               0.999999999              -0.000072590               0.000258435               0.999999999              -0.000082002               0.000278578               0.999999999               0.000005151               0.000105187               0.999999999               0.000008078               0.000096223               0.999999999               0.000006737               0.000096977               0.999999999               0.000003664               0.000102407               0.999999999              -0.000000301               0.000110736               0.999999999              -0.000004990               0.000121255               0.999999999              -0.000010411               0.000133695               0.999999999              -0.000016702               0.000147944               0.999999999              -0.000023566               0.000163601               0.999999999              -0.000030590               0.000180163               0.999999999              -0.000037734               0.000197677               0.999999999              -0.000045218               0.000216385               0.999999999              -0.000053078               0.000236643               0.999999999              -0.000061601               0.000258262               0.999999999              -0.000070850               0.000280888               0.999999999              -0.000080632               0.000304357               0.999999999              -0.000090789               0.000328535               0.999999999               0.000004140               0.000114958               0.999999999               0.000008344               0.000106689               0.999999999               0.000007563               0.000106522               0.999999999               0.000004914               0.000110867               0.999999999               0.000001421               0.000118032               0.999999999              -0.000002616               0.000127361               0.999999999              -0.000007268               0.000138484               0.999999999              -0.000012651               0.000151332               0.999999999              -0.000018620               0.000165578               0.999999999              -0.000024806               0.000180924               0.999999999              -0.000031002               0.000197318               0.999999999              -0.000037114               0.000214814               0.999999999              -0.000043426               0.000233652               0.999999999              -0.000050374               0.000253785               0.999999999              -0.000057905               0.000275090               0.999999999              -0.000065824               0.000297517               0.999999999              -0.000074194               0.000320823               0.999999999               0.000003256               0.000123745               0.999999999               0.000008145               0.000116618               0.999999999               0.000007970               0.000116046               0.999999999               0.000005819               0.000119499               0.999999999               0.000002903               0.000125670               0.999999999              -0.000000518               0.000133942               0.999999999              -0.000004368               0.000143953               0.999999999              -0.000008867               0.000155488               0.999999999              -0.000013856               0.000168435               0.999999999              -0.000019050               0.000182616               0.999999999              -0.000024365               0.000197874               0.999999999              -0.000029620               0.000214193               0.999999999              -0.000034843               0.000231702               0.999999999              -0.000040278               0.000250457               0.999999999              -0.000046192               0.000270417               0.999999999              -0.000052415               0.000291405               0.999999999              -0.000059053               0.000313348               0.999999999               0.000002431               0.000131361               0.999999999               0.000007516               0.000125754               0.999999999               0.000007880               0.000125192               0.999999999               0.000006271               0.000128066               0.999999999               0.000003938               0.000133443               0.999999999               0.000001215               0.000140870               0.999999999              -0.000001900               0.000149910               0.999999999              -0.000005456               0.000160348               0.999999999              -0.000009454               0.000172173               0.999999999              -0.000013713               0.000185224               0.999999999              -0.000018201               0.000199383               0.999999999              -0.000022674               0.000214664               0.999999999              -0.000026990               0.000231025               0.999999999              -0.000031196               0.000248516               0.999999999              -0.000035640               0.000267195               0.999999999              -0.000040403               0.000286930               0.999999999              -0.000045343               0.000307518               0.999999999               0.000001726               0.000137774               0.999999999               0.000006530               0.000133826               0.999999999               0.000007220               0.000133549               0.999999999               0.000006142               0.000136134               0.999999999               0.000004413               0.000141013               0.999999999               0.000002334               0.000147735               0.999999999              -0.000000010               0.000156011               0.999999999              -0.000002736               0.000165589               0.999999999              -0.000005786               0.000176420               0.999999999              -0.000009226               0.000188449               0.999999999              -0.000012799               0.000201692               0.999999999              -0.000016413               0.000216107               0.999999999              -0.000019873               0.000231557               0.999999999              -0.000023105               0.000248080               0.999999999              -0.000026325               0.000265588               0.999999999              -0.000029750               0.000284108               0.999999999              -0.000033274               0.000303547               0.999999999               0.000001153               0.000142867               0.999999999               0.000005191               0.000140496               0.999999999               0.000006017               0.000140690               0.999999999               0.000005376               0.000143232               0.999999999               0.000004184               0.000147827               0.999999999               0.000002736               0.000154082               0.999999999               0.000001085               0.000161729               0.999999999              -0.000000898               0.000170654               0.999999999              -0.000003164               0.000180781               0.999999999              -0.000005629               0.000192079               0.999999999              -0.000008260               0.000204624               0.999999999              -0.000010981               0.000218324               0.999999999              -0.000013580               0.000233103               0.999999999              -0.000016036               0.000248860               0.999999999              -0.000018320               0.000265462               0.999999999              -0.000020505               0.000282958               0.999999999              -0.000022564               0.000301498               0.999999999               0.000000685               0.000146533               0.999999999               0.000003592               0.000145502               0.999999999               0.000004340               0.000146190               0.999999999               0.000003999               0.000148821               0.999999999               0.000003266               0.000153312               0.999999999               0.000002387               0.000159254               0.999999999               0.000001303               0.000166486               0.999999999               0.000000042               0.000174986               0.999999999              -0.000001425               0.000184721               0.999999999              -0.000002946               0.000195644               0.999999999              -0.000004716               0.000207697               0.999999999              -0.000006587               0.000220861               0.999999999              -0.000008315               0.000235115               0.999999999              -0.000009951               0.000250295               0.999999999              -0.000011407               0.000266352               0.999999999              -0.000012604               0.000283274               0.999999999              -0.000013432               0.000301223               0.999999999               0.000000317               0.000148777               0.999999999               0.000001841               0.000148611               0.999999999               0.000002266               0.000149657               0.999999999               0.000002140               0.000152417               0.999999999               0.000001807               0.000156878               0.999999999               0.000001355               0.000162672               0.999999999               0.000000866               0.000169700               0.999999999               0.000000211               0.000177971               0.999999999              -0.000000393               0.000187489               0.999999999              -0.000001231               0.000198223               0.999999999              -0.000002132               0.000210067               0.999999999              -0.000003048               0.000222965               0.999999999              -0.000003929               0.000236873               0.999999999              -0.000004681               0.000251696               0.999999999              -0.000005344               0.000267464               0.999999999              -0.000005908               0.000284279               0.999999999              -0.000006157               0.000302097               0.999999999              -0.000000000               0.000149546               0.999999999               0.000000000               0.000149650               0.999999999              -0.000000000               0.000150831               0.999999999              -0.000000000               0.000153689               0.999999999               0.000000000               0.000158102               0.999999999               0.000000000               0.000163873               0.999999999              -0.000000000               0.000170862               0.999999999              -0.000000000               0.000179023               0.999999999               0.000000000               0.000188464               0.999999999               0.000000000               0.000199146               0.999999999               0.000000000               0.000210976               0.999999999               0.000000000               0.000223820               0.999999999              -0.000000000               0.000237513               0.999999999               0.000000000               0.000252230               0.999999999               0.000000000               0.000268088               0.999999999              -0.000000000               0.000284867               0.999999999              -0.000000000               0.000302574               0.999999999               0.000008876              -0.000000000               0.999999999               0.000002993              -0.000000000               0.999999999               0.000000297              -0.000000000               0.999999999              -0.000000993               0.000000000               0.999999999              -0.000001657              -0.000000000               0.999999999              -0.000002120              -0.000000000               0.999999999              -0.000002624              -0.000000000               0.999999999              -0.000003305              -0.000000000               0.999999999              -0.000004236               0.000000000               0.999999999              -0.000005529              -0.000000000               0.999999999              -0.000007310              -0.000000000               0.999999999              -0.000009557              -0.000000000               0.999999999              -0.000012239              -0.000000000               0.999999999              -0.000015376               0.000000000               0.999999999              -0.000018932              -0.000000000               0.999999999              -0.000022952              -0.000000000               0.999999999              -0.000027541              -0.000000000               0.999999999               0.000008818              -0.000014700               0.999999999               0.000003106              -0.000013256               0.999999999               0.000000505              -0.000012912               0.999999999              -0.000000754              -0.000013129               0.999999999              -0.000001490              -0.000013787               0.999999999              -0.000002063              -0.000014739               0.999999999              -0.000002697              -0.000015968               0.999999999              -0.000003541              -0.000017417               0.999999999              -0.000004664              -0.000019138               0.999999999              -0.000006183              -0.000021168               0.999999999              -0.000008160              -0.000023430               0.999999999              -0.000010607              -0.000025895               0.999999999              -0.000013527              -0.000028390               0.999999999              -0.000016846              -0.000030947               0.999999999              -0.000020595              -0.000033752               0.999999999              -0.000024876              -0.000036770               0.999999999              -0.000029668              -0.000040006               0.999999999               0.000008605              -0.000029231               0.999999999               0.000003473              -0.000026381               0.999999999               0.000001136              -0.000025712               0.999999999              -0.000000131              -0.000026301               0.999999999              -0.000001039              -0.000027658               0.999999999              -0.000001909              -0.000029649               0.999999999              -0.000002957              -0.000032084               0.999999999              -0.000004267              -0.000035049               0.999999999              -0.000005927              -0.000038483               0.999999999              -0.000008013              -0.000042502               0.999999999              -0.000010583              -0.000047057               0.999999999              -0.000013610              -0.000051849               0.999999999              -0.000017022              -0.000056746               0.999999999              -0.000020880              -0.000061757               0.999999999              -0.000025177              -0.000067256               0.999999999              -0.000029869              -0.000073020               0.999999999              -0.000035019              -0.000079097               0.999999999               0.000008271              -0.000043468               0.999999999               0.000004046              -0.000039223               0.999999999               0.000002052              -0.000038388               0.999999999               0.000000771              -0.000039462               0.999999999              -0.000000403              -0.000041675               0.999999999              -0.000001775              -0.000044758               0.999999999              -0.000003419              -0.000048546               0.999999999              -0.000005463              -0.000053015               0.999999999              -0.000007908              -0.000058238               0.999999999              -0.000010883              -0.000064277               0.999999999              -0.000014347              -0.000070946               0.999999999              -0.000018169              -0.000077927               0.999999999              -0.000022344              -0.000084964               0.999999999              -0.000026872              -0.000092329               0.999999999              -0.000031806              -0.000100258               0.999999999              -0.000037188              -0.000108441               0.999999999              -0.000042957              -0.000116949               0.999999999               0.000007843              -0.000057295               0.999999999               0.000004776              -0.000051662               0.999999999               0.000003192              -0.000050867               0.999999999               0.000001795              -0.000052558               0.999999999               0.000000172              -0.000055792               0.999999999              -0.000001785              -0.000060125               0.999999999              -0.000004203              -0.000065327               0.999999999              -0.000007087              -0.000071462               0.999999999              -0.000010494              -0.000078498               0.999999999              -0.000014445              -0.000086584               0.999999999              -0.000018815              -0.000095227               0.999999999              -0.000023492              -0.000104209               0.999999999              -0.000028428              -0.000113303               0.999999999              -0.000033724              -0.000122939               0.999999999              -0.000039380              -0.000133147               0.999999999              -0.000045385              -0.000143673               0.999999999              -0.000051784              -0.000154519               0.999999999               0.000007293              -0.000070531               0.999999999               0.000005648              -0.000063640               0.999999999               0.000004372              -0.000063044               0.999999999               0.000002737              -0.000065540               0.999999999               0.000000588              -0.000069932               0.999999999              -0.000002081              -0.000075599               0.999999999              -0.000005279              -0.000082416               0.999999999              -0.000009063              -0.000090267               0.999999999              -0.000013447              -0.000099360               0.999999999              -0.000018359              -0.000109386               0.999999999              -0.000023625              -0.000120019               0.999999999              -0.000029139              -0.000130851               0.999999999              -0.000034883              -0.000141993               0.999999999              -0.000041001              -0.000153921               0.999999999              -0.000047451              -0.000166405               0.999999999              -0.000054262              -0.000179313               0.999999999              -0.000061575              -0.000192789               0.999999999               0.000006660              -0.000083022               0.999999999               0.000006556              -0.000075101               0.999999999               0.000005429              -0.000074856               0.999999999               0.000003436              -0.000078278               0.999999999               0.000000675              -0.000083910               0.999999999              -0.000002687              -0.000091080               0.999999999              -0.000006670              -0.000099609               0.999999999              -0.000011343              -0.000109466               0.999999999              -0.000016640              -0.000120622               0.999999999              -0.000022374              -0.000132704               0.999999999              -0.000028441              -0.000145223               0.999999999              -0.000034748              -0.000158128               0.999999999              -0.000041361              -0.000171658               0.999999999              -0.000048382              -0.000186038               0.999999999              -0.000055804              -0.000201170               0.999999999              -0.000063702              -0.000216987               0.999999999              -0.000072133              -0.000233484               0.999999999               0.000005977              -0.000094657               0.999999999               0.000007370              -0.000085970               0.999999999               0.000006254              -0.000086195               0.999999999               0.000003754              -0.000090604               0.999999999               0.000000376              -0.000097552               0.999999999              -0.000003679              -0.000106345               0.999999999              -0.000008415              -0.000116759               0.999999999              -0.000013864              -0.000128733               0.999999999              -0.000019973              -0.000142119               0.999999999              -0.000026496              -0.000156293               0.999999999              -0.000033220              -0.000171046               0.999999999              -0.000040226              -0.000186512               0.999999999              -0.000047603              -0.000202905               0.999999999              -0.000055366              -0.000220506               0.999999999              -0.000063704              -0.000239080               0.999999999              -0.000072590              -0.000258435               0.999999999              -0.000082002              -0.000278578               0.999999999               0.000005151              -0.000105187               0.999999999               0.000008078              -0.000096223               0.999999999               0.000006737              -0.000096977               0.999999999               0.000003664              -0.000102407               0.999999999              -0.000000301              -0.000110736               0.999999999              -0.000004990              -0.000121255               0.999999999              -0.000010411              -0.000133695               0.999999999              -0.000016702              -0.000147944               0.999999999              -0.000023566              -0.000163601               0.999999999              -0.000030590              -0.000180163               0.999999999              -0.000037734              -0.000197677               0.999999999              -0.000045218              -0.000216385               0.999999999              -0.000053078              -0.000236643               0.999999999              -0.000061601              -0.000258262               0.999999999              -0.000070850              -0.000280888               0.999999999              -0.000080632              -0.000304357               0.999999999              -0.000090789              -0.000328535               0.999999999               0.000004140              -0.000114958               0.999999999               0.000008344              -0.000106689               0.999999999               0.000007563              -0.000106522               0.999999999               0.000004914              -0.000110867               0.999999999               0.000001421              -0.000118032               0.999999999              -0.000002616              -0.000127361               0.999999999              -0.000007268              -0.000138484               0.999999999              -0.000012651              -0.000151332               0.999999999              -0.000018620              -0.000165578               0.999999999              -0.000024806              -0.000180924               0.999999999              -0.000031002              -0.000197318               0.999999999              -0.000037114              -0.000214814               0.999999999              -0.000043426              -0.000233652               0.999999999              -0.000050374              -0.000253785               0.999999999              -0.000057905              -0.000275090               0.999999999              -0.000065824              -0.000297517               0.999999999              -0.000074194              -0.000320823               0.999999999               0.000003256              -0.000123745               0.999999999               0.000008145              -0.000116618               0.999999999               0.000007970              -0.000116046               0.999999999               0.000005819              -0.000119499               0.999999999               0.000002903              -0.000125670               0.999999999              -0.000000518              -0.000133942               0.999999999              -0.000004368              -0.000143953               0.999999999              -0.000008867              -0.000155488               0.999999999              -0.000013856              -0.000168435               0.999999999              -0.000019050              -0.000182616               0.999999999              -0.000024365              -0.000197874               0.999999999              -0.000029620              -0.000214193               0.999999999              -0.000034843              -0.000231702               0.999999999              -0.000040278              -0.000250457               0.999999999              -0.000046192              -0.000270417               0.999999999              -0.000052415              -0.000291405               0.999999999              -0.000059053              -0.000313348               0.999999999               0.000002431              -0.000131361               0.999999999               0.000007516              -0.000125754               0.999999999               0.000007880              -0.000125192               0.999999999               0.000006271              -0.000128066               0.999999999               0.000003938              -0.000133443               0.999999999               0.000001215              -0.000140870               0.999999999              -0.000001900              -0.000149910               0.999999999              -0.000005456              -0.000160348               0.999999999              -0.000009454              -0.000172173               0.999999999              -0.000013713              -0.000185224               0.999999999              -0.000018201              -0.000199383               0.999999999              -0.000022674              -0.000214664               0.999999999              -0.000026990              -0.000231025               0.999999999              -0.000031196              -0.000248516               0.999999999              -0.000035640              -0.000267195               0.999999999              -0.000040403              -0.000286930               0.999999999              -0.000045343              -0.000307518               0.999999999               0.000001726              -0.000137774               0.999999999               0.000006530              -0.000133826               0.999999999               0.000007220              -0.000133549               0.999999999               0.000006142              -0.000136134               0.999999999               0.000004413              -0.000141013               0.999999999               0.000002334              -0.000147735               0.999999999              -0.000000010              -0.000156011               0.999999999              -0.000002736              -0.000165589               0.999999999              -0.000005786              -0.000176420               0.999999999              -0.000009226              -0.000188449               0.999999999              -0.000012799              -0.000201692               0.999999999              -0.000016413              -0.000216107               0.999999999              -0.000019873              -0.000231557               0.999999999              -0.000023105              -0.000248080               0.999999999              -0.000026325              -0.000265588               0.999999999              -0.000029750              -0.000284108               0.999999999              -0.000033274              -0.000303547               0.999999999               0.000001153              -0.000142867               0.999999999               0.000005191              -0.000140496               0.999999999               0.000006017              -0.000140690               0.999999999               0.000005376              -0.000143232               0.999999999               0.000004184              -0.000147827               0.999999999               0.000002736              -0.000154082               0.999999999               0.000001085              -0.000161729               0.999999999              -0.000000898              -0.000170654               0.999999999              -0.000003164              -0.000180781               0.999999999              -0.000005629              -0.000192079               0.999999999              -0.000008260              -0.000204624               0.999999999              -0.000010981              -0.000218324               0.999999999              -0.000013580              -0.000233103               0.999999999              -0.000016036              -0.000248860               0.999999999              -0.000018320              -0.000265462               0.999999999              -0.000020505              -0.000282958               0.999999999              -0.000022564              -0.000301498               0.999999999               0.000000685              -0.000146533               0.999999999               0.000003592              -0.000145502               0.999999999               0.000004340              -0.000146190               0.999999999               0.000003999              -0.000148821               0.999999999               0.000003266              -0.000153312               0.999999999               0.000002387              -0.000159254               0.999999999               0.000001303              -0.000166486               0.999999999               0.000000042              -0.000174986               0.999999999              -0.000001425              -0.000184721               0.999999999              -0.000002946              -0.000195644               0.999999999              -0.000004716              -0.000207697               0.999999999              -0.000006587              -0.000220861               0.999999999              -0.000008315              -0.000235115               0.999999999              -0.000009951              -0.000250295               0.999999999              -0.000011407              -0.000266352               0.999999999              -0.000012604              -0.000283274               0.999999999              -0.000013432              -0.000301223               0.999999999               0.000000317              -0.000148777               0.999999999               0.000001841              -0.000148611               0.999999999               0.000002266              -0.000149657               0.999999999               0.000002140              -0.000152417               0.999999999               0.000001807              -0.000156878               0.999999999               0.000001355              -0.000162672               0.999999999               0.000000866              -0.000169700               0.999999999               0.000000211              -0.000177971               0.999999999              -0.000000393              -0.000187489               0.999999999              -0.000001231              -0.000198223               0.999999999              -0.000002132              -0.000210067               0.999999999              -0.000003048              -0.000222965               0.999999999              -0.000003929              -0.000236873               0.999999999              -0.000004681              -0.000251696               0.999999999              -0.000005344              -0.000267464               0.999999999              -0.000005908              -0.000284279               0.999999999              -0.000006157              -0.000302097               0.999999999              -0.000000000              -0.000149546               0.999999999               0.000000000              -0.000149650               0.999999999               0.000000000              -0.000150831               0.999999999              -0.000000000              -0.000153689               0.999999999               0.000000000              -0.000158102               0.999999999               0.000000000              -0.000163873               0.999999999              -0.000000000              -0.000170862               0.999999999              -0.000000000              -0.000179023               0.999999999               0.000000000              -0.000188464               0.999999999               0.000000000              -0.000199146               0.999999999              -0.000000000              -0.000210976               0.999999999              -0.000000000              -0.000223820               0.999999999              -0.000000000              -0.000237513               0.999999999               0.000000000              -0.000252230               0.999999999               0.000000000              -0.000268088               0.999999999               0.000000000              -0.000284867               0.999999999              -0.000000000              -0.000302574               0.999999999              -0.000008876               0.000000000               0.999999999              -0.000002993               0.000000000               0.999999999              -0.000000297               0.000000000               0.999999999               0.000000993               0.000000000               0.999999999               0.000001657               0.000000000               0.999999999               0.000002120               0.000000000               0.999999999               0.000002624               0.000000000               0.999999999               0.000003305              -0.000000000               0.999999999               0.000004236               0.000000000               0.999999999               0.000005529               0.000000000               0.999999999               0.000007310               0.000000000               0.999999999               0.000009557              -0.000000000               0.999999999               0.000012239              -0.000000000               0.999999999               0.000015376              -0.000000000               0.999999999               0.000018932               0.000000000               0.999999999               0.000022952              -0.000000000               0.999999999               0.000027541              -0.000000000               0.999999999              -0.000008818              -0.000014700               0.999999999              -0.000003106              -0.000013256               0.999999999              -0.000000505              -0.000012912               0.999999999               0.000000754              -0.000013129               0.999999999               0.000001490              -0.000013787               0.999999999               0.000002063              -0.000014739               0.999999999               0.000002697              -0.000015968               0.999999999               0.000003541              -0.000017417               0.999999999               0.000004664              -0.000019138               0.999999999               0.000006183              -0.000021168               0.999999999               0.000008160              -0.000023430               0.999999999               0.000010607              -0.000025895               0.999999999               0.000013527              -0.000028390               0.999999999               0.000016846              -0.000030947               0.999999999               0.000020595              -0.000033752               0.999999999               0.000024876              -0.000036770               0.999999999               0.000029668              -0.000040006               0.999999999              -0.000008605              -0.000029231               0.999999999              -0.000003473              -0.000026381               0.999999999              -0.000001136              -0.000025712               0.999999999               0.000000131              -0.000026301               0.999999999               0.000001039              -0.000027658               0.999999999               0.000001909              -0.000029649               0.999999999               0.000002957              -0.000032084               0.999999999               0.000004267              -0.000035049               0.999999999               0.000005927              -0.000038483               0.999999999               0.000008013              -0.000042502               0.999999999               0.000010583              -0.000047057               0.999999999               0.000013610              -0.000051849               0.999999999               0.000017022              -0.000056746               0.999999999               0.000020880              -0.000061757               0.999999999               0.000025177              -0.000067256               0.999999999               0.000029869              -0.000073020               0.999999999               0.000035019              -0.000079097               0.999999999              -0.000008271              -0.000043468               0.999999999              -0.000004046              -0.000039223               0.999999999              -0.000002052              -0.000038388               0.999999999              -0.000000771              -0.000039462               0.999999999               0.000000403              -0.000041675               0.999999999               0.000001775              -0.000044758               0.999999999               0.000003419              -0.000048546               0.999999999               0.000005463              -0.000053015               0.999999999               0.000007908              -0.000058238               0.999999999               0.000010883              -0.000064277               0.999999999               0.000014347              -0.000070946               0.999999999               0.000018169              -0.000077927               0.999999999               0.000022344              -0.000084964               0.999999999               0.000026872              -0.000092329               0.999999999               0.000031806              -0.000100258               0.999999999               0.000037188              -0.000108441               0.999999999               0.000042957              -0.000116949               0.999999999              -0.000007843              -0.000057295               0.999999999              -0.000004776              -0.000051662               0.999999999              -0.000003192              -0.000050867               0.999999999              -0.000001795              -0.000052558               0.999999999              -0.000000172              -0.000055792               0.999999999               0.000001785              -0.000060125               0.999999999               0.000004203              -0.000065327               0.999999999               0.000007087              -0.000071462               0.999999999               0.000010494              -0.000078498               0.999999999               0.000014445              -0.000086584               0.999999999               0.000018815              -0.000095227               0.999999999               0.000023492              -0.000104209               0.999999999               0.000028428              -0.000113303               0.999999999               0.000033724              -0.000122939               0.999999999               0.000039380              -0.000133147               0.999999999               0.000045385              -0.000143673               0.999999999               0.000051784              -0.000154519               0.999999999              -0.000007293              -0.000070531               0.999999999              -0.000005648              -0.000063640               0.999999999              -0.000004372              -0.000063044               0.999999999              -0.000002737              -0.000065540               0.999999999              -0.000000588              -0.000069932               0.999999999               0.000002081              -0.000075599               0.999999999               0.000005279              -0.000082416               0.999999999               0.000009063              -0.000090267               0.999999999               0.000013447              -0.000099360               0.999999999               0.000018359              -0.000109386               0.999999999               0.000023625              -0.000120019               0.999999999               0.000029139              -0.000130851               0.999999999               0.000034883              -0.000141993               0.999999999               0.000041001              -0.000153921               0.999999999               0.000047451              -0.000166405               0.999999999               0.000054262              -0.000179313               0.999999999               0.000061575              -0.000192789               0.999999999              -0.000006660              -0.000083022               0.999999999              -0.000006556              -0.000075101               0.999999999              -0.000005429              -0.000074856               0.999999999              -0.000003436              -0.000078278               0.999999999              -0.000000675              -0.000083910               0.999999999               0.000002687              -0.000091080               0.999999999               0.000006670              -0.000099609               0.999999999               0.000011343              -0.000109466               0.999999999               0.000016640              -0.000120622               0.999999999               0.000022374              -0.000132704               0.999999999               0.000028441              -0.000145223               0.999999999               0.000034748              -0.000158128               0.999999999               0.000041361              -0.000171658               0.999999999               0.000048382              -0.000186038               0.999999999               0.000055804              -0.000201170               0.999999999               0.000063702              -0.000216987               0.999999999               0.000072133              -0.000233484               0.999999999              -0.000005977              -0.000094657               0.999999999              -0.000007370              -0.000085970               0.999999999              -0.000006254              -0.000086195               0.999999999              -0.000003754              -0.000090604               0.999999999              -0.000000376              -0.000097552               0.999999999               0.000003679              -0.000106345               0.999999999               0.000008415              -0.000116759               0.999999999               0.000013864              -0.000128733               0.999999999               0.000019973              -0.000142119               0.999999999               0.000026496              -0.000156293               0.999999999               0.000033220              -0.000171046               0.999999999               0.000040226              -0.000186512               0.999999999               0.000047603              -0.000202905               0.999999999               0.000055366              -0.000220506               0.999999999               0.000063704              -0.000239080               0.999999999               0.000072590              -0.000258435               0.999999999               0.000082002              -0.000278578               0.999999999              -0.000005151              -0.000105187               0.999999999              -0.000008078              -0.000096223               0.999999999              -0.000006737              -0.000096977               0.999999999              -0.000003664              -0.000102407               0.999999999               0.000000301              -0.000110736               0.999999999               0.000004990              -0.000121255               0.999999999               0.000010411              -0.000133695               0.999999999               0.000016702              -0.000147944               0.999999999               0.000023566              -0.000163601               0.999999999               0.000030590              -0.000180163               0.999999999               0.000037734              -0.000197677               0.999999999               0.000045218              -0.000216385               0.999999999               0.000053078              -0.000236643               0.999999999               0.000061601              -0.000258262               0.999999999               0.000070850              -0.000280888               0.999999999               0.000080632              -0.000304357               0.999999999               0.000090789              -0.000328535               0.999999999              -0.000004140              -0.000114958               0.999999999              -0.000008344              -0.000106689               0.999999999              -0.000007563              -0.000106522               0.999999999              -0.000004914              -0.000110867               0.999999999              -0.000001421              -0.000118032               0.999999999               0.000002616              -0.000127361               0.999999999               0.000007268              -0.000138484               0.999999999               0.000012651              -0.000151332               0.999999999               0.000018620              -0.000165578               0.999999999               0.000024806              -0.000180924               0.999999999               0.000031002              -0.000197318               0.999999999               0.000037114              -0.000214814               0.999999999               0.000043426              -0.000233652               0.999999999               0.000050374              -0.000253785               0.999999999               0.000057905              -0.000275090               0.999999999               0.000065824              -0.000297517               0.999999999               0.000074194              -0.000320823               0.999999999              -0.000003256              -0.000123745               0.999999999              -0.000008145              -0.000116618               0.999999999              -0.000007970              -0.000116046               0.999999999              -0.000005819              -0.000119499               0.999999999              -0.000002903              -0.000125670               0.999999999               0.000000518              -0.000133942               0.999999999               0.000004368              -0.000143953               0.999999999               0.000008867              -0.000155488               0.999999999               0.000013856              -0.000168435               0.999999999               0.000019050              -0.000182616               0.999999999               0.000024365              -0.000197874               0.999999999               0.000029620              -0.000214193               0.999999999               0.000034843              -0.000231702               0.999999999               0.000040278              -0.000250457               0.999999999               0.000046192              -0.000270417               0.999999999               0.000052415              -0.000291405               0.999999999               0.000059053              -0.000313348               0.999999999              -0.000002431              -0.000131361               0.999999999              -0.000007516              -0.000125754               0.999999999              -0.000007880              -0.000125192               0.999999999              -0.000006271              -0.000128066               0.999999999              -0.000003938              -0.000133443               0.999999999              -0.000001215              -0.000140870               0.999999999               0.000001900              -0.000149910               0.999999999               0.000005456              -0.000160348               0.999999999               0.000009454              -0.000172173               0.999999999               0.000013713              -0.000185224               0.999999999               0.000018201              -0.000199383               0.999999999               0.000022674              -0.000214664               0.999999999               0.000026990              -0.000231025               0.999999999               0.000031196              -0.000248516               0.999999999               0.000035640              -0.000267195               0.999999999               0.000040403              -0.000286930               0.999999999               0.000045343              -0.000307518               0.999999999              -0.000001726              -0.000137774               0.999999999              -0.000006530              -0.000133826               0.999999999              -0.000007220              -0.000133549               0.999999999              -0.000006142              -0.000136134               0.999999999              -0.000004413              -0.000141013               0.999999999              -0.000002334              -0.000147735               0.999999999               0.000000010              -0.000156011               0.999999999               0.000002736              -0.000165589               0.999999999               0.000005786              -0.000176420               0.999999999               0.000009226              -0.000188449               0.999999999               0.000012799              -0.000201692               0.999999999               0.000016413              -0.000216107               0.999999999               0.000019873              -0.000231557               0.999999999               0.000023105              -0.000248080               0.999999999               0.000026325              -0.000265588               0.999999999               0.000029750              -0.000284108               0.999999999               0.000033274              -0.000303547               0.999999999              -0.000001153              -0.000142867               0.999999999              -0.000005191              -0.000140496               0.999999999              -0.000006017              -0.000140690               0.999999999              -0.000005376              -0.000143232               0.999999999              -0.000004184              -0.000147827               0.999999999              -0.000002736              -0.000154082               0.999999999              -0.000001085              -0.000161729               0.999999999               0.000000898              -0.000170654               0.999999999               0.000003164              -0.000180781               0.999999999               0.000005629              -0.000192079               0.999999999               0.000008260              -0.000204624               0.999999999               0.000010981              -0.000218324               0.999999999               0.000013580              -0.000233103               0.999999999               0.000016036              -0.000248860               0.999999999               0.000018320              -0.000265462               0.999999999               0.000020505              -0.000282958               0.999999999               0.000022564              -0.000301498               0.999999999              -0.000000685              -0.000146533               0.999999999              -0.000003592              -0.000145502               0.999999999              -0.000004340              -0.000146190               0.999999999              -0.000003999              -0.000148821               0.999999999              -0.000003266              -0.000153312               0.999999999              -0.000002387              -0.000159254               0.999999999              -0.000001303              -0.000166486               0.999999999              -0.000000042              -0.000174986               0.999999999               0.000001425              -0.000184721               0.999999999               0.000002946              -0.000195644               0.999999999               0.000004716              -0.000207697               0.999999999               0.000006587              -0.000220861               0.999999999               0.000008315              -0.000235115               0.999999999               0.000009951              -0.000250295               0.999999999               0.000011407              -0.000266352               0.999999999               0.000012604              -0.000283274               0.999999999               0.000013432              -0.000301223               0.999999999              -0.000000317              -0.000148777               0.999999999              -0.000001841              -0.000148611               0.999999999              -0.000002266              -0.000149657               0.999999999              -0.000002140              -0.000152417               0.999999999              -0.000001807              -0.000156878               0.999999999              -0.000001355              -0.000162672               0.999999999              -0.000000866              -0.000169700               0.999999999              -0.000000211              -0.000177971               0.999999999               0.000000393              -0.000187489               0.999999999               0.000001231              -0.000198223               0.999999999               0.000002132              -0.000210067               0.999999999               0.000003048              -0.000222965               0.999999999               0.000003929              -0.000236873               0.999999999               0.000004681              -0.000251696               0.999999999               0.000005344              -0.000267464               0.999999999               0.000005908              -0.000284279               0.999999999               0.000006157              -0.000302097               0.999999999              -0.000000000              -0.000149546               0.999999999               0.000000000              -0.000149650               0.999999999               0.000000000              -0.000150831               0.999999999              -0.000000000              -0.000153689               0.999999999               0.000000000              -0.000158102               0.999999999               0.000000000              -0.000163873               0.999999999              -0.000000000              -0.000170862               0.999999999              -0.000000000              -0.000179023               0.999999999               0.000000000              -0.000188464               0.999999999               0.000000000              -0.000199146               0.999999999              -0.000000000              -0.000210976               0.999999999              -0.000000000              -0.000223820               0.999999999              -0.000000000              -0.000237513               0.999999999               0.000000000              -0.000252230               0.999999999               0.000000000              -0.000268088               0.999999999               0.000000000              -0.000284867               0.999999999              -0.000000000              -0.000302574               0.999999999              -0.000008876               0.000000000               0.999999999              -0.000002993               0.000000000               0.999999999              -0.000000297               0.000000000               0.999999999               0.000000993               0.000000000               0.999999999               0.000001657               0.000000000               0.999999999               0.000002120               0.000000000               0.999999999               0.000002624               0.000000000               0.999999999               0.000003305              -0.000000000               0.999999999               0.000004236               0.000000000               0.999999999               0.000005529               0.000000000               0.999999999               0.000007310               0.000000000               0.999999999               0.000009557              -0.000000000               0.999999999               0.000012239              -0.000000000               0.999999999               0.000015376              -0.000000000               0.999999999               0.000018932               0.000000000               0.999999999               0.000022952              -0.000000000               0.999999999               0.000027541              -0.000000000               0.999999999              -0.000008818               0.000014700               0.999999999              -0.000003106               0.000013256               0.999999999              -0.000000505               0.000012912               0.999999999               0.000000754               0.000013129               0.999999999               0.000001490               0.000013787               0.999999999               0.000002063               0.000014739               0.999999999               0.000002697               0.000015968               0.999999999               0.000003541               0.000017417               0.999999999               0.000004664               0.000019138               0.999999999               0.000006183               0.000021168               0.999999999               0.000008160               0.000023430               0.999999999               0.000010607               0.000025895               0.999999999               0.000013527               0.000028390               0.999999999               0.000016846               0.000030947               0.999999999               0.000020595               0.000033752               0.999999999               0.000024876               0.000036770               0.999999999               0.000029668               0.000040006               0.999999999              -0.000008605               0.000029231               0.999999999              -0.000003473               0.000026381               0.999999999              -0.000001136               0.000025712               0.999999999               0.000000131               0.000026301               0.999999999               0.000001039               0.000027658               0.999999999               0.000001909               0.000029649               0.999999999               0.000002957               0.000032084               0.999999999               0.000004267               0.000035049               0.999999999               0.000005927               0.000038483               0.999999999               0.000008013               0.000042502               0.999999999               0.000010583               0.000047057               0.999999999               0.000013610               0.000051849               0.999999999               0.000017022               0.000056746               0.999999999               0.000020880               0.000061757               0.999999999               0.000025177               0.000067256               0.999999999               0.000029869               0.000073020               0.999999999               0.000035019               0.000079097               0.999999999              -0.000008271               0.000043468               0.999999999              -0.000004046               0.000039223               0.999999999              -0.000002052               0.000038388               0.999999999              -0.000000771               0.000039462               0.999999999               0.000000403               0.000041675               0.999999999               0.000001775               0.000044758               0.999999999               0.000003419               0.000048546               0.999999999               0.000005463               0.000053015               0.999999999               0.000007908               0.000058238               0.999999999               0.000010883               0.000064277               0.999999999               0.000014347               0.000070946               0.999999999               0.000018169               0.000077927               0.999999999               0.000022344               0.000084964               0.999999999               0.000026872               0.000092329               0.999999999               0.000031806               0.000100258               0.999999999               0.000037188               0.000108441               0.999999999               0.000042957               0.000116949               0.999999999              -0.000007843               0.000057295               0.999999999              -0.000004776               0.000051662               0.999999999              -0.000003192               0.000050867               0.999999999              -0.000001795               0.000052558               0.999999999              -0.000000172               0.000055792               0.999999999               0.000001785               0.000060125               0.999999999               0.000004203               0.000065327               0.999999999               0.000007087               0.000071462               0.999999999               0.000010494               0.000078498               0.999999999               0.000014445               0.000086584               0.999999999               0.000018815               0.000095227               0.999999999               0.000023492               0.000104209               0.999999999               0.000028428               0.000113303               0.999999999               0.000033724               0.000122939               0.999999999               0.000039380               0.000133147               0.999999999               0.000045385               0.000143673               0.999999999               0.000051784               0.000154519               0.999999999              -0.000007293               0.000070531               0.999999999              -0.000005648               0.000063640               0.999999999              -0.000004372               0.000063044               0.999999999              -0.000002737               0.000065540               0.999999999              -0.000000588               0.000069932               0.999999999               0.000002081               0.000075599               0.999999999               0.000005279               0.000082416               0.999999999               0.000009063               0.000090267               0.999999999               0.000013447               0.000099360               0.999999999               0.000018359               0.000109386               0.999999999               0.000023625               0.000120019               0.999999999               0.000029139               0.000130851               0.999999999               0.000034883               0.000141993               0.999999999               0.000041001               0.000153921               0.999999999               0.000047451               0.000166405               0.999999999               0.000054262               0.000179313               0.999999999               0.000061575               0.000192789               0.999999999              -0.000006660               0.000083022               0.999999999              -0.000006556               0.000075101               0.999999999              -0.000005429               0.000074856               0.999999999              -0.000003436               0.000078278               0.999999999              -0.000000675               0.000083910               0.999999999               0.000002687               0.000091080               0.999999999               0.000006670               0.000099609               0.999999999               0.000011343               0.000109466               0.999999999               0.000016640               0.000120622               0.999999999               0.000022374               0.000132704               0.999999999               0.000028441               0.000145223               0.999999999               0.000034748               0.000158128               0.999999999               0.000041361               0.000171658               0.999999999               0.000048382               0.000186038               0.999999999               0.000055804               0.000201170               0.999999999               0.000063702               0.000216987               0.999999999               0.000072133               0.000233484               0.999999999              -0.000005977               0.000094657               0.999999999              -0.000007370               0.000085970               0.999999999              -0.000006254               0.000086195               0.999999999              -0.000003754               0.000090604               0.999999999              -0.000000376               0.000097552               0.999999999               0.000003679               0.000106345               0.999999999               0.000008415               0.000116759               0.999999999               0.000013864               0.000128733               0.999999999               0.000019973               0.000142119               0.999999999               0.000026496               0.000156293               0.999999999               0.000033220               0.000171046               0.999999999               0.000040226               0.000186512               0.999999999               0.000047603               0.000202905               0.999999999               0.000055366               0.000220506               0.999999999               0.000063704               0.000239080               0.999999999               0.000072590               0.000258435               0.999999999               0.000082002               0.000278578               0.999999999              -0.000005151               0.000105187               0.999999999              -0.000008078               0.000096223               0.999999999              -0.000006737               0.000096977               0.999999999              -0.000003664               0.000102407               0.999999999               0.000000301               0.000110736               0.999999999               0.000004990               0.000121255               0.999999999               0.000010411               0.000133695               0.999999999               0.000016702               0.000147944               0.999999999               0.000023566               0.000163601               0.999999999               0.000030590               0.000180163               0.999999999               0.000037734               0.000197677               0.999999999               0.000045218               0.000216385               0.999999999               0.000053078               0.000236643               0.999999999               0.000061601               0.000258262               0.999999999               0.000070850               0.000280888               0.999999999               0.000080632               0.000304357               0.999999999               0.000090789               0.000328535               0.999999999              -0.000004140               0.000114958               0.999999999              -0.000008344               0.000106689               0.999999999              -0.000007563               0.000106522               0.999999999              -0.000004914               0.000110867               0.999999999              -0.000001421               0.000118032               0.999999999               0.000002616               0.000127361               0.999999999               0.000007268               0.000138484               0.999999999               0.000012651               0.000151332               0.999999999               0.000018620               0.000165578               0.999999999               0.000024806               0.000180924               0.999999999               0.000031002               0.000197318               0.999999999               0.000037114               0.000214814               0.999999999               0.000043426               0.000233652               0.999999999               0.000050374               0.000253785               0.999999999               0.000057905               0.000275090               0.999999999               0.000065824               0.000297517               0.999999999               0.000074194               0.000320823               0.999999999              -0.000003256               0.000123745               0.999999999              -0.000008145               0.000116618               0.999999999              -0.000007970               0.000116046               0.999999999              -0.000005819               0.000119499               0.999999999              -0.000002903               0.000125670               0.999999999               0.000000518               0.000133942               0.999999999               0.000004368               0.000143953               0.999999999               0.000008867               0.000155488               0.999999999               0.000013856               0.000168435               0.999999999               0.000019050               0.000182616               0.999999999               0.000024365               0.000197874               0.999999999               0.000029620               0.000214193               0.999999999               0.000034843               0.000231702               0.999999999               0.000040278               0.000250457               0.999999999               0.000046192               0.000270417               0.999999999               0.000052415               0.000291405               0.999999999               0.000059053               0.000313348               0.999999999              -0.000002431               0.000131361               0.999999999              -0.000007516               0.000125754               0.999999999              -0.000007880               0.000125192               0.999999999              -0.000006271               0.000128066               0.999999999              -0.000003938               0.000133443               0.999999999              -0.000001215               0.000140870               0.999999999               0.000001900               0.000149910               0.999999999               0.000005456               0.000160348               0.999999999               0.000009454               0.000172173               0.999999999               0.000013713               0.000185224               0.999999999               0.000018201               0.000199383               0.999999999               0.000022674               0.000214664               0.999999999               0.000026990               0.000231025               0.999999999               0.000031196               0.000248516               0.999999999               0.000035640               0.000267195               0.999999999               0.000040403               0.000286930               0.999999999               0.000045343               0.000307518               0.999999999              -0.000001726               0.000137774               0.999999999              -0.000006530               0.000133826               0.999999999              -0.000007220               0.000133549               0.999999999              -0.000006142               0.000136134               0.999999999              -0.000004413               0.000141013               0.999999999              -0.000002334               0.000147735               0.999999999               0.000000010               0.000156011               0.999999999               0.000002736               0.000165589               0.999999999               0.000005786               0.000176420               0.999999999               0.000009226               0.000188449               0.999999999               0.000012799               0.000201692               0.999999999               0.000016413               0.000216107               0.999999999               0.000019873               0.000231557               0.999999999               0.000023105               0.000248080               0.999999999               0.000026325               0.000265588               0.999999999               0.000029750               0.000284108               0.999999999               0.000033274               0.000303547               0.999999999              -0.000001153               0.000142867               0.999999999              -0.000005191               0.000140496               0.999999999              -0.000006017               0.000140690               0.999999999              -0.000005376               0.000143232               0.999999999              -0.000004184               0.000147827               0.999999999              -0.000002736               0.000154082               0.999999999              -0.000001085               0.000161729               0.999999999               0.000000898               0.000170654               0.999999999               0.000003164               0.000180781               0.999999999               0.000005629               0.000192079               0.999999999               0.000008260               0.000204624               0.999999999               0.000010981               0.000218324               0.999999999               0.000013580               0.000233103               0.999999999               0.000016036               0.000248860               0.999999999               0.000018320               0.000265462               0.999999999               0.000020505               0.000282958               0.999999999               0.000022564               0.000301498               0.999999999              -0.000000685               0.000146533               0.999999999              -0.000003592               0.000145502               0.999999999              -0.000004340               0.000146190               0.999999999              -0.000003999               0.000148821               0.999999999              -0.000003266               0.000153312               0.999999999              -0.000002387               0.000159254               0.999999999              -0.000001303               0.000166486               0.999999999              -0.000000042               0.000174986               0.999999999               0.000001425               0.000184721               0.999999999               0.000002946               0.000195644               0.999999999               0.000004716               0.000207697               0.999999999               0.000006587               0.000220861               0.999999999               0.000008315               0.000235115               0.999999999               0.000009951               0.000250295               0.999999999               0.000011407               0.000266352               0.999999999               0.000012604               0.000283274               0.999999999               0.000013432               0.000301223               0.999999999              -0.000000317               0.000148777               0.999999999              -0.000001841               0.000148611               0.999999999              -0.000002266               0.000149657               0.999999999              -0.000002140               0.000152417               0.999999999              -0.000001807               0.000156878               0.999999999              -0.000001355               0.000162672               0.999999999              -0.000000866               0.000169700               0.999999999              -0.000000211               0.000177971               0.999999999               0.000000393               0.000187489               0.999999999               0.000001231               0.000198223               0.999999999               0.000002132               0.000210067               0.999999999               0.000003048               0.000222965               0.999999999               0.000003929               0.000236873               0.999999999               0.000004681               0.000251696               0.999999999               0.000005344               0.000267464               0.999999999               0.000005908               0.000284279               0.999999999               0.000006157               0.000302097               0.999999999              -0.000000000               0.000149546               0.999999999               0.000000000               0.000149650               0.999999999              -0.000000000               0.000150831               0.999999999              -0.000000000               0.000153689               0.999999999               0.000000000               0.000158102               0.999999999               0.000000000               0.000163873               0.999999999              -0.000000000               0.000170862               0.999999999              -0.000000000               0.000179023               0.999999999               0.000000000               0.000188464               0.999999999               0.000000000               0.000199146               0.999999999               0.000000000               0.000210976               0.999999999               0.000000000               0.000223820               0.999999999              -0.000000000               0.000237513               0.999999999               0.000000000               0.000252230               0.999999999               0.000000000               0.000268088               0.999999999              -0.000000000               0.000284867               0.999999999              -0.000000000               0.000302574               0.999999999 </DataArray>
<DataArray type="Float64"                                    Name="stress"                                                      NumberOfComponents="10" format="ascii">
              0.000247931               0.002770313              -0.000000000              -0.000253314               0.001007867               0.000754552               0.000000000               0.000000000               0.000000000               0.000000000               0.000289827               0.002313823              -0.000000000              -0.000180542               0.000831447               0.000650905               0.000000000               0.000000000               0.000000000               0.000000000               0.000421786               0.001942698              -0.000000000              -0.000084667               0.000675782               0.000591115               0.000000000               0.000000000               0.000000000               0.000000000               0.000463258               0.001731162              -0.000000000              -0.000042673               0.000591273               0.000548599               0.000000000               0.000000000               0.000000000               0.000000000               0.000466558               0.001607335               0.000000000              -0.000025958               0.000544425               0.000518468               0.000000000               0.000000000               0.000000000               0.000000000               0.000450069               0.001533445              -0.000000000              -0.000022905               0.000518778               0.000495874               0.000000000               0.000000000               0.000000000               0.000000000               0.000422814               0.001492085              -0.000000000              -0.000027955               0.000506675               0.000478720               0.000000000               0.000000000               0.000000000               0.000000000               0.000390987               0.001473244               0.000000000              -0.000037535               0.000503588               0.000466053               0.000000000               0.000000000               0.000000000               0.000000000               0.000354616               0.001473224               0.000000000              -0.000051172               0.000508127               0.000456955               0.000000000               0.000000000               0.000000000               0.000000000               0.000310338               0.001487616               0.000000000              -0.000069575               0.000519059               0.000449484               0.000000000               0.000000000               0.000000000               0.000000000               0.000263962               0.001511761               0.000000000              -0.000089984               0.000533910               0.000443926               0.000000000               0.000000000               0.000000000               0.000000000               0.000221390               0.001542092               0.000000000              -0.000109740               0.000550606               0.000440866               0.000000000               0.000000000               0.000000000               0.000000000               0.000180004               0.001570736               0.000000000              -0.000128840               0.000566520               0.000437680               0.000000000               0.000000000               0.000000000               0.000000000               0.000139863               0.001599273               0.000000000              -0.000147460               0.000582239               0.000434779               0.000000000               0.000000000               0.000000000               0.000000000               0.000098402               0.001632760              -0.000000000              -0.000167194               0.000599979               0.000432785               0.000000000               0.000000000               0.000000000               0.000000000               0.000050523               0.001669020              -0.000000000              -0.000189681               0.000619561               0.000429881               0.000000000               0.000000000               0.000000000               0.000000000               0.000029046               0.001698447              -0.000000000              -0.000201413               0.000633281               0.000431868               0.000000000               0.000000000               0.000000000               0.000000000               0.000263376               0.002725926              -0.000217388              -0.000241974               0.000989291               0.000747317               0.000000000               0.000000000               0.000000000               0.000000000               0.000295978               0.002283228              -0.000147520              -0.000174412               0.000819206               0.000644794               0.000000000               0.000000000               0.000000000               0.000000000               0.000416859               0.001925684              -0.000076068              -0.000084388               0.000670018               0.000585629               0.000000000               0.000000000               0.000000000               0.000000000               0.000452736               0.001725325              -0.000043124              -0.000045890               0.000590399               0.000544509               0.000000000               0.000000000               0.000000000               0.000000000               0.000452854               0.001606493              -0.000027346              -0.000030991               0.000545823               0.000514831               0.000000000               0.000000000               0.000000000               0.000000000               0.000436436               0.001536291              -0.000020060              -0.000028373               0.000521549               0.000493177               0.000000000               0.000000000               0.000000000               0.000000000               0.000409432               0.001495505              -0.000016532              -0.000033401               0.000509630               0.000476229               0.000000000               0.000000000               0.000000000               0.000000000               0.000378218               0.001478177              -0.000014108              -0.000042940               0.000507034               0.000464094               0.000000000               0.000000000               0.000000000               0.000000000               0.000341946               0.001477797              -0.000010925              -0.000056495               0.000511426               0.000454931               0.000000000               0.000000000               0.000000000               0.000000000               0.000299707               0.001491677              -0.000008366              -0.000074069               0.000521911               0.000447841               0.000000000               0.000000000               0.000000000               0.000000000               0.000256543               0.001516064              -0.000008063              -0.000093304               0.000536451               0.000443147               0.000000000               0.000000000               0.000000000               0.000000000               0.000214732               0.001543124              -0.000011227              -0.000112366               0.000551825               0.000439459               0.000000000               0.000000000               0.000000000               0.000000000               0.000174967               0.001569148              -0.000015586              -0.000130531               0.000566554               0.000436024               0.000000000               0.000000000               0.000000000               0.000000000               0.000136222               0.001595365              -0.000014640              -0.000148337               0.000581229               0.000432892               0.000000000               0.000000000               0.000000000               0.000000000               0.000093767               0.001625241              -0.000010839              -0.000167992               0.000597739               0.000429747               0.000000000               0.000000000               0.000000000               0.000000000               0.000046308               0.001655747              -0.000007240              -0.000189602               0.000615111               0.000425509               0.000000000               0.000000000               0.000000000               0.000000000               0.000025692               0.001680414              -0.000005612              -0.000200417               0.000626938               0.000426521               0.000000000               0.000000000               0.000000000               0.000000000               0.000310339               0.002601346              -0.000412677              -0.000208791               0.000936704               0.000727913               0.000000000               0.000000000               0.000000000               0.000000000               0.000314273               0.002196133              -0.000281349              -0.000156664               0.000784258               0.000627594               0.000000000               0.000000000               0.000000000               0.000000000               0.000402176               0.001880190              -0.000146732              -0.000084208               0.000654793               0.000570585               0.000000000               0.000000000               0.000000000               0.000000000               0.000422914               0.001706560              -0.000085795              -0.000054727               0.000587090               0.000532363               0.000000000               0.000000000               0.000000000               0.000000000               0.000416515               0.001603112              -0.000056643              -0.000044196               0.000549097               0.000504901               0.000000000               0.000000000               0.000000000               0.000000000               0.000397986               0.001541549              -0.000043264              -0.000043449               0.000528328               0.000484879               0.000000000               0.000000000               0.000000000               0.000000000               0.000372109               0.001506376              -0.000036069              -0.000048756               0.000518372               0.000469616               0.000000000               0.000000000               0.000000000               0.000000000               0.000343125               0.001491847              -0.000030326              -0.000057809               0.000516547               0.000458738               0.000000000               0.000000000               0.000000000               0.000000000               0.000309409               0.001493135              -0.000023852              -0.000070613               0.000521244               0.000450631               0.000000000               0.000000000               0.000000000               0.000000000               0.000271366               0.001506384              -0.000017499              -0.000086536               0.000530968               0.000444432               0.000000000               0.000000000               0.000000000               0.000000000               0.000234088               0.001526517              -0.000017174              -0.000103031               0.000543178               0.000440146               0.000000000               0.000000000               0.000000000               0.000000000               0.000199801               0.001546725              -0.000022956              -0.000118415               0.000555042               0.000436627               0.000000000               0.000000000               0.000000000               0.000000000               0.000164034               0.001564502              -0.000028314              -0.000134050               0.000566178               0.000432129               0.000000000               0.000000000               0.000000000               0.000000000               0.000125404               0.001583872              -0.000024247              -0.000150957               0.000578271               0.000427314               0.000000000               0.000000000               0.000000000               0.000000000               0.000086612               0.001605729              -0.000017079              -0.000168236               0.000591316               0.000423080               0.000000000               0.000000000               0.000000000               0.000000000               0.000044836               0.001624946              -0.000011886              -0.000186304               0.000603745               0.000417440               0.000000000               0.000000000               0.000000000               0.000000000               0.000025202               0.001639577              -0.000009240              -0.000195496               0.000611686               0.000416190               0.000000000               0.000000000               0.000000000               0.000000000               0.000375368               0.002411521              -0.000569828              -0.000160677               0.000857391               0.000696714               0.000000000               0.000000000               0.000000000               0.000000000               0.000337891               0.002063001              -0.000390953              -0.000131166               0.000731382               0.000600216               0.000000000               0.000000000               0.000000000               0.000000000               0.000380299               0.001813745              -0.000208106              -0.000084106               0.000632611               0.000548505               0.000000000               0.000000000               0.000000000               0.000000000               0.000380952               0.001675502              -0.000126914              -0.000066581               0.000580689               0.000514108               0.000000000               0.000000000               0.000000000               0.000000000               0.000366456               0.001595250              -0.000089465              -0.000061985               0.000552406               0.000490421               0.000000000               0.000000000               0.000000000               0.000000000               0.000345615               0.001547607              -0.000070744              -0.000063845               0.000537146               0.000473300               0.000000000               0.000000000               0.000000000               0.000000000               0.000321187               0.001522040              -0.000059717              -0.000069810               0.000530611               0.000460802               0.000000000               0.000000000               0.000000000               0.000000000               0.000294567               0.001513392              -0.000049721              -0.000078711               0.000530696               0.000451985               0.000000000               0.000000000               0.000000000               0.000000000               0.000263648               0.001517649              -0.000038113              -0.000090838               0.000536157               0.000445319               0.000000000               0.000000000               0.000000000               0.000000000               0.000229895               0.001529947              -0.000028890              -0.000105032               0.000544988               0.000439956               0.000000000               0.000000000               0.000000000               0.000000000               0.000201096               0.001542116              -0.000027068              -0.000117353               0.000553151               0.000435798               0.000000000               0.000000000               0.000000000               0.000000000               0.000175919               0.001553459              -0.000032743              -0.000128212               0.000560552               0.000432340               0.000000000               0.000000000               0.000000000               0.000000000               0.000147162               0.001563483              -0.000035033              -0.000140249               0.000567906               0.000427656               0.000000000               0.000000000               0.000000000               0.000000000               0.000114260               0.001577580              -0.000026019              -0.000154349               0.000577305               0.000422955               0.000000000               0.000000000               0.000000000               0.000000000               0.000076197               0.001590041              -0.000017046              -0.000170181               0.000586735               0.000416554               0.000000000               0.000000000               0.000000000               0.000000000               0.000036375               0.001600047              -0.000011549              -0.000186365               0.000595465               0.000409100               0.000000000               0.000000000               0.000000000               0.000000000               0.000018772               0.001608494              -0.000008847              -0.000194022               0.000600833               0.000406812               0.000000000               0.000000000               0.000000000               0.000000000               0.000443505               0.002172009              -0.000680589              -0.000105187               0.000759058               0.000653871               0.000000000               0.000000000               0.000000000               0.000000000               0.000361118               0.001899140              -0.000470108              -0.000101973               0.000667031               0.000565058               0.000000000               0.000000000               0.000000000               0.000000000               0.000353185               0.001731338              -0.000258071              -0.000083973               0.000605098               0.000521125               0.000000000               0.000000000               0.000000000               0.000000000               0.000332773               0.001635835              -0.000166709              -0.000079689               0.000571836               0.000492147               0.000000000               0.000000000               0.000000000               0.000000000               0.000313390               0.001582338              -0.000123870              -0.000080271               0.000554198               0.000473927               0.000000000               0.000000000               0.000000000               0.000000000               0.000291904               0.001551309              -0.000101004              -0.000084449               0.000545248               0.000460798               0.000000000               0.000000000               0.000000000               0.000000000               0.000268214               0.001538009              -0.000085057              -0.000091671               0.000543221               0.000451551               0.000000000               0.000000000               0.000000000               0.000000000               0.000242972               0.001538146              -0.000069580              -0.000101154               0.000546428               0.000445274               0.000000000               0.000000000               0.000000000               0.000000000               0.000215380               0.001548716              -0.000053019              -0.000112822               0.000553841               0.000441019               0.000000000               0.000000000               0.000000000               0.000000000               0.000188739               0.001559055              -0.000040794              -0.000124104               0.000561048               0.000436943               0.000000000               0.000000000               0.000000000               0.000000000               0.000168348               0.001565567              -0.000037711              -0.000132565               0.000566039               0.000433474               0.000000000               0.000000000               0.000000000               0.000000000               0.000150811               0.001568852              -0.000039923              -0.000139552               0.000569463               0.000429911               0.000000000               0.000000000               0.000000000               0.000000000               0.000127924               0.001575226              -0.000035634              -0.000148931               0.000574714               0.000425783               0.000000000               0.000000000               0.000000000               0.000000000               0.000100061               0.001587016              -0.000022637              -0.000160854               0.000582618               0.000421764               0.000000000               0.000000000               0.000000000               0.000000000               0.000069390               0.001597167              -0.000012912              -0.000173624               0.000590259               0.000416634               0.000000000               0.000000000               0.000000000               0.000000000               0.000034252               0.001606576              -0.000006518              -0.000187977               0.000598179               0.000410202               0.000000000               0.000000000               0.000000000               0.000000000               0.000018586               0.001616583              -0.000004688              -0.000195102               0.000603890               0.000408787               0.000000000               0.000000000               0.000000000               0.000000000               0.000506722               0.001904981              -0.000740083              -0.000048103               0.000651021               0.000602919               0.000000000               0.000000000               0.000000000               0.000000000               0.000380348               0.001721098              -0.000519489              -0.000072507               0.000597862               0.000525355               0.000000000               0.000000000               0.000000000               0.000000000               0.000325144               0.001641680              -0.000298675              -0.000083281               0.000574982               0.000491700               0.000000000               0.000000000               0.000000000               0.000000000               0.000290313               0.001591111              -0.000204007              -0.000090021               0.000560372               0.000470351               0.000000000               0.000000000               0.000000000               0.000000000               0.000266794               0.001562609              -0.000157439              -0.000095278               0.000552624               0.000457346               0.000000000               0.000000000               0.000000000               0.000000000               0.000246456               0.001550118              -0.000129469              -0.000101344               0.000550482               0.000449138               0.000000000               0.000000000               0.000000000               0.000000000               0.000223350               0.001551816              -0.000108093              -0.000110221               0.000554007               0.000443786               0.000000000               0.000000000               0.000000000               0.000000000               0.000198342               0.001564185              -0.000086855              -0.000121144               0.000561771               0.000440627               0.000000000               0.000000000               0.000000000               0.000000000               0.000174157               0.001581349              -0.000066603              -0.000132359               0.000571231               0.000438871               0.000000000               0.000000000               0.000000000               0.000000000               0.000152917               0.001590372              -0.000053096              -0.000141452               0.000577269               0.000435817               0.000000000               0.000000000               0.000000000               0.000000000               0.000138101               0.001593227              -0.000048635              -0.000147365               0.000580192               0.000432827               0.000000000               0.000000000               0.000000000               0.000000000               0.000126323               0.001597536              -0.000047051              -0.000152320               0.000583280               0.000430960               0.000000000               0.000000000               0.000000000               0.000000000               0.000109094               0.001609945              -0.000036496              -0.000160333               0.000590087               0.000429755               0.000000000               0.000000000               0.000000000               0.000000000               0.000086756               0.001626126              -0.000021490              -0.000170732               0.000598947               0.000428215               0.000000000               0.000000000               0.000000000               0.000000000               0.000064168               0.001644009              -0.000012892              -0.000181438               0.000608477               0.000427039               0.000000000               0.000000000               0.000000000               0.000000000               0.000034506               0.001663733              -0.000006330              -0.000195026               0.000619581               0.000424555               0.000000000               0.000000000               0.000000000               0.000000000               0.000021743               0.001681238              -0.000005179              -0.000202000               0.000627741               0.000425740               0.000000000               0.000000000               0.000000000               0.000000000               0.000552953               0.001632597              -0.000752165               0.000003282               0.000543099               0.000546381               0.000000000               0.000000000               0.000000000               0.000000000               0.000394032               0.001541501              -0.000543183              -0.000044926               0.000528804               0.000483878               0.000000000               0.000000000               0.000000000               0.000000000               0.000300489               0.001549655              -0.000330785              -0.000081023               0.000543554               0.000462531               0.000000000               0.000000000               0.000000000               0.000000000               0.000259369               0.001540361              -0.000237263              -0.000095282               0.000545209               0.000449927               0.000000000               0.000000000               0.000000000               0.000000000               0.000235944               0.001536524              -0.000186729              -0.000103586               0.000546698               0.000443112               0.000000000               0.000000000               0.000000000               0.000000000               0.000217214               0.001544272              -0.000153227              -0.000111579               0.000551945               0.000440367               0.000000000               0.000000000               0.000000000               0.000000000               0.000193141               0.001561461              -0.000125557              -0.000122755               0.000561400               0.000438646               0.000000000               0.000000000               0.000000000               0.000000000               0.000166927               0.001586592              -0.000099388              -0.000135726               0.000574101               0.000438375               0.000000000               0.000000000               0.000000000               0.000000000               0.000146150               0.001609238              -0.000077553              -0.000146348               0.000585190               0.000438842               0.000000000               0.000000000               0.000000000               0.000000000               0.000130486               0.001621302              -0.000064896              -0.000153730               0.000591672               0.000437942               0.000000000               0.000000000               0.000000000               0.000000000               0.000118065               0.001630371              -0.000057915              -0.000159522               0.000596625               0.000437104               0.000000000               0.000000000               0.000000000               0.000000000               0.000107808               0.001650220              -0.000050114              -0.000165849               0.000605351               0.000439502               0.000000000               0.000000000               0.000000000               0.000000000               0.000093110               0.001680704              -0.000035919              -0.000175171               0.000618619               0.000443448               0.000000000               0.000000000               0.000000000               0.000000000               0.000073321               0.001715816              -0.000020820              -0.000186981               0.000634260               0.000447279               0.000000000               0.000000000               0.000000000               0.000000000               0.000052578               0.001754303              -0.000012528              -0.000199571               0.000651285               0.000451715               0.000000000               0.000000000               0.000000000               0.000000000               0.000026929               0.001793233              -0.000006757              -0.000214055               0.000669090               0.000455035               0.000000000               0.000000000               0.000000000               0.000000000               0.000017920               0.001821584              -0.000007070              -0.000220978               0.000680848               0.000459870               0.000000000               0.000000000               0.000000000               0.000000000               0.000578341               0.001366956              -0.000724896               0.000046007               0.000440311               0.000486319               0.000000000               0.000000000               0.000000000               0.000000000               0.000400256               0.001369290              -0.000544791              -0.000021066               0.000463447               0.000442381               0.000000000               0.000000000               0.000000000               0.000000000               0.000282124               0.001458565              -0.000355340              -0.000076524               0.000511692               0.000435167               0.000000000               0.000000000               0.000000000               0.000000000               0.000242566               0.001487174              -0.000264538              -0.000094934               0.000527365               0.000432430               0.000000000               0.000000000               0.000000000               0.000000000               0.000221714               0.001507618              -0.000208799              -0.000105309               0.000537637               0.000432328               0.000000000               0.000000000               0.000000000               0.000000000               0.000203134               0.001534313              -0.000169103              -0.000115614               0.000549970               0.000434357               0.000000000               0.000000000               0.000000000               0.000000000               0.000178619               0.001567516              -0.000135971              -0.000128957               0.000565486               0.000436529               0.000000000               0.000000000               0.000000000               0.000000000               0.000153395               0.001603391              -0.000106815              -0.000142900               0.000582092               0.000439191               0.000000000               0.000000000               0.000000000               0.000000000               0.000135094               0.001632168              -0.000085151              -0.000153360               0.000595171               0.000441810               0.000000000               0.000000000               0.000000000               0.000000000               0.000124949               0.001655467              -0.000070865              -0.000160077               0.000605176               0.000445099               0.000000000               0.000000000               0.000000000               0.000000000               0.000115196               0.001687383              -0.000058150              -0.000167724               0.000618363               0.000450639               0.000000000               0.000000000               0.000000000               0.000000000               0.000102899               0.001735288              -0.000043872              -0.000178323               0.000637865               0.000459541               0.000000000               0.000000000               0.000000000               0.000000000               0.000088671               0.001797698              -0.000026530              -0.000191460               0.000663047               0.000471586               0.000000000               0.000000000               0.000000000               0.000000000               0.000067870               0.001861945              -0.000013028              -0.000207292               0.000689739               0.000482448               0.000000000               0.000000000               0.000000000               0.000000000               0.000044400               0.001922356              -0.000007998              -0.000223644               0.000715327               0.000491683               0.000000000               0.000000000               0.000000000               0.000000000               0.000021931               0.001978343              -0.000004541              -0.000239068               0.000739131               0.000500063               0.000000000               0.000000000               0.000000000               0.000000000               0.000014967               0.002015033              -0.000005719              -0.000246266               0.000753760               0.000507494               0.000000000               0.000000000               0.000000000               0.000000000               0.000591145               0.001129710              -0.000668334               0.000080464               0.000349745               0.000430209               0.000000000               0.000000000               0.000000000               0.000000000               0.000407535               0.001214015              -0.000533631               0.000001073               0.000404310               0.000405383               0.000000000               0.000000000               0.000000000               0.000000000               0.000277907               0.001375238              -0.000380714              -0.000067690               0.000480971               0.000413282               0.000000000               0.000000000               0.000000000               0.000000000               0.000241582               0.001439254              -0.000291384              -0.000089313               0.000509518               0.000420204               0.000000000               0.000000000               0.000000000               0.000000000               0.000223227               0.001481798              -0.000229557              -0.000101515               0.000527766               0.000426251               0.000000000               0.000000000               0.000000000               0.000000000               0.000203380               0.001524688              -0.000183351              -0.000114318               0.000546330               0.000432012               0.000000000               0.000000000               0.000000000               0.000000000               0.000178978               0.001572705              -0.000147451              -0.000129471               0.000567387               0.000437916               0.000000000               0.000000000               0.000000000               0.000000000               0.000156967               0.001619902              -0.000118536              -0.000143625               0.000587837               0.000444212               0.000000000               0.000000000               0.000000000               0.000000000               0.000143851               0.001654719              -0.000093315              -0.000152895               0.000602533               0.000449637               0.000000000               0.000000000               0.000000000               0.000000000               0.000138854               0.001692631              -0.000071331              -0.000159508               0.000617374               0.000457866               0.000000000               0.000000000               0.000000000               0.000000000               0.000132508               0.001749202              -0.000051045              -0.000168959               0.000639381               0.000470422               0.000000000               0.000000000               0.000000000               0.000000000               0.000120726               0.001828365              -0.000029528              -0.000183273               0.000670540               0.000487267               0.000000000               0.000000000               0.000000000               0.000000000               0.000104215               0.001918621              -0.000012261              -0.000200747               0.000706449               0.000505703               0.000000000               0.000000000               0.000000000               0.000000000               0.000081417               0.001997553              -0.000004839              -0.000219162               0.000738898               0.000519736               0.000000000               0.000000000               0.000000000               0.000000000               0.000058970               0.002068335              -0.000002345              -0.000236428               0.000768247               0.000531820               0.000000000               0.000000000               0.000000000               0.000000000               0.000040862               0.002136363              -0.000000686              -0.000251721               0.000796021               0.000544300               0.000000000               0.000000000               0.000000000               0.000000000               0.000031445               0.002172684              -0.000000732              -0.000259793               0.000810818               0.000551026               0.000000000               0.000000000               0.000000000               0.000000000               0.000582851               0.000899050              -0.000596324               0.000106186               0.000264285               0.000370471               0.000000000               0.000000000               0.000000000               0.000000000               0.000418910               0.001034175              -0.000517435               0.000027819               0.000335448               0.000363267               0.000000000               0.000000000               0.000000000               0.000000000               0.000289865               0.001247703              -0.000411903              -0.000047264               0.000431651               0.000384388               0.000000000               0.000000000               0.000000000               0.000000000               0.000252094               0.001348119              -0.000326724              -0.000073980               0.000474028               0.000400049               0.000000000               0.000000000               0.000000000               0.000000000               0.000233618               0.001414360              -0.000260094              -0.000089188               0.000501178               0.000411990               0.000000000               0.000000000               0.000000000               0.000000000               0.000215742               0.001473947              -0.000209462              -0.000103340               0.000525757               0.000422417               0.000000000               0.000000000               0.000000000               0.000000000               0.000194496               0.001535278              -0.000172267              -0.000118974               0.000551412               0.000432438               0.000000000               0.000000000               0.000000000               0.000000000               0.000172950               0.001592954              -0.000142156              -0.000134263               0.000575733               0.000441471               0.000000000               0.000000000               0.000000000               0.000000000               0.000155785               0.001640622              -0.000112874              -0.000146658               0.000595755               0.000449096               0.000000000               0.000000000               0.000000000               0.000000000               0.000148796               0.001694047              -0.000085079              -0.000155957               0.000616663               0.000460705               0.000000000               0.000000000               0.000000000               0.000000000               0.000149690               0.001763896              -0.000058989              -0.000164353               0.000642744               0.000478391               0.000000000               0.000000000               0.000000000               0.000000000               0.000150452               0.001854363              -0.000034948              -0.000175375               0.000676573               0.000501198               0.000000000               0.000000000               0.000000000               0.000000000               0.000145286               0.001952661              -0.000019852              -0.000189600               0.000714081               0.000524481               0.000000000               0.000000000               0.000000000               0.000000000               0.000131083               0.002041841              -0.000012783              -0.000206074               0.000749298               0.000543225               0.000000000               0.000000000               0.000000000               0.000000000               0.000114567               0.002126701              -0.000005737              -0.000222875               0.000783185               0.000560310               0.000000000               0.000000000               0.000000000               0.000000000               0.000096855               0.002204510               0.000000411              -0.000239242               0.000814577               0.000575335               0.000000000               0.000000000               0.000000000               0.000000000               0.000080625               0.002235971               0.000004584              -0.000249262               0.000828403               0.000579142               0.000000000               0.000000000               0.000000000               0.000000000               0.000549361               0.000681699              -0.000511204               0.000120797               0.000186965               0.000307761               0.000000000               0.000000000               0.000000000               0.000000000               0.000428880               0.000853483              -0.000487515               0.000054144               0.000266443               0.000320587               0.000000000               0.000000000               0.000000000               0.000000000               0.000313062               0.001101864              -0.000432473              -0.000020335               0.000374062               0.000353727               0.000000000               0.000000000               0.000000000               0.000000000               0.000273888               0.001236832              -0.000358986              -0.000051896               0.000429572               0.000377676               0.000000000               0.000000000               0.000000000               0.000000000               0.000254888               0.001330959              -0.000292384              -0.000070787               0.000467244               0.000396457               0.000000000               0.000000000               0.000000000               0.000000000               0.000238568               0.001410878              -0.000239700              -0.000086897               0.000499254               0.000412357               0.000000000               0.000000000               0.000000000               0.000000000               0.000218127               0.001481693              -0.000200572              -0.000103414               0.000528364               0.000424950               0.000000000               0.000000000               0.000000000               0.000000000               0.000194985               0.001547899              -0.000168510              -0.000120368               0.000556084               0.000435716               0.000000000               0.000000000               0.000000000               0.000000000               0.000177123               0.001613670              -0.000137085              -0.000135287               0.000582980               0.000447693               0.000000000               0.000000000               0.000000000               0.000000000               0.000168673               0.001680234              -0.000108073              -0.000146777               0.000608998               0.000462221               0.000000000               0.000000000               0.000000000               0.000000000               0.000172924               0.001754870              -0.000081583              -0.000154512               0.000636455               0.000481943               0.000000000               0.000000000               0.000000000               0.000000000               0.000186005               0.001845436              -0.000056548              -0.000160927               0.000668782               0.000507855               0.000000000               0.000000000               0.000000000               0.000000000               0.000194083               0.001944572              -0.000036022              -0.000170290               0.000704947               0.000534658               0.000000000               0.000000000               0.000000000               0.000000000               0.000188568               0.002041924              -0.000022654              -0.000184527               0.000742143               0.000557616               0.000000000               0.000000000               0.000000000               0.000000000               0.000176156               0.002131341              -0.000012176              -0.000200358               0.000777226               0.000576868               0.000000000               0.000000000               0.000000000               0.000000000               0.000161164               0.002208633              -0.000002391              -0.000215642               0.000808084               0.000592442               0.000000000               0.000000000               0.000000000               0.000000000               0.000143470               0.002237302               0.000005284              -0.000225861               0.000821047               0.000595186               0.000000000               0.000000000               0.000000000               0.000000000               0.000493030               0.000491534              -0.000414568               0.000123443               0.000122695               0.000246138               0.000000000               0.000000000               0.000000000               0.000000000               0.000426103               0.000680136              -0.000436242               0.000074771               0.000201786               0.000276557               0.000000000               0.000000000               0.000000000               0.000000000               0.000340270               0.000940807              -0.000426887               0.000010000               0.000310266               0.000320266               0.000000000               0.000000000               0.000000000               0.000000000               0.000303553               0.001103060              -0.000371401              -0.000024050               0.000375700               0.000351649               0.000000000               0.000000000               0.000000000               0.000000000               0.000285481               0.001225879              -0.000310534              -0.000046180               0.000424015               0.000377836               0.000000000               0.000000000               0.000000000               0.000000000               0.000268792               0.001325297              -0.000258996              -0.000064865               0.000463383               0.000398518               0.000000000               0.000000000               0.000000000               0.000000000               0.000248402               0.001406972              -0.000219497              -0.000082721               0.000496560               0.000413839               0.000000000               0.000000000               0.000000000               0.000000000               0.000226819               0.001485673              -0.000187378              -0.000100652               0.000528770               0.000428118               0.000000000               0.000000000               0.000000000               0.000000000               0.000210403               0.001565464              -0.000157751              -0.000116781               0.000560743               0.000443962               0.000000000               0.000000000               0.000000000               0.000000000               0.000204631               0.001645097              -0.000131626              -0.000128900               0.000591327               0.000462427               0.000000000               0.000000000               0.000000000               0.000000000               0.000208582               0.001732421              -0.000107035              -0.000138334               0.000623579               0.000485245               0.000000000               0.000000000               0.000000000               0.000000000               0.000220729               0.001828225              -0.000081117              -0.000145754               0.000657987               0.000512233               0.000000000               0.000000000               0.000000000               0.000000000               0.000232837               0.001928002              -0.000055237              -0.000153686               0.000693889               0.000540204               0.000000000               0.000000000               0.000000000               0.000000000               0.000237663               0.002030303              -0.000035932              -0.000164664               0.000731649               0.000566985               0.000000000               0.000000000               0.000000000               0.000000000               0.000233115               0.002125419              -0.000023369              -0.000178259               0.000767886               0.000589627               0.000000000               0.000000000               0.000000000               0.000000000               0.000223224               0.002206320              -0.000011583              -0.000192081               0.000799460               0.000607379               0.000000000               0.000000000               0.000000000               0.000000000               0.000207643               0.002235596              -0.000001558              -0.000201583               0.000812386               0.000610803               0.000000000               0.000000000               0.000000000               0.000000000               0.000416974               0.000335610              -0.000314502               0.000114413               0.000073731               0.000188144               0.000000000               0.000000000               0.000000000               0.000000000               0.000411671               0.000520527              -0.000367364               0.000089309               0.000143737               0.000233047               0.000000000               0.000000000               0.000000000               0.000000000               0.000367926               0.000775194              -0.000392363               0.000041072               0.000244705               0.000285777               0.000000000               0.000000000               0.000000000               0.000000000               0.000340222               0.000957772              -0.000355905               0.000007861               0.000316634               0.000324495               0.000000000               0.000000000               0.000000000               0.000000000               0.000323236               0.001102368              -0.000305939              -0.000016583               0.000372980               0.000356397               0.000000000               0.000000000               0.000000000               0.000000000               0.000306711               0.001218104              -0.000259417              -0.000037247               0.000418446               0.000381199               0.000000000               0.000000000               0.000000000               0.000000000               0.000287466               0.001314389              -0.000222466              -0.000056499               0.000456958               0.000400459               0.000000000               0.000000000               0.000000000               0.000000000               0.000270544               0.001405493              -0.000193803              -0.000074232               0.000493237               0.000419005               0.000000000               0.000000000               0.000000000               0.000000000               0.000257460               0.001497455              -0.000169280              -0.000090634               0.000529358               0.000438724               0.000000000               0.000000000               0.000000000               0.000000000               0.000251023               0.001594709              -0.000146535              -0.000105205               0.000566633               0.000461428               0.000000000               0.000000000               0.000000000               0.000000000               0.000252470               0.001699838              -0.000123725              -0.000117803               0.000605875               0.000488071               0.000000000               0.000000000               0.000000000               0.000000000               0.000260325               0.001803899              -0.000099536              -0.000127865               0.000643915               0.000516050               0.000000000               0.000000000               0.000000000               0.000000000               0.000272385               0.001907513              -0.000073680              -0.000136294               0.000681263               0.000544968               0.000000000               0.000000000               0.000000000               0.000000000               0.000283620               0.002008542              -0.000051709              -0.000144710               0.000717744               0.000573034               0.000000000               0.000000000               0.000000000               0.000000000               0.000286198               0.002102249              -0.000035713              -0.000155457               0.000752561               0.000597105               0.000000000               0.000000000               0.000000000               0.000000000               0.000281063               0.002190660              -0.000020760              -0.000168433               0.000786357               0.000617924               0.000000000               0.000000000               0.000000000               0.000000000               0.000268707               0.002227581              -0.000009958              -0.000177682               0.000801747               0.000624065               0.000000000               0.000000000               0.000000000               0.000000000               0.000333762               0.000214741              -0.000219200               0.000098317               0.000038807               0.000137124               0.000000000               0.000000000               0.000000000               0.000000000               0.000390529               0.000384151              -0.000284674               0.000098428               0.000095239               0.000193668               0.000000000               0.000000000               0.000000000               0.000000000               0.000392092               0.000621283              -0.000327779               0.000069373               0.000183968               0.000253341               0.000000000               0.000000000               0.000000000               0.000000000               0.000378268               0.000815011              -0.000308666               0.000039973               0.000258343               0.000298316               0.000000000               0.000000000               0.000000000               0.000000000               0.000364373               0.000973832              -0.000271466               0.000014911               0.000319637               0.000334548               0.000000000               0.000000000               0.000000000               0.000000000               0.000347474               0.001100333              -0.000233887              -0.000007239               0.000369187               0.000361948               0.000000000               0.000000000               0.000000000               0.000000000               0.000332378               0.001211834              -0.000203747              -0.000026838               0.000412886               0.000386049               0.000000000               0.000000000               0.000000000               0.000000000               0.000318941               0.001319681              -0.000181196              -0.000045357               0.000455008               0.000409651               0.000000000               0.000000000               0.000000000               0.000000000               0.000308293               0.001427939              -0.000161639              -0.000062882               0.000496936               0.000434053               0.000000000               0.000000000               0.000000000               0.000000000               0.000299552               0.001541314              -0.000143578              -0.000080332               0.000540543               0.000460211               0.000000000               0.000000000               0.000000000               0.000000000               0.000299923               0.001658746              -0.000126456              -0.000094872               0.000584534               0.000489662               0.000000000               0.000000000               0.000000000               0.000000000               0.000306242               0.001772255              -0.000106085              -0.000106691               0.000626310               0.000519618               0.000000000               0.000000000               0.000000000               0.000000000               0.000315674               0.001879836              -0.000083889              -0.000116602               0.000665473               0.000548871               0.000000000               0.000000000               0.000000000               0.000000000               0.000326156               0.001977107              -0.000062877              -0.000124830               0.000700639               0.000575809               0.000000000               0.000000000               0.000000000               0.000000000               0.000333281               0.002069568              -0.000043670              -0.000133716               0.000734421               0.000600705               0.000000000               0.000000000               0.000000000               0.000000000               0.000335899               0.002169577              -0.000024276              -0.000145234               0.000771596               0.000626362               0.000000000               0.000000000               0.000000000               0.000000000               0.000328088               0.002217833              -0.000011965              -0.000154196               0.000790669               0.000636473               0.000000000               0.000000000               0.000000000               0.000000000               0.000257239               0.000134195              -0.000135496               0.000079689               0.000018168               0.000097857               0.000000000               0.000000000               0.000000000               0.000000000               0.000366108               0.000280942              -0.000193141               0.000102172               0.000059589               0.000161761               0.000000000               0.000000000               0.000000000               0.000000000               0.000412033               0.000495428              -0.000236049               0.000092583               0.000134280               0.000226863               0.000000000               0.000000000               0.000000000               0.000000000               0.000411674               0.000692638              -0.000229105               0.000067797               0.000208278               0.000276075               0.000000000               0.000000000               0.000000000               0.000000000               0.000400507               0.000857923              -0.000204789               0.000042949               0.000271655               0.000314604               0.000000000               0.000000000               0.000000000               0.000000000               0.000385996               0.000991929              -0.000179381               0.000020757               0.000323721               0.000344478               0.000000000               0.000000000               0.000000000               0.000000000               0.000373531               0.001117928              -0.000158739               0.000000333               0.000372528               0.000372861               0.000000000               0.000000000               0.000000000               0.000000000               0.000363431               0.001244029              -0.000142344              -0.000019217               0.000421078               0.000401861               0.000000000               0.000000000               0.000000000               0.000000000               0.000353058               0.001368715              -0.000127998              -0.000038693               0.000469131               0.000430439               0.000000000               0.000000000               0.000000000               0.000000000               0.000348699               0.001492628              -0.000117805              -0.000055816               0.000516143               0.000460327               0.000000000               0.000000000               0.000000000               0.000000000               0.000347581               0.001613642              -0.000108463              -0.000071362               0.000561663               0.000490300               0.000000000               0.000000000               0.000000000               0.000000000               0.000350023               0.001732383              -0.000093281              -0.000085289               0.000605885               0.000520596               0.000000000               0.000000000               0.000000000               0.000000000               0.000355594               0.001842685              -0.000075544              -0.000096988               0.000646551               0.000549564               0.000000000               0.000000000               0.000000000               0.000000000               0.000362378               0.001943228              -0.000058404              -0.000107011               0.000683407               0.000576395               0.000000000               0.000000000               0.000000000               0.000000000               0.000373714               0.002044770              -0.000041388              -0.000115453               0.000720068               0.000604614               0.000000000               0.000000000               0.000000000               0.000000000               0.000390641               0.002157721              -0.000022862              -0.000123224               0.000760308               0.000637084               0.000000000               0.000000000               0.000000000               0.000000000               0.000395464               0.002215181              -0.000011609              -0.000128598               0.000781253               0.000652654               0.000000000               0.000000000               0.000000000               0.000000000               0.000202134               0.000087029              -0.000064437               0.000064921               0.000007369               0.000072290               0.000000000               0.000000000               0.000000000               0.000000000               0.000346294               0.000214819              -0.000097231               0.000103007               0.000037270               0.000140277               0.000000000               0.000000000               0.000000000               0.000000000               0.000425451               0.000413150              -0.000123433               0.000107899               0.000101749               0.000209648               0.000000000               0.000000000               0.000000000               0.000000000               0.000435609               0.000609719              -0.000122462               0.000087138               0.000174192               0.000261329               0.000000000               0.000000000               0.000000000               0.000000000               0.000426317               0.000776600              -0.000110739               0.000062793               0.000237933               0.000300726               0.000000000               0.000000000               0.000000000               0.000000000               0.000413304               0.000916712              -0.000097993               0.000040400               0.000292101               0.000332501               0.000000000               0.000000000               0.000000000               0.000000000               0.000402107               0.001051422              -0.000087949               0.000019362               0.000344016               0.000363379               0.000000000               0.000000000               0.000000000               0.000000000               0.000394702               0.001188739              -0.000077979              -0.000000579               0.000396436               0.000395856               0.000000000               0.000000000               0.000000000               0.000000000               0.000389981               0.001326618              -0.000071017              -0.000019584               0.000448730               0.000429145               0.000000000               0.000000000               0.000000000               0.000000000               0.000387145               0.001458245              -0.000068049              -0.000037101               0.000498444               0.000461343               0.000000000               0.000000000               0.000000000               0.000000000               0.000382042               0.001580442              -0.000063234              -0.000054289               0.000544905               0.000490616               0.000000000               0.000000000               0.000000000               0.000000000               0.000378435               0.001695997              -0.000055466              -0.000070086               0.000588689               0.000518602               0.000000000               0.000000000               0.000000000               0.000000000               0.000380777               0.001806244              -0.000044523              -0.000082989               0.000629738               0.000546749               0.000000000               0.000000000               0.000000000               0.000000000               0.000390397               0.001917795              -0.000034483              -0.000093325               0.000670367               0.000577042               0.000000000               0.000000000               0.000000000               0.000000000               0.000409748               0.002036934              -0.000026992              -0.000100961               0.000712625               0.000611664               0.000000000               0.000000000               0.000000000               0.000000000               0.000438923               0.002161471              -0.000016769              -0.000105587               0.000755679               0.000650092               0.000000000               0.000000000               0.000000000               0.000000000               0.000455743               0.002223408              -0.000009782              -0.000107022               0.000776803               0.000669781               0.000000000               0.000000000               0.000000000               0.000000000               0.000181925               0.000069561               0.000000000               0.000059526               0.000003345               0.000062871               0.000000000               0.000000000               0.000000000               0.000000000               0.000338880               0.000191355               0.000000000               0.000103160               0.000029398               0.000132557               0.000000000               0.000000000               0.000000000               0.000000000               0.000430031               0.000385679               0.000000000               0.000113051               0.000090875               0.000203925               0.000000000               0.000000000               0.000000000               0.000000000               0.000444560               0.000580173               0.000000000               0.000094187               0.000161993               0.000256181               0.000000000               0.000000000               0.000000000               0.000000000               0.000436124               0.000746899               0.000000000               0.000070183               0.000225569               0.000295753               0.000000000               0.000000000               0.000000000               0.000000000               0.000422664               0.000890476              -0.000000000               0.000047189               0.000281093               0.000328282               0.000000000               0.000000000               0.000000000               0.000000000               0.000412669               0.001026698              -0.000000000               0.000026413               0.000333425               0.000359838               0.000000000               0.000000000               0.000000000               0.000000000               0.000405532               0.001166782              -0.000000000               0.000006227               0.000386848               0.000393075               0.000000000               0.000000000               0.000000000               0.000000000               0.000406493               0.001311676               0.000000000              -0.000011525               0.000441062               0.000429538               0.000000000               0.000000000               0.000000000               0.000000000               0.000401025               0.001446778               0.000000000              -0.000030463               0.000492409               0.000461946               0.000000000               0.000000000               0.000000000               0.000000000               0.000393468               0.001569431               0.000000000              -0.000048628               0.000539348               0.000490720               0.000000000               0.000000000               0.000000000               0.000000000               0.000387059               0.001678869              -0.000000000              -0.000064711               0.000581188               0.000516476               0.000000000               0.000000000               0.000000000               0.000000000               0.000388310               0.001788646               0.000000000              -0.000077964               0.000622198               0.000544233               0.000000000               0.000000000               0.000000000               0.000000000               0.000404053               0.001913584               0.000000000              -0.000087678               0.000667081               0.000579403               0.000000000               0.000000000               0.000000000               0.000000000               0.000427630               0.002039762               0.000000000              -0.000094609               0.000711450               0.000616841               0.000000000               0.000000000               0.000000000               0.000000000               0.000457451               0.002160875              -0.000000000              -0.000098565               0.000753139               0.000654574               0.000000000               0.000000000               0.000000000               0.000000000               0.000477063               0.002221709              -0.000000000              -0.000098815               0.000773500               0.000674686               0.000000000               0.000000000               0.000000000               0.000000000               0.000000000               0.000000000               0.000000000               0.000000000               0.000000000               0.000000000               0.000000000               0.000000000               0.000000000               0.000000000               0.000000000               0.000000000               0.000000000               0.000000000               0.000000000               0.000000000               0.000000000               0.000000000               0.000000000               0.000000000               0.000000000               0.000000000               0.000000000               0.000000000               0.000000000               0.000000000               0.000000000               0.000000000               0.000000000               0.000000000               0.000000000               0.000000000               0.000000000               0.000000000               0.000000000               0.000000000               0.000000000               0.000000000               0.000000000               0.000000000               0.000000000               0.000000000               0.000000000               0.000000000               0.000000000               0.000000000               0.000000000               0.000000000               0.000000000               0.000000000               0.000000000               0.000000000               0.000000000               0.000000000               0.000000000               0.000000000               0.000000000               0.000000000               0.000000000               0.000000000               0.000000000               0.000000000               0.000000000               0.000000000               0.000000000               0.000000000               0.000000000               0.000000000               0.000000000               0.000000000               0.000000000               0.000000000               0.000000000               0.000000000               0.000000000               0.000000000               0.000000000               0.000000000               0.000000000               0.000000000               0.000000000               0.000000000               0.000000000               0.000000000               0.000000000               0.000000000               0.000000000               0.000000000               0.000000000               0.000000000               0.000000000               0.000000000               0.000000000               0.000000000               0.000000000               0.000000000               0.000000000               0.000000000               0.000000000               0.000000000               0.000000000               0.000000000               0.000000000               0.000000000               0.000000000               0.000000000               0.000000000               0.000000000               0.000000000               0.000000000               0.000000000               0.000000000               0.000000000               0.000000000               0.000000000               0.000000000               0.000000000               0.000000000               0.000000000               0.000000000               0.000000000               0.000000000               0.000000000               0.000000000               0.000000000               0.000000000               0.000000000               0.000000000               0.000000000               0.000000000               0.000000000               0.000000000               0.000000000               0.000000000               0.000000000               0.000000000               0.000000000               0.000000000               0.000000000               0.000000000               0.000000000               0.000000000               0.000000000               0.000000000               0.000000000               0.000000000               0.000000000               0.000000000               0.000000000               0.000000000               0.000000000               0.000000000               0.000000000               0.000000000               0.000000000               0.000000000               0.000000000               0.000000000               0.000000000               0.000000000               0.000000000               0.000000000               0.000000000               0.000000000               0.000000000               0.000000000               0.000000000               0.000000000               0.000000000               0.000000000               0.000263376               0.002725926               0.000217388              -0.000241974               0.000989291               0.000747317               0.000000000               0.000000000               0.000000000               0.000000000               0.000295978               0.002283228               0.000147520              -0.000174412               0.000819206               0.000644794               0.000000000               0.000000000               0.000000000               0.000000000               0.000416859               0.001925684               0.000076068              -0.000084388               0.000670018               0.000585629               0.000000000               0.000000000               0.000000000               0.000000000               0.000452736               0.001725325               0.000043124              -0.000045890               0.000590399               0.000544509               0.000000000               0.000000000               0.000000000               0.000000000               0.000452854               0.001606493               0.000027346              -0.000030991               0.000545823               0.000514831               0.000000000               0.000000000               0.000000000               0.000000000               0.000436436               0.001536291               0.000020060              -0.000028373               0.000521549               0.000493177               0.000000000               0.000000000               0.000000000               0.000000000               0.000409432               0.001495505               0.000016532              -0.000033401               0.000509630               0.000476229               0.000000000               0.000000000               0.000000000               0.000000000               0.000378218               0.001478177               0.000014108              -0.000042940               0.000507034               0.000464094               0.000000000               0.000000000               0.000000000               0.000000000               0.000341946               0.001477797               0.000010925              -0.000056495               0.000511426               0.000454931               0.000000000               0.000000000               0.000000000               0.000000000               0.000299707               0.001491677               0.000008366              -0.000074069               0.000521911               0.000447841               0.000000000               0.000000000               0.000000000               0.000000000               0.000256543               0.001516064               0.000008063              -0.000093304               0.000536451               0.000443147               0.000000000               0.000000000               0.000000000               0.000000000               0.000214732               0.001543124               0.000011227              -0.000112366               0.000551825               0.000439459               0.000000000               0.000000000               0.000000000               0.000000000               0.000174967               0.001569148               0.000015586              -0.000130531               0.000566554               0.000436024               0.000000000               0.000000000               0.000000000               0.000000000               0.000136222               0.001595365               0.000014640              -0.000148337               0.000581229               0.000432892               0.000000000               0.000000000               0.000000000               0.000000000               0.000093767               0.001625241               0.000010839              -0.000167992               0.000597739               0.000429747               0.000000000               0.000000000               0.000000000               0.000000000               0.000046308               0.001655747               0.000007240              -0.000189602               0.000615111               0.000425509               0.000000000               0.000000000               0.000000000               0.000000000               0.000025692               0.001680414               0.000005612              -0.000200417               0.000626938               0.000426521               0.000000000               0.000000000               0.000000000               0.000000000               0.000310339               0.002601346               0.000412677              -0.000208791               0.000936704               0.000727913               0.000000000               0.000000000               0.000000000               0.000000000               0.000314273               0.002196133               0.000281349              -0.000156664               0.000784258               0.000627594               0.000000000               0.000000000               0.000000000               0.000000000               0.000402176               0.001880190               0.000146732              -0.000084208               0.000654793               0.000570585               0.000000000               0.000000000               0.000000000               0.000000000               0.000422914               0.001706560               0.000085795              -0.000054727               0.000587090               0.000532363               0.000000000               0.000000000               0.000000000               0.000000000               0.000416515               0.001603112               0.000056643              -0.000044196               0.000549097               0.000504901               0.000000000               0.000000000               0.000000000               0.000000000               0.000397986               0.001541549               0.000043264              -0.000043449               0.000528328               0.000484879               0.000000000               0.000000000               0.000000000               0.000000000               0.000372109               0.001506376               0.000036069              -0.000048756               0.000518372               0.000469616               0.000000000               0.000000000               0.000000000               0.000000000               0.000343125               0.001491847               0.000030326              -0.000057809               0.000516547               0.000458738               0.000000000               0.000000000               0.000000000               0.000000000               0.000309409               0.001493135               0.000023852              -0.000070613               0.000521244               0.000450631               0.000000000               0.000000000               0.000000000               0.000000000               0.000271366               0.001506384               0.000017499              -0.000086536               0.000530968               0.000444432               0.000000000               0.000000000               0.000000000               0.000000000               0.000234088               0.001526517               0.000017174              -0.000103031               0.000543178               0.000440146               0.000000000               0.000000000               0.000000000               0.000000000               0.000199801               0.001546725               0.000022956              -0.000118415               0.000555042               0.000436627               0.000000000               0.000000000               0.000000000               0.000000000               0.000164034               0.001564502               0.000028314              -0.000134050               0.000566178               0.000432129               0.000000000               0.000000000               0.000000000               0.000000000               0.000125404               0.001583872               0.000024247              -0.000150957               0.000578271               0.000427314               0.000000000               0.000000000               0.000000000               0.000000000               0.000086612               0.001605729               0.000017079              -0.000168236               0.000591316               0.000423080               0.000000000               0.000000000               0.000000000               0.000000000               0.000044836               0.001624946               0.000011886              -0.000186304               0.000603745               0.000417440               0.000000000               0.000000000               0.000000000               0.000000000               0.000025202               0.001639577               0.000009240              -0.000195496               0.000611686               0.000416190               0.000000000               0.000000000               0.000000000               0.000000000               0.000375368               0.002411521               0.000569828              -0.000160677               0.000857391               0.000696714               0.000000000               0.000000000               0.000000000               0.000000000               0.000337891               0.002063001               0.000390953              -0.000131166               0.000731382               0.000600216               0.000000000               0.000000000               0.000000000               0.000000000               0.000380299               0.001813745               0.000208106              -0.000084106               0.000632611               0.000548505               0.000000000               0.000000000               0.000000000               0.000000000               0.000380952               0.001675502               0.000126914              -0.000066581               0.000580689               0.000514108               0.000000000               0.000000000               0.000000000               0.000000000               0.000366456               0.001595250               0.000089465              -0.000061985               0.000552406               0.000490421               0.000000000               0.000000000               0.000000000               0.000000000               0.000345615               0.001547607               0.000070744              -0.000063845               0.000537146               0.000473300               0.000000000               0.000000000               0.000000000               0.000000000               0.000321187               0.001522040               0.000059717              -0.000069810               0.000530611               0.000460802               0.000000000               0.000000000               0.000000000               0.000000000               0.000294567               0.001513392               0.000049721              -0.000078711               0.000530696               0.000451985               0.000000000               0.000000000               0.000000000               0.000000000               0.000263648               0.001517649               0.000038113              -0.000090838               0.000536157               0.000445319               0.000000000               0.000000000               0.000000000               0.000000000               0.000229895               0.001529947               0.000028890              -0.000105032               0.000544988               0.000439956               0.000000000               0.000000000               0.000000000               0.000000000               0.000201096               0.001542116               0.000027068              -0.000117353               0.000553151               0.000435798               0.000000000               0.000000000               0.000000000               0.000000000               0.000175919               0.001553459               0.000032743              -0.000128212               0.000560552               0.000432340               0.000000000               0.000000000               0.000000000               0.000000000               0.000147162               0.001563483               0.000035033              -0.000140249               0.000567906               0.000427656               0.000000000               0.000000000               0.000000000               0.000000000               0.000114260               0.001577580               0.000026019              -0.000154349               0.000577305               0.000422955               0.000000000               0.000000000               0.000000000               0.000000000               0.000076197               0.001590041               0.000017046              -0.000170181               0.000586735               0.000416554               0.000000000               0.000000000               0.000000000               0.000000000               0.000036375               0.001600047               0.000011549              -0.000186365               0.000595465               0.000409100               0.000000000               0.000000000               0.000000000               0.000000000               0.000018772               0.001608494               0.000008847              -0.000194022               0.000600833               0.000406812               0.000000000               0.000000000               0.000000000               0.000000000               0.000443505               0.002172009               0.000680589              -0.000105187               0.000759058               0.000653871               0.000000000               0.000000000               0.000000000               0.000000000               0.000361118               0.001899140               0.000470108              -0.000101973               0.000667031               0.000565058               0.000000000               0.000000000               0.000000000               0.000000000               0.000353185               0.001731338               0.000258071              -0.000083973               0.000605098               0.000521125               0.000000000               0.000000000               0.000000000               0.000000000               0.000332773               0.001635835               0.000166709              -0.000079689               0.000571836               0.000492147               0.000000000               0.000000000               0.000000000               0.000000000               0.000313390               0.001582338               0.000123870              -0.000080271               0.000554198               0.000473927               0.000000000               0.000000000               0.000000000               0.000000000               0.000291904               0.001551309               0.000101004              -0.000084449               0.000545248               0.000460798               0.000000000               0.000000000               0.000000000               0.000000000               0.000268214               0.001538009               0.000085057              -0.000091671               0.000543221               0.000451551               0.000000000               0.000000000               0.000000000               0.000000000               0.000242972               0.001538146               0.000069580              -0.000101154               0.000546428               0.000445274               0.000000000               0.000000000               0.000000000               0.000000000               0.000215380               0.001548716               0.000053019              -0.000112822               0.000553841               0.000441019               0.000000000               0.000000000               0.000000000               0.000000000               0.000188739               0.001559055               0.000040794              -0.000124104               0.000561048               0.000436943               0.000000000               0.000000000               0.000000000               0.000000000               0.000168348               0.001565567               0.000037711              -0.000132565               0.000566039               0.000433474               0.000000000               0.000000000               0.000000000               0.000000000               0.000150811               0.001568852               0.000039923              -0.000139552               0.000569463               0.000429911               0.000000000               0.000000000               0.000000000               0.000000000               0.000127924               0.001575226               0.000035634              -0.000148931               0.000574714               0.000425783               0.000000000               0.000000000               0.000000000               0.000000000               0.000100061               0.001587016               0.000022637              -0.000160854               0.000582618               0.000421764               0.000000000               0.000000000               0.000000000               0.000000000               0.000069390               0.001597167               0.000012912              -0.000173624               0.000590259               0.000416634               0.000000000               0.000000000               0.000000000               0.000000000               0.000034252               0.001606576               0.000006518              -0.000187977               0.000598179               0.000410202               0.000000000               0.000000000               0.000000000               0.000000000               0.000018586               0.001616583               0.000004688              -0.000195102               0.000603890               0.000408787               0.000000000               0.000000000               0.000000000               0.000000000               0.000506722               0.001904981               0.000740083              -0.000048103               0.000651021               0.000602919               0.000000000               0.000000000               0.000000000               0.000000000               0.000380348               0.001721098               0.000519489              -0.000072507               0.000597862               0.000525355               0.000000000               0.000000000               0.000000000               0.000000000               0.000325144               0.001641680               0.000298675              -0.000083281               0.000574982               0.000491700               0.000000000               0.000000000               0.000000000               0.000000000               0.000290313               0.001591111               0.000204007              -0.000090021               0.000560372               0.000470351               0.000000000               0.000000000               0.000000000               0.000000000               0.000266794               0.001562609               0.000157439              -0.000095278               0.000552624               0.000457346               0.000000000               0.000000000               0.000000000               0.000000000               0.000246456               0.001550118               0.000129469              -0.000101344               0.000550482               0.000449138               0.000000000               0.000000000               0.000000000               0.000000000               0.000223350               0.001551816               0.000108093              -0.000110221               0.000554007               0.000443786               0.000000000               0.000000000               0.000000000               0.000000000               0.000198342               0.001564185               0.000086855              -0.000121144               0.000561771               0.000440627               0.000000000               0.000000000               0.000000000               0.000000000               0.000174157               0.001581349               0.000066603              -0.000132359               0.000571231               0.000438871               0.000000000               0.000000000               0.000000000               0.000000000               0.000152917               0.001590372               0.000053096              -0.000141452               0.000577269               0.000435817               0.000000000               0.000000000               0.000000000               0.000000000               0.000138101               0.001593227               0.000048635              -0.000147365               0.000580192               0.000432827               0.000000000               0.000000000               0.000000000               0.000000000               0.000126323               0.001597536               0.000047051              -0.000152320               0.000583280               0.000430960               0.000000000               0.000000000               0.000000000               0.000000000               0.000109094               0.001609945               0.000036496              -0.000160333               0.000590087               0.000429755               0.000000000               0.000000000               0.000000000               0.000000000               0.000086756               0.001626126               0.000021490              -0.000170732               0.000598947               0.000428215               0.000000000               0.000000000               0.000000000               0.000000000               0.000064168               0.001644009               0.000012892              -0.000181438               0.000608477               0.000427039               0.000000000               0.000000000               0.000000000               0.000000000               0.000034506               0.001663733               0.000006330              -0.000195026               0.000619581               0.000424555               0.000000000               0.000000000               0.000000000               0.000000000               0.000021743               0.001681238               0.000005179              -0.000202000               0.000627741               0.000425740               0.000000000               0.000000000               0.000000000               0.000000000               0.000552953               0.001632597               0.000752165               0.000003282               0.000543099               0.000546381               0.000000000               0.000000000               0.000000000               0.000000000               0.000394032               0.001541501               0.000543183              -0.000044926               0.000528804               0.000483878               0.000000000               0.000000000               0.000000000               0.000000000               0.000300489               0.001549655               0.000330785              -0.000081023               0.000543554               0.000462531               0.000000000               0.000000000               0.000000000               0.000000000               0.000259369               0.001540361               0.000237263              -0.000095282               0.000545209               0.000449927               0.000000000               0.000000000               0.000000000               0.000000000               0.000235944               0.001536524               0.000186729              -0.000103586               0.000546698               0.000443112               0.000000000               0.000000000               0.000000000               0.000000000               0.000217214               0.001544272               0.000153227              -0.000111579               0.000551945               0.000440367               0.000000000               0.000000000               0.000000000               0.000000000               0.000193141               0.001561461               0.000125557              -0.000122755               0.000561400               0.000438646               0.000000000               0.000000000               0.000000000               0.000000000               0.000166927               0.001586592               0.000099388              -0.000135726               0.000574101               0.000438375               0.000000000               0.000000000               0.000000000               0.000000000               0.000146150               0.001609238               0.000077553              -0.000146348               0.000585190               0.000438842               0.000000000               0.000000000               0.000000000               0.000000000               0.000130486               0.001621302               0.000064896              -0.000153730               0.000591672               0.000437942               0.000000000               0.000000000               0.000000000               0.000000000               0.000118065               0.001630371               0.000057915              -0.000159522               0.000596625               0.000437104               0.000000000               0.000000000               0.000000000               0.000000000               0.000107808               0.001650220               0.000050114              -0.000165849               0.000605351               0.000439502               0.000000000               0.000000000               0.000000000               0.000000000               0.000093110               0.001680704               0.000035919              -0.000175171               0.000618619               0.000443448               0.000000000               0.000000000               0.000000000               0.000000000               0.000073321               0.001715816               0.000020820              -0.000186981               0.000634260               0.000447279               0.000000000               0.000000000               0.000000000               0.000000000               0.000052578               0.001754303               0.000012528              -0.000199571               0.000651285               0.000451715               0.000000000               0.000000000               0.000000000               0.000000000               0.000026929               0.001793233               0.000006757              -0.000214055               0.000669090               0.000455035               0.000000000               0.000000000               0.000000000               0.000000000               0.000017920               0.001821584               0.000007070              -0.000220978               0.000680848               0.000459870               0.000000000               0.000000000               0.000000000               0.000000000               0.000578341               0.001366956               0.000724896               0.000046007               0.000440311               0.000486319               0.000000000               0.000000000               0.000000000               0.000000000               0.000400256               0.001369290               0.000544791              -0.000021066               0.000463447               0.000442381               0.000000000               0.000000000               0.000000000               0.000000000               0.000282124               0.001458565               0.000355340              -0.000076524               0.000511692               0.000435167               0.000000000               0.000000000               0.000000000               0.000000000               0.000242566               0.001487174               0.000264538              -0.000094934               0.000527365               0.000432430               0.000000000               0.000000000               0.000000000               0.000000000               0.000221714               0.001507618               0.000208799              -0.000105309               0.000537637               0.000432328               0.000000000               0.000000000               0.000000000               0.000000000               0.000203134               0.001534313               0.000169103              -0.000115614               0.000549970               0.000434357               0.000000000               0.000000000               0.000000000               0.000000000               0.000178619               0.001567516               0.000135971              -0.000128957               0.000565486               0.000436529               0.000000000               0.000000000               0.000000000               0.000000000               0.000153395               0.001603391               0.000106815              -0.000142900               0.000582092               0.000439191               0.000000000               0.000000000               0.000000000               0.000000000               0.000135094               0.001632168               0.000085151              -0.000153360               0.000595171               0.000441810               0.000000000               0.000000000               0.000000000               0.000000000               0.000124949               0.001655467               0.000070865              -0.000160077               0.000605176               0.000445099               0.000000000               0.000000000               0.000000000               0.000000000               0.000115196               0.001687383               0.000058150              -0.000167724               0.000618363               0.000450639               0.000000000               0.000000000               0.000000000               0.000000000               0.000102899               0.001735288               0.000043872              -0.000178323               0.000637865               0.000459541               0.000000000               0.000000000               0.000000000               0.000000000               0.000088671               0.001797698               0.000026530              -0.000191460               0.000663047               0.000471586               0.000000000               0.000000000               0.000000000               0.000000000               0.000067870               0.001861945               0.000013028              -0.000207292               0.000689739               0.000482448               0.000000000               0.000000000               0.000000000               0.000000000               0.000044400               0.001922356               0.000007998              -0.000223644               0.000715327               0.000491683               0.000000000               0.000000000               0.000000000               0.000000000               0.000021931               0.001978343               0.000004541              -0.000239068               0.000739131               0.000500063               0.000000000               0.000000000               0.000000000               0.000000000               0.000014967               0.002015033               0.000005719              -0.000246266               0.000753760               0.000507494               0.000000000               0.000000000               0.000000000               0.000000000               0.000591145               0.001129710               0.000668334               0.000080464               0.000349745               0.000430209               0.000000000               0.000000000               0.000000000               0.000000000               0.000407535               0.001214015               0.000533631               0.000001073               0.000404310               0.000405383               0.000000000               0.000000000               0.000000000               0.000000000               0.000277907               0.001375238               0.000380714              -0.000067690               0.000480971               0.000413282               0.000000000               0.000000000               0.000000000               0.000000000               0.000241582               0.001439254               0.000291384              -0.000089313               0.000509518               0.000420204               0.000000000               0.000000000               0.000000000               0.000000000               0.000223227               0.001481798               0.000229557              -0.000101515               0.000527766               0.000426251               0.000000000               0.000000000               0.000000000               0.000000000               0.000203380               0.001524688               0.000183351              -0.000114318               0.000546330               0.000432012               0.000000000               0.000000000               0.000000000               0.000000000               0.000178978               0.001572705               0.000147451              -0.000129471               0.000567387               0.000437916               0.000000000               0.000000000               0.000000000               0.000000000               0.000156967               0.001619902               0.000118536              -0.000143625               0.000587837               0.000444212               0.000000000               0.000000000               0.000000000               0.000000000               0.000143851               0.001654719               0.000093315              -0.000152895               0.000602533               0.000449637               0.000000000               0.000000000               0.000000000               0.000000000               0.000138854               0.001692631               0.000071331              -0.000159508               0.000617374               0.000457866               0.000000000               0.000000000               0.000000000               0.000000000               0.000132508               0.001749202               0.000051045              -0.000168959               0.000639381               0.000470422               0.000000000               0.000000000               0.000000000               0.000000000               0.000120726               0.001828365               0.000029528              -0.000183273               0.000670540               0.000487267               0.000000000               0.000000000               0.000000000               0.000000000               0.000104215               0.001918621               0.000012261              -0.000200747               0.000706449               0.000505703               0.000000000               0.000000000               0.000000000               0.000000000               0.000081417               0.001997553               0.000004839              -0.000219162               0.000738898               0.000519736               0.000000000               0.000000000               0.000000000               0.000000000               0.000058970               0.002068335               0.000002345              -0.000236428               0.000768247               0.000531820               0.000000000               0.000000000               0.000000000               0.000000000               0.000040862               0.002136363               0.000000686              -0.000251721               0.000796021               0.000544300               0.000000000               0.000000000               0.000000000               0.000000000               0.000031445               0.002172684               0.000000732              -0.000259793               0.000810818               0.000551026               0.000000000               0.000000000               0.000000000               0.000000000               0.000582851               0.000899050               0.000596324               0.000106186               0.000264285               0.000370471               0.000000000               0.000000000               0.000000000               0.000000000               0.000418910               0.001034175               0.000517435               0.000027819               0.000335448               0.000363267               0.000000000               0.000000000               0.000000000               0.000000000               0.000289865               0.001247703               0.000411903              -0.000047264               0.000431651               0.000384388               0.000000000               0.000000000               0.000000000               0.000000000               0.000252094               0.001348119               0.000326724              -0.000073980               0.000474028               0.000400049               0.000000000               0.000000000               0.000000000               0.000000000               0.000233618               0.001414360               0.000260094              -0.000089188               0.000501178               0.000411990               0.000000000               0.000000000               0.000000000               0.000000000               0.000215742               0.001473947               0.000209462              -0.000103340               0.000525757               0.000422417               0.000000000               0.000000000               0.000000000               0.000000000               0.000194496               0.001535278               0.000172267              -0.000118974               0.000551412               0.000432438               0.000000000               0.000000000               0.000000000               0.000000000               0.000172950               0.001592954               0.000142156              -0.000134263               0.000575733               0.000441471               0.000000000               0.000000000               0.000000000               0.000000000               0.000155785               0.001640622               0.000112874              -0.000146658               0.000595755               0.000449096               0.000000000               0.000000000               0.000000000               0.000000000               0.000148796               0.001694047               0.000085079              -0.000155957               0.000616663               0.000460705               0.000000000               0.000000000               0.000000000               0.000000000               0.000149690               0.001763896               0.000058989              -0.000164353               0.000642744               0.000478391               0.000000000               0.000000000               0.000000000               0.000000000               0.000150452               0.001854363               0.000034948              -0.000175375               0.000676573               0.000501198               0.000000000               0.000000000               0.000000000               0.000000000               0.000145286               0.001952661               0.000019852              -0.000189600               0.000714081               0.000524481               0.000000000               0.000000000               0.000000000               0.000000000               0.000131083               0.002041841               0.000012783              -0.000206074               0.000749298               0.000543225               0.000000000               0.000000000               0.000000000               0.000000000               0.000114567               0.002126701               0.000005737              -0.000222875               0.000783185               0.000560310               0.000000000               0.000000000               0.000000000               0.000000000               0.000096855               0.002204510              -0.000000411              -0.000239242               0.000814577               0.000575335               0.000000000               0.000000000               0.000000000               0.000000000               0.000080625               0.002235971              -0.000004584              -0.000249262               0.000828403               0.000579142               0.000000000               0.000000000               0.000000000               0.000000000               0.000549361               0.000681699               0.000511204               0.000120797               0.000186965               0.000307761               0.000000000               0.000000000               0.000000000               0.000000000               0.000428880               0.000853483               0.000487515               0.000054144               0.000266443               0.000320587               0.000000000               0.000000000               0.000000000               0.000000000               0.000313062               0.001101864               0.000432473              -0.000020335               0.000374062               0.000353727               0.000000000               0.000000000               0.000000000               0.000000000               0.000273888               0.001236832               0.000358986              -0.000051896               0.000429572               0.000377676               0.000000000               0.000000000               0.000000000               0.000000000               0.000254888               0.001330959               0.000292384              -0.000070787               0.000467244               0.000396457               0.000000000               0.000000000               0.000000000               0.000000000               0.000238568               0.001410878               0.000239700              -0.000086897               0.000499254               0.000412357               0.000000000               0.000000000               0.000000000               0.000000000               0.000218127               0.001481693               0.000200572              -0.000103414               0.000528364               0.000424950               0.000000000               0.000000000               0.000000000               0.000000000               0.000194985               0.001547899               0.000168510              -0.000120368               0.000556084               0.000435716               0.000000000               0.000000000               0.000000000               0.000000000               0.000177123               0.001613670               0.000137085              -0.000135287               0.000582980               0.000447693               0.000000000               0.000000000               0.000000000               0.000000000               0.000168673               0.001680234               0.000108073              -0.000146777               0.000608998               0.000462221               0.000000000               0.000000000               0.000000000               0.000000000               0.000172924               0.001754870               0.000081583              -0.000154512               0.000636455               0.000481943               0.000000000               0.000000000               0.000000000               0.000000000               0.000186005               0.001845436               0.000056548              -0.000160927               0.000668782               0.000507855               0.000000000               0.000000000               0.000000000               0.000000000               0.000194083               0.001944572               0.000036022              -0.000170290               0.000704947               0.000534658               0.000000000               0.000000000               0.000000000               0.000000000               0.000188568               0.002041924               0.000022654              -0.000184527               0.000742143               0.000557616               0.000000000               0.000000000               0.000000000               0.000000000               0.000176156               0.002131341               0.000012176              -0.000200358               0.000777226               0.000576868               0.000000000               0.000000000               0.000000000               0.000000000               0.000161164               0.002208633               0.000002391              -0.000215642               0.000808084               0.000592442               0.000000000               0.000000000               0.000000000               0.000000000               0.000143470               0.002237302              -0.000005284              -0.000225861               0.000821047               0.000595186               0.000000000               0.000000000               0.000000000               0.000000000               0.000493030               0.000491534               0.000414568               0.000123443               0.000122695               0.000246138               0.000000000               0.000000000               0.000000000               0.000000000               0.000426103               0.000680136               0.000436242               0.000074771               0.000201786               0.000276557               0.000000000               0.000000000               0.000000000               0.000000000               0.000340270               0.000940807               0.000426887               0.000010000               0.000310266               0.000320266               0.000000000               0.000000000               0.000000000               0.000000000               0.000303553               0.001103060               0.000371401              -0.000024050               0.000375700               0.000351649               0.000000000               0.000000000               0.000000000               0.000000000               0.000285481               0.001225879               0.000310534              -0.000046180               0.000424015               0.000377836               0.000000000               0.000000000               0.000000000               0.000000000               0.000268792               0.001325297               0.000258996              -0.000064865               0.000463383               0.000398518               0.000000000               0.000000000               0.000000000               0.000000000               0.000248402               0.001406972               0.000219497              -0.000082721               0.000496560               0.000413839               0.000000000               0.000000000               0.000000000               0.000000000               0.000226819               0.001485673               0.000187378              -0.000100652               0.000528770               0.000428118               0.000000000               0.000000000               0.000000000               0.000000000               0.000210403               0.001565464               0.000157751              -0.000116781               0.000560743               0.000443962               0.000000000               0.000000000               0.000000000               0.000000000               0.000204631               0.001645097               0.000131626              -0.000128900               0.000591327               0.000462427               0.000000000               0.000000000               0.000000000               0.000000000               0.000208582               0.001732421               0.000107035              -0.000138334               0.000623579               0.000485245               0.000000000               0.000000000               0.000000000               0.000000000               0.000220729               0.001828225               0.000081117              -0.000145754               0.000657987               0.000512233               0.000000000               0.000000000               0.000000000               0.000000000               0.000232837               0.001928002               0.000055237              -0.000153686               0.000693889               0.000540204               0.000000000               0.000000000               0.000000000               0.000000000               0.000237663               0.002030303               0.000035932              -0.000164664               0.000731649               0.000566985               0.000000000               0.000000000               0.000000000               0.000000000               0.000233115               0.002125419               0.000023369              -0.000178259               0.000767886               0.000589627               0.000000000               0.000000000               0.000000000               0.000000000               0.000223224               0.002206320               0.000011583              -0.000192081               0.000799460               0.000607379               0.000000000               0.000000000               0.000000000               0.000000000               0.000207643               0.002235596               0.000001558              -0.000201583               0.000812386               0.000610803               0.000000000               0.000000000               0.000000000               0.000000000               0.000416974               0.000335610               0.000314502               0.000114413               0.000073731               0.000188144               0.000000000               0.000000000               0.000000000               0.000000000               0.000411671               0.000520527               0.000367364               0.000089309               0.000143737               0.000233047               0.000000000               0.000000000               0.000000000               0.000000000               0.000367926               0.000775194               0.000392363               0.000041072               0.000244705               0.000285777               0.000000000               0.000000000               0.000000000               0.000000000               0.000340222               0.000957772               0.000355905               0.000007861               0.000316634               0.000324495               0.000000000               0.000000000               0.000000000               0.000000000               0.000323236               0.001102368               0.000305939              -0.000016583               0.000372980               0.000356397               0.000000000               0.000000000               0.000000000               0.000000000               0.000306711               0.001218104               0.000259417              -0.000037247               0.000418446               0.000381199               0.000000000               0.000000000               0.000000000               0.000000000               0.000287466               0.001314389               0.000222466              -0.000056499               0.000456958               0.000400459               0.000000000               0.000000000               0.000000000               0.000000000               0.000270544               0.001405493               0.000193803              -0.000074232               0.000493237               0.000419005               0.000000000               0.000000000               0.000000000               0.000000000               0.000257460               0.001497455               0.000169280              -0.000090634               0.000529358               0.000438724               0.000000000               0.000000000               0.000000000               0.000000000               0.000251023               0.001594709               0.000146535              -0.000105205               0.000566633               0.000461428               0.000000000               0.000000000               0.000000000               0.000000000               0.000252470               0.001699838               0.000123725              -0.000117803               0.000605875               0.000488071               0.000000000               0.000000000               0.000000000               0.000000000               0.000260325               0.001803899               0.000099536              -0.000127865               0.000643915               0.000516050               0.000000000               0.000000000               0.000000000               0.000000000               0.000272385               0.001907513               0.000073680              -0.000136294               0.000681263               0.000544968               0.000000000               0.000000000               0.000000000               0.000000000               0.000283620               0.002008542               0.000051709              -0.000144710               0.000717744               0.000573034               0.000000000               0.000000000               0.000000000               0.000000000               0.000286198               0.002102249               0.000035713              -0.000155457               0.000752561               0.000597105               0.000000000               0.000000000               0.000000000               0.000000000               0.000281063               0.002190660               0.000020760              -0.000168433               0.000786357               0.000617924               0.000000000               0.000000000               0.000000000               0.000000000               0.000268707               0.002227581               0.000009958              -0.000177682               0.000801747               0.000624065               0.000000000               0.000000000               0.000000000               0.000000000               0.000333762               0.000214741               0.000219200               0.000098317               0.000038807               0.000137124               0.000000000               0.000000000               0.000000000               0.000000000               0.000390529               0.000384151               0.000284674               0.000098428               0.000095239               0.000193668               0.000000000               0.000000000               0.000000000               0.000000000               0.000392092               0.000621283               0.000327779               0.000069373               0.000183968               0.000253341               0.000000000               0.000000000               0.000000000               0.000000000               0.000378268               0.000815011               0.000308666               0.000039973               0.000258343               0.000298316               0.000000000               0.000000000               0.000000000               0.000000000               0.000364373               0.000973832               0.000271466               0.000014911               0.000319637               0.000334548               0.000000000               0.000000000               0.000000000               0.000000000               0.000347474               0.001100333               0.000233887              -0.000007239               0.000369187               0.000361948               0.000000000               0.000000000               0.000000000               0.000000000               0.000332378               0.001211834               0.000203747              -0.000026838               0.000412886               0.000386049               0.000000000               0.000000000               0.000000000               0.000000000               0.000318941               0.001319681               0.000181196              -0.000045357               0.000455008               0.000409651               0.000000000               0.000000000               0.000000000               0.000000000               0.000308293               0.001427939               0.000161639              -0.000062882               0.000496936               0.000434053               0.000000000               0.000000000               0.000000000               0.000000000               0.000299552               0.001541314               0.000143578              -0.000080332               0.000540543               0.000460211               0.000000000               0.000000000               0.000000000               0.000000000               0.000299923               0.001658746               0.000126456              -0.000094872               0.000584534               0.000489662               0.000000000               0.000000000               0.000000000               0.000000000               0.000306242               0.001772255               0.000106085              -0.000106691               0.000626310               0.000519618               0.000000000               0.000000000               0.000000000               0.000000000               0.000315674               0.001879836               0.000083889              -0.000116602               0.000665473               0.000548871               0.000000000               0.000000000               0.000000000               0.000000000               0.000326156               0.001977107               0.000062877              -0.000124830               0.000700639               0.000575809               0.000000000               0.000000000               0.000000000               0.000000000               0.000333281               0.002069568               0.000043670              -0.000133716               0.000734421               0.000600705               0.000000000               0.000000000               0.000000000               0.000000000               0.000335899               0.002169577               0.000024276              -0.000145234               0.000771596               0.000626362               0.000000000               0.000000000               0.000000000               0.000000000               0.000328088               0.002217833               0.000011965              -0.000154196               0.000790669               0.000636473               0.000000000               0.000000000               0.000000000               0.000000000               0.000257239               0.000134195               0.000135496               0.000079689               0.000018168               0.000097857               0.000000000               0.000000000               0.000000000               0.000000000               0.000366108               0.000280942               0.000193141               0.000102172               0.000059589               0.000161761               0.000000000               0.000000000               0.000000000               0.000000000               0.000412033               0.000495428               0.000236049               0.000092583               0.000134280               0.000226863               0.000000000               0.000000000               0.000000000               0.000000000               0.000411674               0.000692638               0.000229105               0.000067797               0.000208278               0.000276075               0.000000000               0.000000000               0.000000000               0.000000000               0.000400507               0.000857923               0.000204789               0.000042949               0.000271655               0.000314604               0.000000000               0.000000000               0.000000000               0.000000000               0.000385996               0.000991929               0.000179381               0.000020757               0.000323721               0.000344478               0.000000000               0.000000000               0.000000000               0.000000000               0.000373531               0.001117928               0.000158739               0.000000333               0.000372528               0.000372861               0.000000000               0.000000000               0.000000000               0.000000000               0.000363431               0.001244029               0.000142344              -0.000019217               0.000421078               0.000401861               0.000000000               0.000000000               0.000000000               0.000000000               0.000353058               0.001368715               0.000127998              -0.000038693               0.000469131               0.000430439               0.000000000               0.000000000               0.000000000               0.000000000               0.000348699               0.001492628               0.000117805              -0.000055816               0.000516143               0.000460327               0.000000000               0.000000000               0.000000000               0.000000000               0.000347581               0.001613642               0.000108463              -0.000071362               0.000561663               0.000490300               0.000000000               0.000000000               0.000000000               0.000000000               0.000350023               0.001732383               0.000093281              -0.000085289               0.000605885               0.000520596               0.000000000               0.000000000               0.000000000               0.000000000               0.000355594               0.001842685               0.000075544              -0.000096988               0.000646551               0.000549564               0.000000000               0.000000000               0.000000000               0.000000000               0.000362378               0.001943228               0.000058404              -0.000107011               0.000683407               0.000576395               0.000000000               0.000000000               0.000000000               0.000000000               0.000373714               0.002044770               0.000041388              -0.000115453               0.000720068               0.000604614               0.000000000               0.000000000               0.000000000               0.000000000               0.000390641               0.002157721               0.000022862              -0.000123224               0.000760308               0.000637084               0.000000000               0.000000000               0.000000000               0.000000000               0.000395464               0.002215181               0.000011609              -0.000128598               0.000781253               0.000652654               0.000000000               0.000000000               0.000000000               0.000000000               0.000202134               0.000087029               0.000064437               0.000064921               0.000007369               0.000072290               0.000000000               0.000000000               0.000000000               0.000000000               0.000346294               0.000214819               0.000097231               0.000103007               0.000037270               0.000140277               0.000000000               0.000000000               0.000000000               0.000000000               0.000425451               0.000413150               0.000123433               0.000107899               0.000101749               0.000209648               0.000000000               0.000000000               0.000000000               0.000000000               0.000435609               0.000609719               0.000122462               0.000087138               0.000174192               0.000261329               0.000000000               0.000000000               0.000000000               0.000000000               0.000426317               0.000776600               0.000110739               0.000062793               0.000237933               0.000300726               0.000000000               0.000000000               0.000000000               0.000000000               0.000413304               0.000916712               0.000097993               0.000040400               0.000292101               0.000332501               0.000000000               0.000000000               0.000000000               0.000000000               0.000402107               0.001051422               0.000087949               0.000019362               0.000344016               0.000363379               0.000000000               0.000000000               0.000000000               0.000000000               0.000394702               0.001188739               0.000077979              -0.000000579               0.000396436               0.000395856               0.000000000               0.000000000               0.000000000               0.000000000               0.000389981               0.001326618               0.000071017              -0.000019584               0.000448730               0.000429145               0.000000000               0.000000000               0.000000000               0.000000000               0.000387145               0.001458245               0.000068049              -0.000037101               0.000498444               0.000461343               0.000000000               0.000000000               0.000000000               0.000000000               0.000382042               0.001580442               0.000063234              -0.000054289               0.000544905               0.000490616               0.000000000               0.000000000               0.000000000               0.000000000               0.000378435               0.001695997               0.000055466              -0.000070086               0.000588689               0.000518602               0.000000000               0.000000000               0.000000000               0.000000000               0.000380777               0.001806244               0.000044523              -0.000082989               0.000629738               0.000546749               0.000000000               0.000000000               0.000000000               0.000000000               0.000390397               0.001917795               0.000034483              -0.000093325               0.000670367               0.000577042               0.000000000               0.000000000               0.000000000               0.000000000               0.000409748               0.002036934               0.000026992              -0.000100961               0.000712625               0.000611664               0.000000000               0.000000000               0.000000000               0.000000000               0.000438923               0.002161471               0.000016769              -0.000105587               0.000755679               0.000650092               0.000000000               0.000000000               0.000000000               0.000000000               0.000455743               0.002223408               0.000009782              -0.000107022               0.000776803               0.000669781               0.000000000               0.000000000               0.000000000               0.000000000               0.000181925               0.000069561              -0.000000000               0.000059526               0.000003345               0.000062871               0.000000000               0.000000000               0.000000000               0.000000000               0.000338880               0.000191355              -0.000000000               0.000103160               0.000029398               0.000132557               0.000000000               0.000000000               0.000000000               0.000000000               0.000430031               0.000385679               0.000000000               0.000113051               0.000090875               0.000203925               0.000000000               0.000000000               0.000000000               0.000000000               0.000444560               0.000580173               0.000000000               0.000094187               0.000161993               0.000256181               0.000000000               0.000000000               0.000000000               0.000000000               0.000436124               0.000746899              -0.000000000               0.000070183               0.000225569               0.000295753               0.000000000               0.000000000               0.000000000               0.000000000               0.000422664               0.000890476               0.000000000               0.000047189               0.000281093               0.000328282               0.000000000               0.000000000               0.000000000               0.000000000               0.000412669               0.001026698              -0.000000000               0.000026413               0.000333425               0.000359838               0.000000000               0.000000000               0.000000000               0.000000000               0.000405532               0.001166782               0.000000000               0.000006227               0.000386848               0.000393075               0.000000000               0.000000000               0.000000000               0.000000000               0.000406493               0.001311676               0.000000000              -0.000011525               0.000441062               0.000429538               0.000000000               0.000000000               0.000000000               0.000000000               0.000401025               0.001446778               0.000000000              -0.000030463               0.000492409               0.000461946               0.000000000               0.000000000               0.000000000               0.000000000               0.000393468               0.001569431               0.000000000              -0.000048628               0.000539348               0.000490720               0.000000000               0.000000000               0.000000000               0.000000000               0.000387059               0.001678869               0.000000000              -0.000064711               0.000581188               0.000516476               0.000000000               0.000000000               0.000000000               0.000000000               0.000388310               0.001788646               0.000000000              -0.000077964               0.000622198               0.000544233               0.000000000               0.000000000               0.000000000               0.000000000               0.000404053               0.001913584               0.000000000              -0.000087678               0.000667081               0.000579403               0.000000000               0.000000000               0.000000000               0.000000000               0.000427630               0.002039762              -0.000000000              -0.000094609               0.000711450               0.000616841               0.000000000               0.000000000               0.000000000               0.000000000               0.000457451               0.002160875               0.000000000              -0.000098565               0.000753139               0.000654574               0.000000000               0.000000000               0.000000000               0.000000000               0.000477063               0.002221709               0.000000000              -0.000098815               0.000773500               0.000674686               0.000000000               0.000000000               0.000000000               0.000000000               0.000247931               0.002770313              -0.000000000              -0.000253314               0.001007867               0.000754552               0.000000000               0.000000000               0.000000000               0.000000000               0.000289827               0.002313823              -0.000000000              -0.000180542               0.000831447               0.000650905               0.000000000               0.000000000               0.000000000               0.000000000               0.000421786               0.001942698              -0.000000000              -0.000084667               0.000675782               0.000591115               0.000000000               0.000000000               0.000000000               0.000000000               0.000463258               0.001731162               0.000000000              -0.000042673               0.000591273               0.000548599               0.000000000               0.000000000               0.000000000               0.000000000               0.000466558               0.001607335               0.000000000              -0.000025958               0.000544425               0.000518468               0.000000000               0.000000000               0.000000000               0.000000000               0.000450069               0.001533445               0.000000000              -0.000022905               0.000518778               0.000495874               0.000000000               0.000000000               0.000000000               0.000000000               0.000422814               0.001492085               0.000000000              -0.000027955               0.000506675               0.000478720               0.000000000               0.000000000               0.000000000               0.000000000               0.000390987               0.001473244               0.000000000              -0.000037535               0.000503588               0.000466053               0.000000000               0.000000000               0.000000000               0.000000000               0.000354616               0.001473224              -0.000000000              -0.000051172               0.000508127               0.000456955               0.000000000               0.000000000               0.000000000               0.000000000               0.000310338               0.001487616              -0.000000000              -0.000069575               0.000519059               0.000449484               0.000000000               0.000000000               0.000000000               0.000000000               0.000263962               0.001511761              -0.000000000              -0.000089984               0.000533910               0.000443926               0.000000000               0.000000000               0.000000000               0.000000000               0.000221390               0.001542092              -0.000000000              -0.000109740               0.000550606               0.000440866               0.000000000               0.000000000               0.000000000               0.000000000               0.000180004               0.001570736              -0.000000000              -0.000128840               0.000566520               0.000437680               0.000000000               0.000000000               0.000000000               0.000000000               0.000139863               0.001599273              -0.000000000              -0.000147460               0.000582239               0.000434779               0.000000000               0.000000000               0.000000000               0.000000000               0.000098402               0.001632760              -0.000000000              -0.000167194               0.000599979               0.000432785               0.000000000               0.000000000               0.000000000               0.000000000               0.000050523               0.001669020               0.000000000              -0.000189681               0.000619561               0.000429881               0.000000000               0.000000000               0.000000000               0.000000000               0.000029046               0.001698447               0.000000000              -0.000201413               0.000633281               0.000431868               0.000000000               0.000000000               0.000000000               0.000000000               0.000263376               0.002725926              -0.000217388              -0.000241974               0.000989291               0.000747317               0.000000000               0.000000000               0.000000000               0.000000000               0.000295978               0.002283228              -0.000147520              -0.000174412               0.000819206               0.000644794               0.000000000               0.000000000               0.000000000               0.000000000               0.000416859               0.001925684              -0.000076068              -0.000084388               0.000670018               0.000585629               0.000000000               0.000000000               0.000000000               0.000000000               0.000452736               0.001725325              -0.000043124              -0.000045890               0.000590399               0.000544509               0.000000000               0.000000000               0.000000000               0.000000000               0.000452854               0.001606493              -0.000027346              -0.000030991               0.000545823               0.000514831               0.000000000               0.000000000               0.000000000               0.000000000               0.000436436               0.001536291              -0.000020060              -0.000028373               0.000521549               0.000493177               0.000000000               0.000000000               0.000000000               0.000000000               0.000409432               0.001495505              -0.000016532              -0.000033401               0.000509630               0.000476229               0.000000000               0.000000000               0.000000000               0.000000000               0.000378218               0.001478177              -0.000014108              -0.000042940               0.000507034               0.000464094               0.000000000               0.000000000               0.000000000               0.000000000               0.000341946               0.001477797              -0.000010925              -0.000056495               0.000511426               0.000454931               0.000000000               0.000000000               0.000000000               0.000000000               0.000299707               0.001491677              -0.000008366              -0.000074069               0.000521911               0.000447841               0.000000000               0.000000000               0.000000000               0.000000000               0.000256543               0.001516064              -0.000008063              -0.000093304               0.000536451               0.000443147               0.000000000               0.000000000               0.000000000               0.000000000               0.000214732               0.001543124              -0.000011227              -0.000112366               0.000551825               0.000439459               0.000000000               0.000000000               0.000000000               0.000000000               0.000174967               0.001569148              -0.000015586              -0.000130531               0.000566554               0.000436024               0.000000000               0.000000000               0.000000000               0.000000000               0.000136222               0.001595365              -0.000014640              -0.000148337               0.000581229               0.000432892               0.000000000               0.000000000               0.000000000               0.000000000               0.000093767               0.001625241              -0.000010839              -0.000167992               0.000597739               0.000429747               0.000000000               0.000000000               0.000000000               0.000000000               0.000046308               0.001655747              -0.000007240              -0.000189602               0.000615111               0.000425509               0.000000000               0.000000000               0.000000000               0.000000000               0.000025692               0.001680414              -0.000005612              -0.000200417               0.000626938               0.000426521               0.000000000               0.000000000               0.000000000               0.000000000               0.000310339               0.002601346              -0.000412677              -0.000208791               0.000936704               0.000727913               0.000000000               0.000000000               0.000000000               0.000000000               0.000314273               0.002196133              -0.000281349              -0.000156664               0.000784258               0.000627594               0.000000000               0.000000000               0.000000000               0.000000000               0.000402176               0.001880190              -0.000146732              -0.000084208               0.000654793               0.000570585               0.000000000               0.000000000               0.000000000               0.000000000               0.000422914               0.001706560              -0.000085795              -0.000054727               0.000587090               0.000532363               0.000000000               0.000000000               0.000000000               0.000000000               0.000416515               0.001603112              -0.000056643              -0.000044196               0.000549097               0.000504901               0.000000000               0.000000000               0.000000000               0.000000000               0.000397986               0.001541549              -0.000043264              -0.000043449               0.000528328               0.000484879               0.000000000               0.000000000               0.000000000               0.000000000               0.000372109               0.001506376              -0.000036069              -0.000048756               0.000518372               0.000469616               0.000000000               0.000000000               0.000000000               0.000000000               0.000343125               0.001491847              -0.000030326              -0.000057809               0.000516547               0.000458738               0.000000000               0.000000000               0.000000000               0.000000000               0.000309409               0.001493135              -0.000023852              -0.000070613               0.000521244               0.000450631               0.000000000               0.000000000               0.000000000               0.000000000               0.000271366               0.001506384              -0.000017499              -0.000086536               0.000530968               0.000444432               0.000000000               0.000000000               0.000000000               0.000000000               0.000234088               0.001526517              -0.000017174              -0.000103031               0.000543178               0.000440146               0.000000000               0.000000000               0.000000000               0.000000000               0.000199801               0.001546725              -0.000022956              -0.000118415               0.000555042               0.000436627               0.000000000               0.000000000               0.000000000               0.000000000               0.000164034               0.001564502              -0.000028314              -0.000134050               0.000566178               0.000432129               0.000000000               0.000000000               0.000000000               0.000000000               0.000125404               0.001583872              -0.000024247              -0.000150957               0.000578271               0.000427314               0.000000000               0.000000000               0.000000000               0.000000000               0.000086612               0.001605729              -0.000017079              -0.000168236               0.000591316               0.000423080               0.000000000               0.000000000               0.000000000               0.000000000               0.000044836               0.001624946              -0.000011886              -0.000186304               0.000603745               0.000417440               0.000000000               0.000000000               0.000000000               0.000000000               0.000025202               0.001639577              -0.000009240              -0.000195496               0.000611686               0.000416190               0.000000000               0.000000000               0.000000000               0.000000000               0.000375368               0.002411521              -0.000569828              -0.000160677               0.000857391               0.000696714               0.000000000               0.000000000               0.000000000               0.000000000               0.000337891               0.002063001              -0.000390953              -0.000131166               0.000731382               0.000600216               0.000000000               0.000000000               0.000000000               0.000000000               0.000380299               0.001813745              -0.000208106              -0.000084106               0.000632611               0.000548505               0.000000000               0.000000000               0.000000000               0.000000000               0.000380952               0.001675502              -0.000126914              -0.000066581               0.000580689               0.000514108               0.000000000               0.000000000               0.000000000               0.000000000               0.000366456               0.001595250              -0.000089465              -0.000061985               0.000552406               0.000490421               0.000000000               0.000000000               0.000000000               0.000000000               0.000345615               0.001547607              -0.000070744              -0.000063845               0.000537146               0.000473300               0.000000000               0.000000000               0.000000000               0.000000000               0.000321187               0.001522040              -0.000059717              -0.000069810               0.000530611               0.000460802               0.000000000               0.000000000               0.000000000               0.000000000               0.000294567               0.001513392              -0.000049721              -0.000078711               0.000530696               0.000451985               0.000000000               0.000000000               0.000000000               0.000000000               0.000263648               0.001517649              -0.000038113              -0.000090838               0.000536157               0.000445319               0.000000000               0.000000000               0.000000000               0.000000000               0.000229895               0.001529947              -0.000028890              -0.000105032               0.000544988               0.000439956               0.000000000               0.000000000               0.000000000               0.000000000               0.000201096               0.001542116              -0.000027068              -0.000117353               0.000553151               0.000435798               0.000000000               0.000000000               0.000000000               0.000000000               0.000175919               0.001553459              -0.000032743              -0.000128212               0.000560552               0.000432340               0.000000000               0.000000000               0.000000000               0.000000000               0.000147162               0.001563483              -0.000035033              -0.000140249               0.000567906               0.000427656               0.000000000               0.000000000               0.000000000               0.000000000               0.000114260               0.001577580              -0.000026019              -0.000154349               0.000577305               0.000422955               0.000000000               0.000000000               0.000000000               0.000000000               0.000076197               0.001590041              -0.000017046              -0.000170181               0.000586735               0.000416554               0.000000000               0.000000000               0.000000000               0.000000000               0.000036375               0.001600047              -0.000011549              -0.000186365               0.000595465               0.000409100               0.000000000               0.000000000               0.000000000               0.000000000               0.000018772               0.001608494              -0.000008847              -0.000194022               0.000600833               0.000406812               0.000000000               0.000000000               0.000000000               0.000000000               0.000443505               0.002172009              -0.000680589              -0.000105187               0.000759058               0.000653871               0.000000000               0.000000000               0.000000000               0.000000000               0.000361118               0.001899140              -0.000470108              -0.000101973               0.000667031               0.000565058               0.000000000               0.000000000               0.000000000               0.000000000               0.000353185               0.001731338              -0.000258071              -0.000083973               0.000605098               0.000521125               0.000000000               0.000000000               0.000000000               0.000000000               0.000332773               0.001635835              -0.000166709              -0.000079689               0.000571836               0.000492147               0.000000000               0.000000000               0.000000000               0.000000000               0.000313390               0.001582338              -0.000123870              -0.000080271               0.000554198               0.000473927               0.000000000               0.000000000               0.000000000               0.000000000               0.000291904               0.001551309              -0.000101004              -0.000084449               0.000545248               0.000460798               0.000000000               0.000000000               0.000000000               0.000000000               0.000268214               0.001538009              -0.000085057              -0.000091671               0.000543221               0.000451551               0.000000000               0.000000000               0.000000000               0.000000000               0.000242972               0.001538146              -0.000069580              -0.000101154               0.000546428               0.000445274               0.000000000               0.000000000               0.000000000               0.000000000               0.000215380               0.001548716              -0.000053019              -0.000112822               0.000553841               0.000441019               0.000000000               0.000000000               0.000000000               0.000000000               0.000188739               0.001559055              -0.000040794              -0.000124104               0.000561048               0.000436943               0.000000000               0.000000000               0.000000000               0.000000000               0.000168348               0.001565567              -0.000037711              -0.000132565               0.000566039               0.000433474               0.000000000               0.000000000               0.000000000               0.000000000               0.000150811               0.001568852              -0.000039923              -0.000139552               0.000569463               0.000429911               0.000000000               0.000000000               0.000000000               0.000000000               0.000127924               0.001575226              -0.000035634              -0.000148931               0.000574714               0.000425783               0.000000000               0.000000000               0.000000000               0.000000000               0.000100061               0.001587016              -0.000022637              -0.000160854               0.000582618               0.000421764               0.000000000               0.000000000               0.000000000               0.000000000               0.000069390               0.001597167              -0.000012912              -0.000173624               0.000590259               0.000416634               0.000000000               0.000000000               0.000000000               0.000000000               0.000034252               0.001606576              -0.000006518              -0.000187977               0.000598179               0.000410202               0.000000000               0.000000000               0.000000000               0.000000000               0.000018586               0.001616583              -0.000004688              -0.000195102               0.000603890               0.000408787               0.000000000               0.000000000               0.000000000               0.000000000               0.000506722               0.001904981              -0.000740083              -0.000048103               0.000651021               0.000602919               0.000000000               0.000000000               0.000000000               0.000000000               0.000380348               0.001721098              -0.000519489              -0.000072507               0.000597862               0.000525355               0.000000000               0.000000000               0.000000000               0.000000000               0.000325144               0.001641680              -0.000298675              -0.000083281               0.000574982               0.000491700               0.000000000               0.000000000               0.000000000               0.000000000               0.000290313               0.001591111              -0.000204007              -0.000090021               0.000560372               0.000470351               0.000000000               0.000000000               0.000000000               0.000000000               0.000266794               0.001562609              -0.000157439              -0.000095278               0.000552624               0.000457346               0.000000000               0.000000000               0.000000000               0.000000000               0.000246456               0.001550118              -0.000129469              -0.000101344               0.000550482               0.000449138               0.000000000               0.000000000               0.000000000               0.000000000               0.000223350               0.001551816              -0.000108093              -0.000110221               0.000554007               0.000443786               0.000000000               0.000000000               0.000000000               0.000000000               0.000198342               0.001564185              -0.000086855              -0.000121144               0.000561771               0.000440627               0.000000000               0.000000000               0.000000000               0.000000000               0.000174157               0.001581349              -0.000066603              -0.000132359               0.000571231               0.000438871               0.000000000               0.000000000               0.000000000               0.000000000               0.000152917               0.001590372              -0.000053096              -0.000141452               0.000577269               0.000435817               0.000000000               0.000000000               0.000000000               0.000000000               0.000138101               0.001593227              -0.000048635              -0.000147365               0.000580192               0.000432827               0.000000000               0.000000000               0.000000000               0.000000000               0.000126323               0.001597536              -0.000047051              -0.000152320               0.000583280               0.000430960               0.000000000               0.000000000               0.000000000               0.000000000               0.000109094               0.001609945              -0.000036496              -0.000160333               0.000590087               0.000429755               0.000000000               0.000000000               0.000000000               0.000000000               0.000086756               0.001626126              -0.000021490              -0.000170732               0.000598947               0.000428215               0.000000000               0.000000000               0.000000000               0.000000000               0.000064168               0.001644009              -0.000012892              -0.000181438               0.000608477               0.000427039               0.000000000               0.000000000               0.000000000               0.000000000               0.000034506               0.001663733              -0.000006330              -0.000195026               0.000619581               0.000424555               0.000000000               0.000000000               0.000000000               0.000000000               0.000021743               0.001681238              -0.000005179              -0.000202000               0.000627741               0.000425740               0.000000000               0.000000000               0.000000000               0.000000000               0.000552953               0.001632597              -0.000752165               0.000003282               0.000543099               0.000546381               0.000000000               0.000000000               0.000000000               0.000000000               0.000394032               0.001541501              -0.000543183              -0.000044926               0.000528804               0.000483878               0.000000000               0.000000000               0.000000000               0.000000000               0.000300489               0.001549655              -0.000330785              -0.000081023               0.000543554               0.000462531               0.000000000               0.000000000               0.000000000               0.000000000               0.000259369               0.001540361              -0.000237263              -0.000095282               0.000545209               0.000449927               0.000000000               0.000000000               0.000000000               0.000000000               0.000235944               0.001536524              -0.000186729              -0.000103586               0.000546698               0.000443112               0.000000000               0.000000000               0.000000000               0.000000000               0.000217214               0.001544272              -0.000153227              -0.000111579               0.000551945               0.000440367               0.000000000               0.000000000               0.000000000               0.000000000               0.000193141               0.001561461              -0.000125557              -0.000122755               0.000561400               0.000438646               0.000000000               0.000000000               0.000000000               0.000000000               0.000166927               0.001586592              -0.000099388              -0.000135726               0.000574101               0.000438375               0.000000000               0.000000000               0.000000000               0.000000000               0.000146150               0.001609238              -0.000077553              -0.000146348               0.000585190               0.000438842               0.000000000               0.000000000               0.000000000               0.000000000               0.000130486               0.001621302              -0.000064896              -0.000153730               0.000591672               0.000437942               0.000000000               0.000000000               0.000000000               0.000000000               0.000118065               0.001630371              -0.000057915              -0.000159522               0.000596625               0.000437104               0.000000000               0.000000000               0.000000000               0.000000000               0.000107808               0.001650220              -0.000050114              -0.000165849               0.000605351               0.000439502               0.000000000               0.000000000               0.000000000               0.000000000               0.000093110               0.001680704              -0.000035919              -0.000175171               0.000618619               0.000443448               0.000000000               0.000000000               0.000000000               0.000000000               0.000073321               0.001715816              -0.000020820              -0.000186981               0.000634260               0.000447279               0.000000000               0.000000000               0.000000000               0.000000000               0.000052578               0.001754303              -0.000012528              -0.000199571               0.000651285               0.000451715               0.000000000               0.000000000               0.000000000               0.000000000               0.000026929               0.001793233              -0.000006757              -0.000214055               0.000669090               0.000455035               0.000000000               0.000000000               0.000000000               0.000000000               0.000017920               0.001821584              -0.000007070              -0.000220978               0.000680848               0.000459870               0.000000000               0.000000000               0.000000000               0.000000000               0.000578341               0.001366956              -0.000724896               0.000046007               0.000440311               0.000486319               0.000000000               0.000000000               0.000000000               0.000000000               0.000400256               0.001369290              -0.000544791              -0.000021066               0.000463447               0.000442381               0.000000000               0.000000000               0.000000000               0.000000000               0.000282124               0.001458565              -0.000355340              -0.000076524               0.000511692               0.000435167               0.000000000               0.000000000               0.000000000               0.000000000               0.000242566               0.001487174              -0.000264538              -0.000094934               0.000527365               0.000432430               0.000000000               0.000000000               0.000000000               0.000000000               0.000221714               0.001507618              -0.000208799              -0.000105309               0.000537637               0.000432328               0.000000000               0.000000000               0.000000000               0.000000000               0.000203134               0.001534313              -0.000169103              -0.000115614               0.000549970               0.000434357               0.000000000               0.000000000               0.000000000               0.000000000               0.000178619               0.001567516              -0.000135971              -0.000128957               0.000565486               0.000436529               0.000000000               0.000000000               0.000000000               0.000000000               0.000153395               0.001603391              -0.000106815              -0.000142900               0.000582092               0.000439191               0.000000000               0.000000000               0.000000000               0.000000000               0.000135094               0.001632168              -0.000085151              -0.000153360               0.000595171               0.000441810               0.000000000               0.000000000               0.000000000               0.000000000               0.000124949               0.001655467              -0.000070865              -0.000160077               0.000605176               0.000445099               0.000000000               0.000000000               0.000000000               0.000000000               0.000115196               0.001687383              -0.000058150              -0.000167724               0.000618363               0.000450639               0.000000000               0.000000000               0.000000000               0.000000000               0.000102899               0.001735288              -0.000043872              -0.000178323               0.000637865               0.000459541               0.000000000               0.000000000               0.000000000               0.000000000               0.000088671               0.001797698              -0.000026530              -0.000191460               0.000663047               0.000471586               0.000000000               0.000000000               0.000000000               0.000000000               0.000067870               0.001861945              -0.000013028              -0.000207292               0.000689739               0.000482448               0.000000000               0.000000000               0.000000000               0.000000000               0.000044400               0.001922356              -0.000007998              -0.000223644               0.000715327               0.000491683               0.000000000               0.000000000               0.000000000               0.000000000               0.000021931               0.001978343              -0.000004541              -0.000239068               0.000739131               0.000500063               0.000000000               0.000000000               0.000000000               0.000000000               0.000014967               0.002015033              -0.000005719              -0.000246266               0.000753760               0.000507494               0.000000000               0.000000000               0.000000000               0.000000000               0.000591145               0.001129710              -0.000668334               0.000080464               0.000349745               0.000430209               0.000000000               0.000000000               0.000000000               0.000000000               0.000407535               0.001214015              -0.000533631               0.000001073               0.000404310               0.000405383               0.000000000               0.000000000               0.000000000               0.000000000               0.000277907               0.001375238              -0.000380714              -0.000067690               0.000480971               0.000413282               0.000000000               0.000000000               0.000000000               0.000000000               0.000241582               0.001439254              -0.000291384              -0.000089313               0.000509518               0.000420204               0.000000000               0.000000000               0.000000000               0.000000000               0.000223227               0.001481798              -0.000229557              -0.000101515               0.000527766               0.000426251               0.000000000               0.000000000               0.000000000               0.000000000               0.000203380               0.001524688              -0.000183351              -0.000114318               0.000546330               0.000432012               0.000000000               0.000000000               0.000000000               0.000000000               0.000178978               0.001572705              -0.000147451              -0.000129471               0.000567387               0.000437916               0.000000000               0.000000000               0.000000000               0.000000000               0.000156967               0.001619902              -0.000118536              -0.000143625               0.000587837               0.000444212               0.000000000               0.000000000               0.000000000               0.000000000               0.000143851               0.001654719              -0.000093315              -0.000152895               0.000602533               0.000449637               0.000000000               0.000000000               0.000000000               0.000000000               0.000138854               0.001692631              -0.000071331              -0.000159508               0.000617374               0.000457866               0.000000000               0.000000000               0.000000000               0.000000000               0.000132508               0.001749202              -0.000051045              -0.000168959               0.000639381               0.000470422               0.000000000               0.000000000               0.000000000               0.000000000               0.000120726               0.001828365              -0.000029528              -0.000183273               0.000670540               0.000487267               0.000000000               0.000000000               0.000000000               0.000000000               0.000104215               0.001918621              -0.000012261              -0.000200747               0.000706449               0.000505703               0.000000000               0.000000000               0.000000000               0.000000000               0.000081417               0.001997553              -0.000004839              -0.000219162               0.000738898               0.000519736               0.000000000               0.000000000               0.000000000               0.000000000               0.000058970               0.002068335              -0.000002345              -0.000236428               0.000768247               0.000531820               0.000000000               0.000000000               0.000000000               0.000000000               0.000040862               0.002136363              -0.000000686              -0.000251721               0.000796021               0.000544300               0.000000000               0.000000000               0.000000000               0.000000000               0.000031445               0.002172684              -0.000000732              -0.000259793               0.000810818               0.000551026               0.000000000               0.000000000               0.000000000               0.000000000               0.000582851               0.000899050              -0.000596324               0.000106186               0.000264285               0.000370471               0.000000000               0.000000000               0.000000000               0.000000000               0.000418910               0.001034175              -0.000517435               0.000027819               0.000335448               0.000363267               0.000000000               0.000000000               0.000000000               0.000000000               0.000289865               0.001247703              -0.000411903              -0.000047264               0.000431651               0.000384388               0.000000000               0.000000000               0.000000000               0.000000000               0.000252094               0.001348119              -0.000326724              -0.000073980               0.000474028               0.000400049               0.000000000               0.000000000               0.000000000               0.000000000               0.000233618               0.001414360              -0.000260094              -0.000089188               0.000501178               0.000411990               0.000000000               0.000000000               0.000000000               0.000000000               0.000215742               0.001473947              -0.000209462              -0.000103340               0.000525757               0.000422417               0.000000000               0.000000000               0.000000000               0.000000000               0.000194496               0.001535278              -0.000172267              -0.000118974               0.000551412               0.000432438               0.000000000               0.000000000               0.000000000               0.000000000               0.000172950               0.001592954              -0.000142156              -0.000134263               0.000575733               0.000441471               0.000000000               0.000000000               0.000000000               0.000000000               0.000155785               0.001640622              -0.000112874              -0.000146658               0.000595755               0.000449096               0.000000000               0.000000000               0.000000000               0.000000000               0.000148796               0.001694047              -0.000085079              -0.000155957               0.000616663               0.000460705               0.000000000               0.000000000               0.000000000               0.000000000               0.000149690               0.001763896              -0.000058989              -0.000164353               0.000642744               0.000478391               0.000000000               0.000000000               0.000000000               0.000000000               0.000150452               0.001854363              -0.000034948              -0.000175375               0.000676573               0.000501198               0.000000000               0.000000000               0.000000000               0.000000000               0.000145286               0.001952661              -0.000019852              -0.000189600               0.000714081               0.000524481               0.000000000               0.000000000               0.000000000               0.000000000               0.000131083               0.002041841              -0.000012783              -0.000206074               0.000749298               0.000543225               0.000000000               0.000000000               0.000000000               0.000000000               0.000114567               0.002126701              -0.000005737              -0.000222875               0.000783185               0.000560310               0.000000000               0.000000000               0.000000000               0.000000000               0.000096855               0.002204510               0.000000411              -0.000239242               0.000814577               0.000575335               0.000000000               0.000000000               0.000000000               0.000000000               0.000080625               0.002235971               0.000004584              -0.000249262               0.000828403               0.000579142               0.000000000               0.000000000               0.000000000               0.000000000               0.000549361               0.000681699              -0.000511204               0.000120797               0.000186965               0.000307761               0.000000000               0.000000000               0.000000000               0.000000000               0.000428880               0.000853483              -0.000487515               0.000054144               0.000266443               0.000320587               0.000000000               0.000000000               0.000000000               0.000000000               0.000313062               0.001101864              -0.000432473              -0.000020335               0.000374062               0.000353727               0.000000000               0.000000000               0.000000000               0.000000000               0.000273888               0.001236832              -0.000358986              -0.000051896               0.000429572               0.000377676               0.000000000               0.000000000               0.000000000               0.000000000               0.000254888               0.001330959              -0.000292384              -0.000070787               0.000467244               0.000396457               0.000000000               0.000000000               0.000000000               0.000000000               0.000238568               0.001410878              -0.000239700              -0.000086897               0.000499254               0.000412357               0.000000000               0.000000000               0.000000000               0.000000000               0.000218127               0.001481693              -0.000200572              -0.000103414               0.000528364               0.000424950               0.000000000               0.000000000               0.000000000               0.000000000               0.000194985               0.001547899              -0.000168510              -0.000120368               0.000556084               0.000435716               0.000000000               0.000000000               0.000000000               0.000000000               0.000177123               0.001613670              -0.000137085              -0.000135287               0.000582980               0.000447693               0.000000000               0.000000000               0.000000000               0.000000000               0.000168673               0.001680234              -0.000108073              -0.000146777               0.000608998               0.000462221               0.000000000               0.000000000               0.000000000               0.000000000               0.000172924               0.001754870              -0.000081583              -0.000154512               0.000636455               0.000481943               0.000000000               0.000000000               0.000000000               0.000000000               0.000186005               0.001845436              -0.000056548              -0.000160927               0.000668782               0.000507855               0.000000000               0.000000000               0.000000000               0.000000000               0.000194083               0.001944572              -0.000036022              -0.000170290               0.000704947               0.000534658               0.000000000               0.000000000               0.000000000               0.000000000               0.000188568               0.002041924              -0.000022654              -0.000184527               0.000742143               0.000557616               0.000000000               0.000000000               0.000000000               0.000000000               0.000176156               0.002131341              -0.000012176              -0.000200358               0.000777226               0.000576868               0.000000000               0.000000000               0.000000000               0.000000000               0.000161164               0.002208633              -0.000002391              -0.000215642               0.000808084               0.000592442               0.000000000               0.000000000               0.000000000               0.000000000               0.000143470               0.002237302               0.000005284              -0.000225861               0.000821047               0.000595186               0.000000000               0.000000000               0.000000000               0.000000000               0.000493030               0.000491534              -0.000414568               0.000123443               0.000122695               0.000246138               0.000000000               0.000000000               0.000000000               0.000000000               0.000426103               0.000680136              -0.000436242               0.000074771               0.000201786               0.000276557               0.000000000               0.000000000               0.000000000               0.000000000               0.000340270               0.000940807              -0.000426887               0.000010000               0.000310266               0.000320266               0.000000000               0.000000000               0.000000000               0.000000000               0.000303553               0.001103060              -0.000371401              -0.000024050               0.000375700               0.000351649               0.000000000               0.000000000               0.000000000               0.000000000               0.000285481               0.001225879              -0.000310534              -0.000046180               0.000424015               0.000377836               0.000000000               0.000000000               0.000000000               0.000000000               0.000268792               0.001325297              -0.000258996              -0.000064865               0.000463383               0.000398518               0.000000000               0.000000000               0.000000000               0.000000000               0.000248402               0.001406972              -0.000219497              -0.000082721               0.000496560               0.000413839               0.000000000               0.000000000               0.000000000               0.000000000               0.000226819               0.001485673              -0.000187378              -0.000100652               0.000528770               0.000428118               0.000000000               0.000000000               0.000000000               0.000000000               0.000210403               0.001565464              -0.000157751              -0.000116781               0.000560743               0.000443962               0.000000000               0.000000000               0.000000000               0.000000000               0.000204631               0.001645097              -0.000131626              -0.000128900               0.000591327               0.000462427               0.000000000               0.000000000               0.000000000               0.000000000               0.000208582               0.001732421              -0.000107035              -0.000138334               0.000623579               0.000485245               0.000000000               0.000000000               0.000000000               0.000000000               0.000220729               0.001828225              -0.000081117              -0.000145754               0.000657987               0.000512233               0.000000000               0.000000000               0.000000000               0.000000000               0.000232837               0.001928002              -0.000055237              -0.000153686               0.000693889               0.000540204               0.000000000               0.000000000               0.000000000               0.000000000               0.000237663               0.002030303              -0.000035932              -0.000164664               0.000731649               0.000566985               0.000000000               0.000000000               0.000000000               0.000000000               0.000233115               0.002125419              -0.000023369              -0.000178259               0.000767886               0.000589627               0.000000000               0.000000000               0.000000000               0.000000000               0.000223224               0.002206320              -0.000011583              -0.000192081               0.000799460               0.000607379               0.000000000               0.000000000               0.000000000               0.000000000               0.000207643               0.002235596              -0.000001558              -0.000201583               0.000812386               0.000610803               0.000000000               0.000000000               0.000000000               0.000000000               0.000416974               0.000335610              -0.000314502               0.000114413               0.000073731               0.000188144               0.000000000               0.000000000               0.000000000               0.000000000               0.000411671               0.000520527              -0.000367364               0.000089309               0.000143737               0.000233047               0.000000000               0.000000000               0.000000000               0.000000000               0.000367926               0.000775194              -0.000392363               0.000041072               0.000244705               0.000285777               0.000000000               0.000000000               0.000000000               0.000000000               0.000340222               0.000957772              -0.000355905               0.000007861               0.000316634               0.000324495               0.000000000               0.000000000               0.000000000               0.000000000               0.000323236               0.001102368              -0.000305939              -0.000016583               0.000372980               0.000356397               0.000000000               0.000000000               0.000000000               0.000000000               0.000306711               0.001218104              -0.000259417              -0.000037247               0.000418446               0.000381199               0.000000000               0.000000000               0.000000000               0.000000000               0.000287466               0.001314389              -0.000222466              -0.000056499               0.000456958               0.000400459               0.000000000               0.000000000               0.000000000               0.000000000               0.000270544               0.001405493              -0.000193803              -0.000074232               0.000493237               0.000419005               0.000000000               0.000000000               0.000000000               0.000000000               0.000257460               0.001497455              -0.000169280              -0.000090634               0.000529358               0.000438724               0.000000000               0.000000000               0.000000000               0.000000000               0.000251023               0.001594709              -0.000146535              -0.000105205               0.000566633               0.000461428               0.000000000               0.000000000               0.000000000               0.000000000               0.000252470               0.001699838              -0.000123725              -0.000117803               0.000605875               0.000488071               0.000000000               0.000000000               0.000000000               0.000000000               0.000260325               0.001803899              -0.000099536              -0.000127865               0.000643915               0.000516050               0.000000000               0.000000000               0.000000000               0.000000000               0.000272385               0.001907513              -0.000073680              -0.000136294               0.000681263               0.000544968               0.000000000               0.000000000               0.000000000               0.000000000               0.000283620               0.002008542              -0.000051709              -0.000144710               0.000717744               0.000573034               0.000000000               0.000000000               0.000000000               0.000000000               0.000286198               0.002102249              -0.000035713              -0.000155457               0.000752561               0.000597105               0.000000000               0.000000000               0.000000000               0.000000000               0.000281063               0.002190660              -0.000020760              -0.000168433               0.000786357               0.000617924               0.000000000               0.000000000               0.000000000               0.000000000               0.000268707               0.002227581              -0.000009958              -0.000177682               0.000801747               0.000624065               0.000000000               0.000000000               0.000000000               0.000000000               0.000333762               0.000214741              -0.000219200               0.000098317               0.000038807               0.000137124               0.000000000               0.000000000               0.000000000               0.000000000               0.000390529               0.000384151              -0.000284674               0.000098428               0.000095239               0.000193668               0.000000000               0.000000000               0.000000000               0.000000000               0.000392092               0.000621283              -0.000327779               0.000069373               0.000183968               0.000253341               0.000000000               0.000000000               0.000000000               0.000000000               0.000378268               0.000815011              -0.000308666               0.000039973               0.000258343               0.000298316               0.000000000               0.000000000               0.000000000               0.000000000               0.000364373               0.000973832              -0.000271466               0.000014911               0.000319637               0.000334548               0.000000000               0.000000000               0.000000000               0.000000000               0.000347474               0.001100333              -0.000233887              -0.000007239               0.000369187               0.000361948               0.000000000               0.000000000               0.000000000               0.000000000               0.000332378               0.001211834              -0.000203747              -0.000026838               0.000412886               0.000386049               0.000000000               0.000000000               0.000000000               0.000000000               0.000318941               0.001319681              -0.000181196              -0.000045357               0.000455008               0.000409651               0.000000000               0.000000000               0.000000000               0.000000000               0.000308293               0.001427939              -0.000161639              -0.000062882               0.000496936               0.000434053               0.000000000               0.000000000               0.000000000               0.000000000               0.000299552               0.001541314              -0.000143578              -0.000080332               0.000540543               0.000460211               0.000000000               0.000000000               0.000000000               0.000000000               0.000299923               0.001658746              -0.000126456              -0.000094872               0.000584534               0.000489662               0.000000000               0.000000000               0.000000000               0.000000000               0.000306242               0.001772255              -0.000106085              -0.000106691               0.000626310               0.000519618               0.000000000               0.000000000               0.000000000               0.000000000               0.000315674               0.001879836              -0.000083889              -0.000116602               0.000665473               0.000548871               0.000000000               0.000000000               0.000000000               0.000000000               0.000326156               0.001977107              -0.000062877              -0.000124830               0.000700639               0.000575809               0.000000000               0.000000000               0.000000000               0.000000000               0.000333281               0.002069568              -0.000043670              -0.000133716               0.000734421               0.000600705               0.000000000               0.000000000               0.000000000               0.000000000               0.000335899               0.002169577              -0.000024276              -0.000145234               0.000771596               0.000626362               0.000000000               0.000000000               0.000000000               0.000000000               0.000328088               0.002217833              -0.000011965              -0.000154196               0.000790669               0.000636473               0.000000000               0.000000000               0.000000000               0.000000000               0.000257239               0.000134195              -0.000135496               0.000079689               0.000018168               0.000097857               0.000000000               0.000000000               0.000000000               0.000000000               0.000366108               0.000280942              -0.000193141               0.000102172               0.000059589               0.000161761               0.000000000               0.000000000               0.000000000               0.000000000               0.000412033               0.000495428              -0.000236049               0.000092583               0.000134280               0.000226863               0.000000000               0.000000000               0.000000000               0.000000000               0.000411674               0.000692638              -0.000229105               0.000067797               0.000208278               0.000276075               0.000000000               0.000000000               0.000000000               0.000000000               0.000400507               0.000857923              -0.000204789               0.000042949               0.000271655               0.000314604               0.000000000               0.000000000               0.000000000               0.000000000               0.000385996               0.000991929              -0.000179381               0.000020757               0.000323721               0.000344478               0.000000000               0.000000000               0.000000000               0.000000000               0.000373531               0.001117928              -0.000158739               0.000000333               0.000372528               0.000372861               0.000000000               0.000000000               0.000000000               0.000000000               0.000363431               0.001244029              -0.000142344              -0.000019217               0.000421078               0.000401861               0.000000000               0.000000000               0.000000000               0.000000000               0.000353058               0.001368715              -0.000127998              -0.000038693               0.000469131               0.000430439               0.000000000               0.000000000               0.000000000               0.000000000               0.000348699               0.001492628              -0.000117805              -0.000055816               0.000516143               0.000460327               0.000000000               0.000000000               0.000000000               0.000000000               0.000347581               0.001613642              -0.000108463              -0.000071362               0.000561663               0.000490300               0.000000000               0.000000000               0.000000000               0.000000000               0.000350023               0.001732383              -0.000093281              -0.000085289               0.000605885               0.000520596               0.000000000               0.000000000               0.000000000               0.000000000               0.000355594               0.001842685              -0.000075544              -0.000096988               0.000646551               0.000549564               0.000000000               0.000000000               0.000000000               0.000000000               0.000362378               0.001943228              -0.000058404              -0.000107011               0.000683407               0.000576395               0.000000000               0.000000000               0.000000000               0.000000000               0.000373714               0.002044770              -0.000041388              -0.000115453               0.000720068               0.000604614               0.000000000               0.000000000               0.000000000               0.000000000               0.000390641               0.002157721              -0.000022862              -0.000123224               0.000760308               0.000637084               0.000000000               0.000000000               0.000000000               0.000000000               0.000395464               0.002215181              -0.000011609              -0.000128598               0.000781253               0.000652654               0.000000000               0.000000000               0.000000000               0.000000000               0.000202134               0.000087029              -0.000064437               0.000064921               0.000007369               0.000072290               0.000000000               0.000000000               0.000000000               0.000000000               0.000346294               0.000214819              -0.000097231               0.000103007               0.000037270               0.000140277               0.000000000               0.000000000               0.000000000               0.000000000               0.000425451               0.000413150              -0.000123433               0.000107899               0.000101749               0.000209648               0.000000000               0.000000000               0.000000000               0.000000000               0.000435609               0.000609719              -0.000122462               0.000087138               0.000174192               0.000261329               0.000000000               0.000000000               0.000000000               0.000000000               0.000426317               0.000776600              -0.000110739               0.000062793               0.000237933               0.000300726               0.000000000               0.000000000               0.000000000               0.000000000               0.000413304               0.000916712              -0.000097993               0.000040400               0.000292101               0.000332501               0.000000000               0.000000000               0.000000000               0.000000000               0.000402107               0.001051422              -0.000087949               0.000019362               0.000344016               0.000363379               0.000000000               0.000000000               0.000000000               0.000000000               0.000394702               0.001188739              -0.000077979              -0.000000579               0.000396436               0.000395856               0.000000000               0.000000000               0.000000000               0.000000000               0.000389981               0.001326618              -0.000071017              -0.000019584               0.000448730               0.000429145               0.000000000               0.000000000               0.000000000               0.000000000               0.000387145               0.001458245              -0.000068049              -0.000037101               0.000498444               0.000461343               0.000000000               0.000000000               0.000000000               0.000000000               0.000382042               0.001580442              -0.000063234              -0.000054289               0.000544905               0.000490616               0.000000000               0.000000000               0.000000000               0.000000000               0.000378435               0.001695997              -0.000055466              -0.000070086               0.000588689               0.000518602               0.000000000               0.000000000               0.000000000               0.000000000               0.000380777               0.001806244              -0.000044523              -0.000082989               0.000629738               0.000546749               0.000000000               0.000000000               0.000000000               0.000000000               0.000390397               0.001917795              -0.000034483              -0.000093325               0.000670367               0.000577042               0.000000000               0.000000000               0.000000000               0.000000000               0.000409748               0.002036934              -0.000026992              -0.000100961               0.000712625               0.000611664               0.000000000               0.000000000               0.000000000               0.000000000               0.000438923               0.002161471              -0.000016769              -0.000105587               0.000755679               0.000650092               0.000000000               0.000000000               0.000000000               0.000000000               0.000455743               0.002223408              -0.000009782              -0.000107022               0.000776803               0.000669781               0.000000000               0.000000000               0.000000000               0.000000000               0.000000000               0.000000000               0.000000000               0.000000000               0.000000000               0.000000000               0.000000000               0.000000000               0.000000000               0.000000000               0.000000000               0.000000000               0.000000000               0.000000000               0.000000000               0.000000000               0.000000000               0.000000000               0.000000000               0.000000000               0.000000000               0.000000000               0.000000000               0.000000000               0.000000000               0.000000000               0.000000000               0.000000000               0.000000000               0.000000000               0.000000000               0.000000000               0.000000000               0.000000000               0.000000000               0.000000000               0.000000000               0.000000000               0.000000000               0.000000000               0.000000000               0.000000000               0.000000000               0.000000000               0.000000000               0.000000000               0.000000000               0.000000000               0.000000000               0.000000000               0.000000000               0.000000000               0.000000000               0.000000000               0.000000000               0.000000000               0.000000000               0.000000000               0.000000000               0.000000000               0.000000000               0.000000000               0.000000000               0.000000000               0.000000000               0.000000000               0.000000000               0.000000000               0.000000000               0.000000000               0.000000000               0.000000000               0.000000000               0.000000000               0.000000000               0.000000000               0.000000000               0.000000000               0.000000000               0.000000000               0.000000000               0.000000000               0.000000000               0.000000000               0.000000000               0.000000000               0.000000000               0.000000000               0.000000000               0.000000000               0.000000000               0.000000000               0.000000000               0.000000000               0.000000000               0.000000000               0.000000000               0.000000000               0.000000000               0.000000000               0.000000000               0.000000000               0.000000000               0.000000000               0.000000000               0.000000000               0.000000000               0.000000000               0.000000000               0.000000000               0.000000000               0.000000000               0.000000000               0.000000000               0.000000000               0.000000000               0.000000000               0.000000000               0.000000000               0.000000000               0.000000000               0.000000000               0.000000000               0.000000000               0.000000000               0.000000000               0.000000000               0.000000000               0.000000000               0.000000000               0.000000000               0.000000000               0.000000000               0.000000000               0.000000000               0.000000000               0.000000000               0.000000000               0.000000000               0.000000000               0.000000000               0.000000000               0.000000000               0.000000000               0.000000000               0.000000000               0.000000000               0.000000000               0.000000000               0.000000000               0.000000000               0.000000000               0.000000000               0.000000000               0.000000000               0.000000000               0.000000000               0.000000000               0.000000000               0.000000000               0.000000000               0.000000000               0.000000000               0.000000000               0.000000000               0.000000000               0.000000000               0.000000000               0.000000000               0.000000000               0.000000000               0.000000000               0.000000000               0.000000000               0.000000000               0.000000000               0.000000000               0.000000000               0.000000000               0.000000000               0.000000000               0.000000000               0.000000000               0.000000000               0.000000000               0.000000000               0.000000000               0.000000000               0.000000000               0.000000000               0.000000000               0.000000000               0.000000000               0.000000000               0.000000000               0.000000000               0.000000000               0.000000000               0.000000000               0.000000000               0.000000000               0.000000000               0.000000000               0.000000000               0.000000000               0.000000000               0.000000000               0.000000000               0.000000000               0.000000000               0.000000000               0.000000000               0.000000000               0.000000000               0.000000000               0.000000000               0.000000000               0.000000000               0.000000000               0.000000000               0.000000000               0.000000000               0.000000000               0.000000000               0.000000000               0.000000000               0.000000000               0.000000000               0.000000000               0.000000000               0.000000000               0.000000000               0.000000000               0.000000000               0.000000000               0.000000000               0.000000000               0.000000000               0.000000000               0.000000000               0.000000000               0.000000000               0.000000000               0.000000000               0.000000000               0.000000000               0.000000000               0.000000000               0.000000000               0.000000000               0.000000000               0.000000000               0.000000000               0.000000000               0.000000000               0.000000000               0.000000000               0.000000000               0.000000000               0.000000000               0.000000000               0.000000000               0.000000000               0.000000000               0.000000000               0.000000000               0.000000000               0.000000000               0.000000000               0.000000000               0.000000000               0.000000000               0.000000000               0.000000000               0.000000000               0.000000000               0.000000000               0.000000000               0.000000000               0.000000000               0.000000000               0.000000000               0.000000000               0.000000000               0.000000000               0.000000000               0.000000000               0.000000000               0.000000000               0.000000000               0.000000000               0.000000000               0.000000000               0.000000000               0.000000000               0.000000000               0.000000000               0.000000000               0.000000000               0.000000000               0.000000000               0.000000000               0.000000000               0.000000000               0.000000000               0.000000000               0.000000000               0.000000000               0.000000000               0.000000000               0.000000000               0.000000000               0.000000000               0.000000000               0.000000000               0.000000000               0.000000000               0.000000000               0.000000000               0.000000000               0.000000000               0.000000000               0.000000000               0.000000000               0.000000000               0.000000000               0.000000000               0.000000000               0.000000000               0.000000000               0.000000000               0.000000000               0.000000000               0.000000000               0.000000000               0.000000000               0.000000000               0.000000000               0.000000000               0.000000000               0.000263376               0.002725926               0.000217388              -0.000241974               0.000989291               0.000747317               0.000000000               0.000000000               0.000000000               0.000000000               0.000295978               0.002283228               0.000147520              -0.000174412               0.000819206               0.000644794               0.000000000               0.000000000               0.000000000               0.000000000               0.000416859               0.001925684               0.000076068              -0.000084388               0.000670018               0.000585629               0.000000000               0.000000000               0.000000000               0.000000000               0.000452736               0.001725325               0.000043124              -0.000045890               0.000590399               0.000544509               0.000000000               0.000000000               0.000000000               0.000000000               0.000452854               0.001606493               0.000027346              -0.000030991               0.000545823               0.000514831               0.000000000               0.000000000               0.000000000               0.000000000               0.000436436               0.001536291               0.000020060              -0.000028373               0.000521549               0.000493177               0.000000000               0.000000000               0.000000000               0.000000000               0.000409432               0.001495505               0.000016532              -0.000033401               0.000509630               0.000476229               0.000000000               0.000000000               0.000000000               0.000000000               0.000378218               0.001478177               0.000014108              -0.000042940               0.000507034               0.000464094               0.000000000               0.000000000               0.000000000               0.000000000               0.000341946               0.001477797               0.000010925              -0.000056495               0.000511426               0.000454931               0.000000000               0.000000000               0.000000000               0.000000000               0.000299707               0.001491677               0.000008366              -0.000074069               0.000521911               0.000447841               0.000000000               0.000000000               0.000000000               0.000000000               0.000256543               0.001516064               0.000008063              -0.000093304               0.000536451               0.000443147               0.000000000               0.000000000               0.000000000               0.000000000               0.000214732               0.001543124               0.000011227              -0.000112366               0.000551825               0.000439459               0.000000000               0.000000000               0.000000000               0.000000000               0.000174967               0.001569148               0.000015586              -0.000130531               0.000566554               0.000436024               0.000000000               0.000000000               0.000000000               0.000000000               0.000136222               0.001595365               0.000014640              -0.000148337               0.000581229               0.000432892               0.000000000               0.000000000               0.000000000               0.000000000               0.000093767               0.001625241               0.000010839              -0.000167992               0.000597739               0.000429747               0.000000000               0.000000000               0.000000000               0.000000000               0.000046308               0.001655747               0.000007240              -0.000189602               0.000615111               0.000425509               0.000000000               0.000000000               0.000000000               0.000000000               0.000025692               0.001680414               0.000005612              -0.000200417               0.000626938               0.000426521               0.000000000               0.000000000               0.000000000               0.000000000               0.000310339               0.002601346               0.000412677              -0.000208791               0.000936704               0.000727913               0.000000000               0.000000000               0.000000000               0.000000000               0.000314273               0.002196133               0.000281349              -0.000156664               0.000784258               0.000627594               0.000000000               0.000000000               0.000000000               0.000000000               0.000402176               0.001880190               0.000146732              -0.000084208               0.000654793               0.000570585               0.000000000               0.000000000               0.000000000               0.000000000               0.000422914               0.001706560               0.000085795              -0.000054727               0.000587090               0.000532363               0.000000000               0.000000000               0.000000000               0.000000000               0.000416515               0.001603112               0.000056643              -0.000044196               0.000549097               0.000504901               0.000000000               0.000000000               0.000000000               0.000000000               0.000397986               0.001541549               0.000043264              -0.000043449               0.000528328               0.000484879               0.000000000               0.000000000               0.000000000               0.000000000               0.000372109               0.001506376               0.000036069              -0.000048756               0.000518372               0.000469616               0.000000000               0.000000000               0.000000000               0.000000000               0.000343125               0.001491847               0.000030326              -0.000057809               0.000516547               0.000458738               0.000000000               0.000000000               0.000000000               0.000000000               0.000309409               0.001493135               0.000023852              -0.000070613               0.000521244               0.000450631               0.000000000               0.000000000               0.000000000               0.000000000               0.000271366               0.001506384               0.000017499              -0.000086536               0.000530968               0.000444432               0.000000000               0.000000000               0.000000000               0.000000000               0.000234088               0.001526517               0.000017174              -0.000103031               0.000543178               0.000440146               0.000000000               0.000000000               0.000000000               0.000000000               0.000199801               0.001546725               0.000022956              -0.000118415               0.000555042               0.000436627               0.000000000               0.000000000               0.000000000               0.000000000               0.000164034               0.001564502               0.000028314              -0.000134050               0.000566178               0.000432129               0.000000000               0.000000000               0.000000000               0.000000000               0.000125404               0.001583872               0.000024247              -0.000150957               0.000578271               0.000427314               0.000000000               0.000000000               0.000000000               0.000000000               0.000086612               0.001605729               0.000017079              -0.000168236               0.000591316               0.000423080               0.000000000               0.000000000               0.000000000               0.000000000               0.000044836               0.001624946               0.000011886              -0.000186304               0.000603745               0.000417440               0.000000000               0.000000000               0.000000000               0.000000000               0.000025202               0.001639577               0.000009240              -0.000195496               0.000611686               0.000416190               0.000000000               0.000000000               0.000000000               0.000000000               0.000375368               0.002411521               0.000569828              -0.000160677               0.000857391               0.000696714               0.000000000               0.000000000               0.000000000               0.000000000               0.000337891               0.002063001               0.000390953              -0.000131166               0.000731382               0.000600216               0.000000000               0.000000000               0.000000000               0.000000000               0.000380299               0.001813745               0.000208106              -0.000084106               0.000632611               0.000548505               0.000000000               0.000000000               0.000000000               0.000000000               0.000380952               0.001675502               0.000126914              -0.000066581               0.000580689               0.000514108               0.000000000               0.000000000               0.000000000               0.000000000               0.000366456               0.001595250               0.000089465              -0.000061985               0.000552406               0.000490421               0.000000000               0.000000000               0.000000000               0.000000000               0.000345615               0.001547607               0.000070744              -0.000063845               0.000537146               0.000473300               0.000000000               0.000000000               0.000000000               0.000000000               0.000321187               0.001522040               0.000059717              -0.000069810               0.000530611               0.000460802               0.000000000               0.000000000               0.000000000               0.000000000               0.000294567               0.001513392               0.000049721              -0.000078711               0.000530696               0.000451985               0.000000000               0.000000000               0.000000000               0.000000000               0.000263648               0.001517649               0.000038113              -0.000090838               0.000536157               0.000445319               0.000000000               0.000000000               0.000000000               0.000000000               0.000229895               0.001529947               0.000028890              -0.000105032               0.000544988               0.000439956               0.000000000               0.000000000               0.000000000               0.000000000               0.000201096               0.001542116               0.000027068              -0.000117353               0.000553151               0.000435798               0.000000000               0.000000000               0.000000000               0.000000000               0.000175919               0.001553459               0.000032743              -0.000128212               0.000560552               0.000432340               0.000000000               0.000000000               0.000000000               0.000000000               0.000147162               0.001563483               0.000035033              -0.000140249               0.000567906               0.000427656               0.000000000               0.000000000               0.000000000               0.000000000               0.000114260               0.001577580               0.000026019              -0.000154349               0.000577305               0.000422955               0.000000000               0.000000000               0.000000000               0.000000000               0.000076197               0.001590041               0.000017046              -0.000170181               0.000586735               0.000416554               0.000000000               0.000000000               0.000000000               0.000000000               0.000036375               0.001600047               0.000011549              -0.000186365               0.000595465               0.000409100               0.000000000               0.000000000               0.000000000               0.000000000               0.000018772               0.001608494               0.000008847              -0.000194022               0.000600833               0.000406812               0.000000000               0.000000000               0.000000000               0.000000000               0.000443505               0.002172009               0.000680589              -0.000105187               0.000759058               0.000653871               0.000000000               0.000000000               0.000000000               0.000000000               0.000361118               0.001899140               0.000470108              -0.000101973               0.000667031               0.000565058               0.000000000               0.000000000               0.000000000               0.000000000               0.000353185               0.001731338               0.000258071              -0.000083973               0.000605098               0.000521125               0.000000000               0.000000000               0.000000000               0.000000000               0.000332773               0.001635835               0.000166709              -0.000079689               0.000571836               0.000492147               0.000000000               0.000000000               0.000000000               0.000000000               0.000313390               0.001582338               0.000123870              -0.000080271               0.000554198               0.000473927               0.000000000               0.000000000               0.000000000               0.000000000               0.000291904               0.001551309               0.000101004              -0.000084449               0.000545248               0.000460798               0.000000000               0.000000000               0.000000000               0.000000000               0.000268214               0.001538009               0.000085057              -0.000091671               0.000543221               0.000451551               0.000000000               0.000000000               0.000000000               0.000000000               0.000242972               0.001538146               0.000069580              -0.000101154               0.000546428               0.000445274               0.000000000               0.000000000               0.000000000               0.000000000               0.000215380               0.001548716               0.000053019              -0.000112822               0.000553841               0.000441019               0.000000000               0.000000000               0.000000000               0.000000000               0.000188739               0.001559055               0.000040794              -0.000124104               0.000561048               0.000436943               0.000000000               0.000000000               0.000000000               0.000000000               0.000168348               0.001565567               0.000037711              -0.000132565               0.000566039               0.000433474               0.000000000               0.000000000               0.000000000               0.000000000               0.000150811               0.001568852               0.000039923              -0.000139552               0.000569463               0.000429911               0.000000000               0.000000000               0.000000000               0.000000000               0.000127924               0.001575226               0.000035634              -0.000148931               0.000574714               0.000425783               0.000000000               0.000000000               0.000000000               0.000000000               0.000100061               0.001587016               0.000022637              -0.000160854               0.000582618               0.000421764               0.000000000               0.000000000               0.000000000               0.000000000               0.000069390               0.001597167               0.000012912              -0.000173624               0.000590259               0.000416634               0.000000000               0.000000000               0.000000000               0.000000000               0.000034252               0.001606576               0.000006518              -0.000187977               0.000598179               0.000410202               0.000000000               0.000000000               0.000000000               0.000000000               0.000018586               0.001616583               0.000004688              -0.000195102               0.000603890               0.000408787               0.000000000               0.000000000               0.000000000               0.000000000               0.000506722               0.001904981               0.000740083              -0.000048103               0.000651021               0.000602919               0.000000000               0.000000000               0.000000000               0.000000000               0.000380348               0.001721098               0.000519489              -0.000072507               0.000597862               0.000525355               0.000000000               0.000000000               0.000000000               0.000000000               0.000325144               0.001641680               0.000298675              -0.000083281               0.000574982               0.000491700               0.000000000               0.000000000               0.000000000               0.000000000               0.000290313               0.001591111               0.000204007              -0.000090021               0.000560372               0.000470351               0.000000000               0.000000000               0.000000000               0.000000000               0.000266794               0.001562609               0.000157439              -0.000095278               0.000552624               0.000457346               0.000000000               0.000000000               0.000000000               0.000000000               0.000246456               0.001550118               0.000129469              -0.000101344               0.000550482               0.000449138               0.000000000               0.000000000               0.000000000               0.000000000               0.000223350               0.001551816               0.000108093              -0.000110221               0.000554007               0.000443786               0.000000000               0.000000000               0.000000000               0.000000000               0.000198342               0.001564185               0.000086855              -0.000121144               0.000561771               0.000440627               0.000000000               0.000000000               0.000000000               0.000000000               0.000174157               0.001581349               0.000066603              -0.000132359               0.000571231               0.000438871               0.000000000               0.000000000               0.000000000               0.000000000               0.000152917               0.001590372               0.000053096              -0.000141452               0.000577269               0.000435817               0.000000000               0.000000000               0.000000000               0.000000000               0.000138101               0.001593227               0.000048635              -0.000147365               0.000580192               0.000432827               0.000000000               0.000000000               0.000000000               0.000000000               0.000126323               0.001597536               0.000047051              -0.000152320               0.000583280               0.000430960               0.000000000               0.000000000               0.000000000               0.000000000               0.000109094               0.001609945               0.000036496              -0.000160333               0.000590087               0.000429755               0.000000000               0.000000000               0.000000000               0.000000000               0.000086756               0.001626126               0.000021490              -0.000170732               0.000598947               0.000428215               0.000000000               0.000000000               0.000000000               0.000000000               0.000064168               0.001644009               0.000012892              -0.000181438               0.000608477               0.000427039               0.000000000               0.000000000               0.000000000               0.000000000               0.000034506               0.001663733               0.000006330              -0.000195026               0.000619581               0.000424555               0.000000000               0.000000000               0.000000000               0.000000000               0.000021743               0.001681238               0.000005179              -0.000202000               0.000627741               0.000425740               0.000000000               0.000000000               0.000000000               0.000000000               0.000552953               0.001632597               0.000752165               0.000003282               0.000543099               0.000546381               0.000000000               0.000000000               0.000000000               0.000000000               0.000394032               0.001541501               0.000543183              -0.000044926               0.000528804               0.000483878               0.000000000               0.000000000               0.000000000               0.000000000               0.000300489               0.001549655               0.000330785              -0.000081023               0.000543554               0.000462531               0.000000000               0.000000000               0.000000000               0.000000000               0.000259369               0.001540361               0.000237263              -0.000095282               0.000545209               0.000449927               0.000000000               0.000000000               0.000000000               0.000000000               0.000235944               0.001536524               0.000186729              -0.000103586               0.000546698               0.000443112               0.000000000               0.000000000               0.000000000               0.000000000               0.000217214               0.001544272               0.000153227              -0.000111579               0.000551945               0.000440367               0.000000000               0.000000000               0.000000000               0.000000000               0.000193141               0.001561461               0.000125557              -0.000122755               0.000561400               0.000438646               0.000000000               0.000000000               0.000000000               0.000000000               0.000166927               0.001586592               0.000099388              -0.000135726               0.000574101               0.000438375               0.000000000               0.000000000               0.000000000               0.000000000               0.000146150               0.001609238               0.000077553              -0.000146348               0.000585190               0.000438842               0.000000000               0.000000000               0.000000000               0.000000000               0.000130486               0.001621302               0.000064896              -0.000153730               0.000591672               0.000437942               0.000000000               0.000000000               0.000000000               0.000000000               0.000118065               0.001630371               0.000057915              -0.000159522               0.000596625               0.000437104               0.000000000               0.000000000               0.000000000               0.000000000               0.000107808               0.001650220               0.000050114              -0.000165849               0.000605351               0.000439502               0.000000000               0.000000000               0.000000000               0.000000000               0.000093110               0.001680704               0.000035919              -0.000175171               0.000618619               0.000443448               0.000000000               0.000000000               0.000000000               0.000000000               0.000073321               0.001715816               0.000020820              -0.000186981               0.000634260               0.000447279               0.000000000               0.000000000               0.000000000               0.000000000               0.000052578               0.001754303               0.000012528              -0.000199571               0.000651285               0.000451715               0.000000000               0.000000000               0.000000000               0.000000000               0.000026929               0.001793233               0.000006757              -0.000214055               0.000669090               0.000455035               0.000000000               0.000000000               0.000000000               0.000000000               0.000017920               0.001821584               0.000007070              -0.000220978               0.000680848               0.000459870               0.000000000               0.000000000               0.000000000               0.000000000               0.000578341               0.001366956               0.000724896               0.000046007               0.000440311               0.000486319               0.000000000               0.000000000               0.000000000               0.000000000               0.000400256               0.001369290               0.000544791              -0.000021066               0.000463447               0.000442381               0.000000000               0.000000000               0.000000000               0.000000000               0.000282124               0.001458565               0.000355340              -0.000076524               0.000511692               0.000435167               0.000000000               0.000000000               0.000000000               0.000000000               0.000242566               0.001487174               0.000264538              -0.000094934               0.000527365               0.000432430               0.000000000               0.000000000               0.000000000               0.000000000               0.000221714               0.001507618               0.000208799              -0.000105309               0.000537637               0.000432328               0.000000000               0.000000000               0.000000000               0.000000000               0.000203134               0.001534313               0.000169103              -0.000115614               0.000549970               0.000434357               0.000000000               0.000000000               0.000000000               0.000000000               0.000178619               0.001567516               0.000135971              -0.000128957               0.000565486               0.000436529               0.000000000               0.000000000               0.000000000               0.000000000               0.000153395               0.001603391               0.000106815              -0.000142900               0.000582092               0.000439191               0.000000000               0.000000000               0.000000000               0.000000000               0.000135094               0.001632168               0.000085151              -0.000153360               0.000595171               0.000441810               0.000000000               0.000000000               0.000000000               0.000000000               0.000124949               0.001655467               0.000070865              -0.000160077               0.000605176               0.000445099               0.000000000               0.000000000               0.000000000               0.000000000               0.000115196               0.001687383               0.000058150              -0.000167724               0.000618363               0.000450639               0.000000000               0.000000000               0.000000000               0.000000000               0.000102899               0.001735288               0.000043872              -0.000178323               0.000637865               0.000459541               0.000000000               0.000000000               0.000000000               0.000000000               0.000088671               0.001797698               0.000026530              -0.000191460               0.000663047               0.000471586               0.000000000               0.000000000               0.000000000               0.000000000               0.000067870               0.001861945               0.000013028              -0.000207292               0.000689739               0.000482448               0.000000000               0.000000000               0.000000000               0.000000000               0.000044400               0.001922356               0.000007998              -0.000223644               0.000715327               0.000491683               0.000000000               0.000000000               0.000000000               0.000000000               0.000021931               0.001978343               0.000004541              -0.000239068               0.000739131               0.000500063               0.000000000               0.000000000               0.000000000               0.000000000               0.000014967               0.002015033               0.000005719              -0.000246266               0.000753760               0.000507494               0.000000000               0.000000000               0.000000000               0.000000000               0.000591145               0.001129710               0.000668334               0.000080464               0.000349745               0.000430209               0.000000000               0.000000000               0.000000000               0.000000000               0.000407535               0.001214015               0.000533631               0.000001073               0.000404310               0.000405383               0.000000000               0.000000000               0.000000000               0.000000000               0.000277907               0.001375238               0.000380714              -0.000067690               0.000480971               0.000413282               0.000000000               0.000000000               0.000000000               0.000000000               0.000241582               0.001439254               0.000291384              -0.000089313               0.000509518               0.000420204               0.000000000               0.000000000               0.000000000               0.000000000               0.000223227               0.001481798               0.000229557              -0.000101515               0.000527766               0.000426251               0.000000000               0.000000000               0.000000000               0.000000000               0.000203380               0.001524688               0.000183351              -0.000114318               0.000546330               0.000432012               0.000000000               0.000000000               0.000000000               0.000000000               0.000178978               0.001572705               0.000147451              -0.000129471               0.000567387               0.000437916               0.000000000               0.000000000               0.000000000               0.000000000               0.000156967               0.001619902               0.000118536              -0.000143625               0.000587837               0.000444212               0.000000000               0.000000000               0.000000000               0.000000000               0.000143851               0.001654719               0.000093315              -0.000152895               0.000602533               0.000449637               0.000000000               0.000000000               0.000000000               0.000000000               0.000138854               0.001692631               0.000071331              -0.000159508               0.000617374               0.000457866               0.000000000               0.000000000               0.000000000               0.000000000               0.000132508               0.001749202               0.000051045              -0.000168959               0.000639381               0.000470422               0.000000000               0.000000000               0.000000000               0.000000000               0.000120726               0.001828365               0.000029528              -0.000183273               0.000670540               0.000487267               0.000000000               0.000000000               0.000000000               0.000000000               0.000104215               0.001918621               0.000012261              -0.000200747               0.000706449               0.000505703               0.000000000               0.000000000               0.000000000               0.000000000               0.000081417               0.001997553               0.000004839              -0.000219162               0.000738898               0.000519736               0.000000000               0.000000000               0.000000000               0.000000000               0.000058970               0.002068335               0.000002345              -0.000236428               0.000768247               0.000531820               0.000000000               0.000000000               0.000000000               0.000000000               0.000040862               0.002136363               0.000000686              -0.000251721               0.000796021               0.000544300               0.000000000               0.000000000               0.000000000               0.000000000               0.000031445               0.002172684               0.000000732              -0.000259793               0.000810818               0.000551026               0.000000000               0.000000000               0.000000000               0.000000000               0.000582851               0.000899050               0.000596324               0.000106186               0.000264285               0.000370471               0.000000000               0.000000000               0.000000000               0.000000000               0.000418910               0.001034175               0.000517435               0.000027819               0.000335448               0.000363267               0.000000000               0.000000000               0.000000000               0.000000000               0.000289865               0.001247703               0.000411903              -0.000047264               0.000431651               0.000384388               0.000000000               0.000000000               0.000000000               0.000000000               0.000252094               0.001348119               0.000326724              -0.000073980               0.000474028               0.000400049               0.000000000               0.000000000               0.000000000               0.000000000               0.000233618               0.001414360               0.000260094              -0.000089188               0.000501178               0.000411990               0.000000000               0.000000000               0.000000000               0.000000000               0.000215742               0.001473947               0.000209462              -0.000103340               0.000525757               0.000422417               0.000000000               0.000000000               0.000000000               0.000000000               0.000194496               0.001535278               0.000172267              -0.000118974               0.000551412               0.000432438               0.000000000               0.000000000               0.000000000               0.000000000               0.000172950               0.001592954               0.000142156              -0.000134263               0.000575733               0.000441471               0.000000000               0.000000000               0.000000000               0.000000000               0.000155785               0.001640622               0.000112874              -0.000146658               0.000595755               0.000449096               0.000000000               0.000000000               0.000000000               0.000000000               0.000148796               0.001694047               0.000085079              -0.000155957               0.000616663               0.000460705               0.000000000               0.000000000               0.000000000               0.000000000               0.000149690               0.001763896               0.000058989              -0.000164353               0.000642744               0.000478391               0.000000000               0.000000000               0.000000000               0.000000000               0.000150452               0.001854363               0.000034948              -0.000175375               0.000676573               0.000501198               0.000000000               0.000000000               0.000000000               0.000000000               0.000145286               0.001952661               0.000019852              -0.000189600               0.000714081               0.000524481               0.000000000               0.000000000               0.000000000               0.000000000               0.000131083               0.002041841               0.000012783              -0.000206074               0.000749298               0.000543225               0.000000000               0.000000000               0.000000000               0.000000000               0.000114567               0.002126701               0.000005737              -0.000222875               0.000783185               0.000560310               0.000000000               0.000000000               0.000000000               0.000000000               0.000096855               0.002204510              -0.000000411              -0.000239242               0.000814577               0.000575335               0.000000000               0.000000000               0.000000000               0.000000000               0.000080625               0.002235971              -0.000004584              -0.000249262               0.000828403               0.000579142               0.000000000               0.000000000               0.000000000               0.000000000               0.000549361               0.000681699               0.000511204               0.000120797               0.000186965               0.000307761               0.000000000               0.000000000               0.000000000               0.000000000               0.000428880               0.000853483               0.000487515               0.000054144               0.000266443               0.000320587               0.000000000               0.000000000               0.000000000               0.000000000               0.000313062               0.001101864               0.000432473              -0.000020335               0.000374062               0.000353727               0.000000000               0.000000000               0.000000000               0.000000000               0.000273888               0.001236832               0.000358986              -0.000051896               0.000429572               0.000377676               0.000000000               0.000000000               0.000000000               0.000000000               0.000254888               0.001330959               0.000292384              -0.000070787               0.000467244               0.000396457               0.000000000               0.000000000               0.000000000               0.000000000               0.000238568               0.001410878               0.000239700              -0.000086897               0.000499254               0.000412357               0.000000000               0.000000000               0.000000000               0.000000000               0.000218127               0.001481693               0.000200572              -0.000103414               0.000528364               0.000424950               0.000000000               0.000000000               0.000000000               0.000000000               0.000194985               0.001547899               0.000168510              -0.000120368               0.000556084               0.000435716               0.000000000               0.000000000               0.000000000               0.000000000               0.000177123               0.001613670               0.000137085              -0.000135287               0.000582980               0.000447693               0.000000000               0.000000000               0.000000000               0.000000000               0.000168673               0.001680234               0.000108073              -0.000146777               0.000608998               0.000462221               0.000000000               0.000000000               0.000000000               0.000000000               0.000172924               0.001754870               0.000081583              -0.000154512               0.000636455               0.000481943               0.000000000               0.000000000               0.000000000               0.000000000               0.000186005               0.001845436               0.000056548              -0.000160927               0.000668782               0.000507855               0.000000000               0.000000000               0.000000000               0.000000000               0.000194083               0.001944572               0.000036022              -0.000170290               0.000704947               0.000534658               0.000000000               0.000000000               0.000000000               0.000000000               0.000188568               0.002041924               0.000022654              -0.000184527               0.000742143               0.000557616               0.000000000               0.000000000               0.000000000               0.000000000               0.000176156               0.002131341               0.000012176              -0.000200358               0.000777226               0.000576868               0.000000000               0.000000000               0.000000000               0.000000000               0.000161164               0.002208633               0.000002391              -0.000215642               0.000808084               0.000592442               0.000000000               0.000000000               0.000000000               0.000000000               0.000143470               0.002237302              -0.000005284              -0.000225861               0.000821047               0.000595186               0.000000000               0.000000000               0.000000000               0.000000000               0.000493030               0.000491534               0.000414568               0.000123443               0.000122695               0.000246138               0.000000000               0.000000000               0.000000000               0.000000000               0.000426103               0.000680136               0.000436242               0.000074771               0.000201786               0.000276557               0.000000000               0.000000000               0.000000000               0.000000000               0.000340270               0.000940807               0.000426887               0.000010000               0.000310266               0.000320266               0.000000000               0.000000000               0.000000000               0.000000000               0.000303553               0.001103060               0.000371401              -0.000024050               0.000375700               0.000351649               0.000000000               0.000000000               0.000000000               0.000000000               0.000285481               0.001225879               0.000310534              -0.000046180               0.000424015               0.000377836               0.000000000               0.000000000               0.000000000               0.000000000               0.000268792               0.001325297               0.000258996              -0.000064865               0.000463383               0.000398518               0.000000000               0.000000000               0.000000000               0.000000000               0.000248402               0.001406972               0.000219497              -0.000082721               0.000496560               0.000413839               0.000000000               0.000000000               0.000000000               0.000000000               0.000226819               0.001485673               0.000187378              -0.000100652               0.000528770               0.000428118               0.000000000               0.000000000               0.000000000               0.000000000               0.000210403               0.001565464               0.000157751              -0.000116781               0.000560743               0.000443962               0.000000000               0.000000000               0.000000000               0.000000000               0.000204631               0.001645097               0.000131626              -0.000128900               0.000591327               0.000462427               0.000000000               0.000000000               0.000000000               0.000000000               0.000208582               0.001732421               0.000107035              -0.000138334               0.000623579               0.000485245               0.000000000               0.000000000               0.000000000               0.000000000               0.000220729               0.001828225               0.000081117              -0.000145754               0.000657987               0.000512233               0.000000000               0.000000000               0.000000000               0.000000000               0.000232837               0.001928002               0.000055237              -0.000153686               0.000693889               0.000540204               0.000000000               0.000000000               0.000000000               0.000000000               0.000237663               0.002030303               0.000035932              -0.000164664               0.000731649               0.000566985               0.000000000               0.000000000               0.000000000               0.000000000               0.000233115               0.002125419               0.000023369              -0.000178259               0.000767886               0.000589627               0.000000000               0.000000000               0.000000000               0.000000000               0.000223224               0.002206320               0.000011583              -0.000192081               0.000799460               0.000607379               0.000000000               0.000000000               0.000000000               0.000000000               0.000207643               0.002235596               0.000001558              -0.000201583               0.000812386               0.000610803               0.000000000               0.000000000               0.000000000               0.000000000               0.000416974               0.000335610               0.000314502               0.000114413               0.000073731               0.000188144               0.000000000               0.000000000               0.000000000               0.000000000               0.000411671               0.000520527               0.000367364               0.000089309               0.000143737               0.000233047               0.000000000               0.000000000               0.000000000               0.000000000               0.000367926               0.000775194               0.000392363               0.000041072               0.000244705               0.000285777               0.000000000               0.000000000               0.000000000               0.000000000               0.000340222               0.000957772               0.000355905               0.000007861               0.000316634               0.000324495               0.000000000               0.000000000               0.000000000               0.000000000               0.000323236               0.001102368               0.000305939              -0.000016583               0.000372980               0.000356397               0.000000000               0.000000000               0.000000000               0.000000000               0.000306711               0.001218104               0.000259417              -0.000037247               0.000418446               0.000381199               0.000000000               0.000000000               0.000000000               0.000000000               0.000287466               0.001314389               0.000222466              -0.000056499               0.000456958               0.000400459               0.000000000               0.000000000               0.000000000               0.000000000               0.000270544               0.001405493               0.000193803              -0.000074232               0.000493237               0.000419005               0.000000000               0.000000000               0.000000000               0.000000000               0.000257460               0.001497455               0.000169280              -0.000090634               0.000529358               0.000438724               0.000000000               0.000000000               0.000000000               0.000000000               0.000251023               0.001594709               0.000146535              -0.000105205               0.000566633               0.000461428               0.000000000               0.000000000               0.000000000               0.000000000               0.000252470               0.001699838               0.000123725              -0.000117803               0.000605875               0.000488071               0.000000000               0.000000000               0.000000000               0.000000000               0.000260325               0.001803899               0.000099536              -0.000127865               0.000643915               0.000516050               0.000000000               0.000000000               0.000000000               0.000000000               0.000272385               0.001907513               0.000073680              -0.000136294               0.000681263               0.000544968               0.000000000               0.000000000               0.000000000               0.000000000               0.000283620               0.002008542               0.000051709              -0.000144710               0.000717744               0.000573034               0.000000000               0.000000000               0.000000000               0.000000000               0.000286198               0.002102249               0.000035713              -0.000155457               0.000752561               0.000597105               0.000000000               0.000000000               0.000000000               0.000000000               0.000281063               0.002190660               0.000020760              -0.000168433               0.000786357               0.000617924               0.000000000               0.000000000               0.000000000               0.000000000               0.000268707               0.002227581               0.000009958              -0.000177682               0.000801747               0.000624065               0.000000000               0.000000000               0.000000000               0.000000000               0.000333762               0.000214741               0.000219200               0.000098317               0.000038807               0.000137124               0.000000000               0.000000000               0.000000000               0.000000000               0.000390529               0.000384151               0.000284674               0.000098428               0.000095239               0.000193668               0.000000000               0.000000000               0.000000000               0.000000000               0.000392092               0.000621283               0.000327779               0.000069373               0.000183968               0.000253341               0.000000000               0.000000000               0.000000000               0.000000000               0.000378268               0.000815011               0.000308666               0.000039973               0.000258343               0.000298316               0.000000000               0.000000000               0.000000000               0.000000000               0.000364373               0.000973832               0.000271466               0.000014911               0.000319637               0.000334548               0.000000000               0.000000000               0.000000000               0.000000000               0.000347474               0.001100333               0.000233887              -0.000007239               0.000369187               0.000361948               0.000000000               0.000000000               0.000000000               0.000000000               0.000332378               0.001211834               0.000203747              -0.000026838               0.000412886               0.000386049               0.000000000               0.000000000               0.000000000               0.000000000               0.000318941               0.001319681               0.000181196              -0.000045357               0.000455008               0.000409651               0.000000000               0.000000000               0.000000000               0.000000000               0.000308293               0.001427939               0.000161639              -0.000062882               0.000496936               0.000434053               0.000000000               0.000000000               0.000000000               0.000000000               0.000299552               0.001541314               0.000143578              -0.000080332               0.000540543               0.000460211               0.000000000               0.000000000               0.000000000               0.000000000               0.000299923               0.001658746               0.000126456              -0.000094872               0.000584534               0.000489662               0.000000000               0.000000000               0.000000000               0.000000000               0.000306242               0.001772255               0.000106085              -0.000106691               0.000626310               0.000519618               0.000000000               0.000000000               0.000000000               0.000000000               0.000315674               0.001879836               0.000083889              -0.000116602               0.000665473               0.000548871               0.000000000               0.000000000               0.000000000               0.000000000               0.000326156               0.001977107               0.000062877              -0.000124830               0.000700639               0.000575809               0.000000000               0.000000000               0.000000000               0.000000000               0.000333281               0.002069568               0.000043670              -0.000133716               0.000734421               0.000600705               0.000000000               0.000000000               0.000000000               0.000000000               0.000335899               0.002169577               0.000024276              -0.000145234               0.000771596               0.000626362               0.000000000               0.000000000               0.000000000               0.000000000               0.000328088               0.002217833               0.000011965              -0.000154196               0.000790669               0.000636473               0.000000000               0.000000000               0.000000000               0.000000000               0.000257239               0.000134195               0.000135496               0.000079689               0.000018168               0.000097857               0.000000000               0.000000000               0.000000000               0.000000000               0.000366108               0.000280942               0.000193141               0.000102172               0.000059589               0.000161761               0.000000000               0.000000000               0.000000000               0.000000000               0.000412033               0.000495428               0.000236049               0.000092583               0.000134280               0.000226863               0.000000000               0.000000000               0.000000000               0.000000000               0.000411674               0.000692638               0.000229105               0.000067797               0.000208278               0.000276075               0.000000000               0.000000000               0.000000000               0.000000000               0.000400507               0.000857923               0.000204789               0.000042949               0.000271655               0.000314604               0.000000000               0.000000000               0.000000000               0.000000000               0.000385996               0.000991929               0.000179381               0.000020757               0.000323721               0.000344478               0.000000000               0.000000000               0.000000000               0.000000000               0.000373531               0.001117928               0.000158739               0.000000333               0.000372528               0.000372861               0.000000000               0.000000000               0.000000000               0.000000000               0.000363431               0.001244029               0.000142344              -0.000019217               0.000421078               0.000401861               0.000000000               0.000000000               0.000000000               0.000000000               0.000353058               0.001368715               0.000127998              -0.000038693               0.000469131               0.000430439               0.000000000               0.000000000               0.000000000               0.000000000               0.000348699               0.001492628               0.000117805              -0.000055816               0.000516143               0.000460327               0.000000000               0.000000000               0.000000000               0.000000000               0.000347581               0.001613642               0.000108463              -0.000071362               0.000561663               0.000490300               0.000000000               0.000000000               0.000000000               0.000000000               0.000350023               0.001732383               0.000093281              -0.000085289               0.000605885               0.000520596               0.000000000               0.000000000               0.000000000               0.000000000               0.000355594               0.001842685               0.000075544              -0.000096988               0.000646551               0.000549564               0.000000000               0.000000000               0.000000000               0.000000000               0.000362378               0.001943228               0.000058404              -0.000107011               0.000683407               0.000576395               0.000000000               0.000000000               0.000000000               0.000000000               0.000373714               0.002044770               0.000041388              -0.000115453               0.000720068               0.000604614               0.000000000               0.000000000               0.000000000               0.000000000               0.000390641               0.002157721               0.000022862              -0.000123224               0.000760308               0.000637084               0.000000000               0.000000000               0.000000000               0.000000000               0.000395464               0.002215181               0.000011609              -0.000128598               0.000781253               0.000652654               0.000000000               0.000000000               0.000000000               0.000000000               0.000202134               0.000087029               0.000064437               0.000064921               0.000007369               0.000072290               0.000000000               0.000000000               0.000000000               0.000000000               0.000346294               0.000214819               0.000097231               0.000103007               0.000037270               0.000140277               0.000000000               0.000000000               0.000000000               0.000000000               0.000425451               0.000413150               0.000123433               0.000107899               0.000101749               0.000209648               0.000000000               0.000000000               0.000000000               0.000000000               0.000435609               0.000609719               0.000122462               0.000087138               0.000174192               0.000261329               0.000000000               0.000000000               0.000000000               0.000000000               0.000426317               0.000776600               0.000110739               0.000062793               0.000237933               0.000300726               0.000000000               0.000000000               0.000000000               0.000000000               0.000413304               0.000916712               0.000097993               0.000040400               0.000292101               0.000332501               0.000000000               0.000000000               0.000000000               0.000000000               0.000402107               0.001051422               0.000087949               0.000019362               0.000344016               0.000363379               0.000000000               0.000000000               0.000000000               0.000000000               0.000394702               0.001188739               0.000077979              -0.000000579               0.000396436               0.000395856               0.000000000               0.000000000               0.000000000               0.000000000               0.000389981               0.001326618               0.000071017              -0.000019584               0.000448730               0.000429145               0.000000000               0.000000000               0.000000000               0.000000000               0.000387145               0.001458245               0.000068049              -0.000037101               0.000498444               0.000461343               0.000000000               0.000000000               0.000000000               0.000000000               0.000382042               0.001580442               0.000063234              -0.000054289               0.000544905               0.000490616               0.000000000               0.000000000               0.000000000               0.000000000               0.000378435               0.001695997               0.000055466              -0.000070086               0.000588689               0.000518602               0.000000000               0.000000000               0.000000000               0.000000000               0.000380777               0.001806244               0.000044523              -0.000082989               0.000629738               0.000546749               0.000000000               0.000000000               0.000000000               0.000000000               0.000390397               0.001917795               0.000034483              -0.000093325               0.000670367               0.000577042               0.000000000               0.000000000               0.000000000               0.000000000               0.000409748               0.002036934               0.000026992              -0.000100961               0.000712625               0.000611664               0.000000000               0.000000000               0.000000000               0.000000000               0.000438923               0.002161471               0.000016769              -0.000105587               0.000755679               0.000650092               0.000000000               0.000000000               0.000000000               0.000000000               0.000455743               0.002223408               0.000009782              -0.000107022               0.000776803               0.000669781               0.000000000               0.000000000               0.000000000               0.000000000               0.000000000               0.000000000               0.000000000               0.000000000               0.000000000               0.000000000               0.000000000               0.000000000               0.000000000               0.000000000               0.000000000               0.000000000               0.000000000               0.000000000               0.000000000               0.000000000               0.000000000               0.000000000               0.000000000               0.000000000               0.000000000               0.000000000               0.000000000               0.000000000               0.000000000               0.000000000               0.000000000               0.000000000               0.000000000               0.000000000               0.000000000               0.000000000               0.000000000               0.000000000               0.000000000               0.000000000               0.000000000               0.000000000               0.000000000               0.000000000               0.000000000               0.000000000               0.000000000               0.000000000               0.000000000               0.000000000               0.000000000               0.000000000               0.000000000               0.000000000               0.000000000               0.000000000               0.000000000               0.000000000               0.000000000               0.000000000               0.000000000               0.000000000               0.000000000               0.000000000               0.000000000               0.000000000               0.000000000               0.000000000               0.000000000               0.000000000               0.000000000               0.000000000               0.000000000               0.000000000               0.000000000               0.000000000               0.000000000               0.000000000               0.000000000               0.000000000               0.000000000               0.000000000               0.000000000               0.000000000               0.000000000               0.000000000               0.000000000               0.000000000               0.000000000               0.000000000               0.000000000               0.000000000               0.000000000               0.000000000               0.000000000               0.000000000               0.000000000               0.000000000               0.000000000               0.000000000               0.000000000               0.000000000               0.000000000               0.000000000               0.000000000               0.000000000               0.000000000               0.000000000               0.000000000               0.000000000               0.000000000               0.000000000               0.000000000               0.000000000               0.000000000               0.000000000               0.000000000               0.000000000               0.000000000               0.000000000               0.000000000               0.000000000               0.000000000               0.000000000               0.000000000               0.000000000               0.000000000               0.000000000               0.000000000               0.000000000               0.000000000               0.000000000               0.000000000               0.000000000               0.000000000               0.000000000               0.000000000               0.000000000               0.000000000               0.000000000               0.000000000               0.000000000               0.000000000               0.000000000               0.000000000               0.000000000               0.000000000               0.000000000               0.000000000               0.000000000               0.000000000               0.000000000               0.000000000               0.000000000               0.000000000               0.000000000               0.000000000               0.000000000               0.000000000               0.000000000               0.000000000               0.000000000               0.000000000               0.000000000               0.000000000               0.000000000               0.000000000               0.000000000               0.000000000               0.000000000               0.000000000               0.000000000               0.000000000               0.000000000 </DataArray>
</PointData>
</Piece>
</UnstructuredGrid> </VTKFile>
