<?xml version="1.0"?>
<VTKFile type="UnstructuredGrid" version="0.1">
<UnstructuredGrid>
<Piece NumberOfPoints="      1156" NumberOfCells="      1024">
<Points>
<DataArray type="Float64"                                    Name="coordinates"                                                      NumberOfComponents=" 3" format="ascii">
              0.133000000               0.000000000               0.000000000               0.155937500               0.000000000               0.000000000               0.178875000               0.000000000               0.000000000               0.201812500               0.000000000               0.000000000               0.224750000               0.000000000               0.000000000               0.247687500               0.000000000               0.000000000               0.270625000               0.000000000               0.000000000               0.293562500               0.000000000               0.000000000               0.316500000               0.000000000               0.000000000               0.339437500               0.000000000               0.000000000               0.362375000               0.000000000               0.000000000               0.385312500               0.000000000               0.000000000               0.408250000               0.000000000               0.000000000               0.431187500               0.000000000               0.000000000               0.454125000               0.000000000               0.000000000               0.477062500               0.000000000               0.000000000               0.500000000               0.000000000               0.000000000               0.132359569               0.013036280               0.000000000               0.155337096               0.016127762               0.000000000               0.178314623               0.019219245               0.000000000               0.201292150               0.022310727               0.000000000               0.224269676               0.025402210               0.000000000               0.247247203               0.028493692               0.000000000               0.270224730               0.031585175               0.000000000               0.293202257               0.034676657               0.000000000               0.316179784               0.037768140               0.000000000               0.339157311               0.040859622               0.000000000               0.362134838               0.043951105               0.000000000               0.385112365               0.047042587               0.000000000               0.408089892               0.050134070               0.000000000               0.431067419               0.053225552               0.000000000               0.454044946               0.056317035               0.000000000               0.477022473               0.059408517               0.000000000               0.500000000               0.062500000               0.000000000               0.130444442               0.025947013               0.000000000               0.153541665               0.032137825               0.000000000               0.176638887               0.038328636               0.000000000               0.199736109               0.044519448               0.000000000               0.222833332               0.050710260               0.000000000               0.245930554               0.056901071               0.000000000               0.269027776               0.063091883               0.000000000               0.292124999               0.069282695               0.000000000               0.315222221               0.075473506               0.000000000               0.338319444               0.081664318               0.000000000               0.361416666               0.087855130               0.000000000               0.384513888               0.094045942               0.000000000               0.407611111               0.100236753               0.000000000               0.430708333               0.106427565               0.000000000               0.453805555               0.112618377               0.000000000               0.476902778               0.118809188               0.000000000               0.500000000               0.125000000               0.000000000               0.127273065               0.038607862               0.000000000               0.150568498               0.047913621               0.000000000               0.173863932               0.057219379               0.000000000               0.197159365               0.066525138               0.000000000               0.220454798               0.075830897               0.000000000               0.243750232               0.085136655               0.000000000               0.267045665               0.094442414               0.000000000               0.290341099               0.103748172               0.000000000               0.313636532               0.113053931               0.000000000               0.336931966               0.122359690               0.000000000               0.360227399               0.131665448               0.000000000               0.383522833               0.140971207               0.000000000               0.406818266               0.150276966               0.000000000               0.430113700               0.159582724               0.000000000               0.453409133               0.168888483               0.000000000               0.476704567               0.178194241               0.000000000               0.500000000               0.187500000               0.000000000               0.122875978               0.050896897               0.000000000               0.146446229               0.063340840               0.000000000               0.170016481               0.075784784               0.000000000               0.193586732               0.088228728               0.000000000               0.217156983               0.100672672               0.000000000               0.240727235               0.113116616               0.000000000               0.264297486               0.125560560               0.000000000               0.287867738               0.138004504               0.000000000               0.311437989               0.150448448               0.000000000               0.335008240               0.162892392               0.000000000               0.358578492               0.175336336               0.000000000               0.382148743               0.187780280               0.000000000               0.405718994               0.200224224               0.000000000               0.429289246               0.212668168               0.000000000               0.452859497               0.225112112               0.000000000               0.476429749               0.237556056               0.000000000               0.500000000               0.250000000               0.000000000               0.117295528               0.062695766               0.000000000               0.141214558               0.078308531               0.000000000               0.165133587               0.093921295               0.000000000               0.189052617               0.109534060               0.000000000               0.212971646               0.125146824               0.000000000               0.236890676               0.140759589               0.000000000               0.260809705               0.156372354               0.000000000               0.284728735               0.171985118               0.000000000               0.308647764               0.187597883               0.000000000               0.332566794               0.203210648               0.000000000               0.356485823               0.218823412               0.000000000               0.380404853               0.234436177               0.000000000               0.404323882               0.250048941               0.000000000               0.428242912               0.265661706               0.000000000               0.452161941               0.281274471               0.000000000               0.476080971               0.296887235               0.000000000               0.500000000               0.312500000               0.000000000               0.110585458               0.073890841               0.000000000               0.134923867               0.092710163               0.000000000               0.159262276               0.111529486               0.000000000               0.183600685               0.130348808               0.000000000               0.207939094               0.149168131               0.000000000               0.232277503               0.167987453               0.000000000               0.256615912               0.186806776               0.000000000               0.280954320               0.205626098               0.000000000               0.305292729               0.224445420               0.000000000               0.329631138               0.243264743               0.000000000               0.353969547               0.262084065               0.000000000               0.378307956               0.280903388               0.000000000               0.402646365               0.299722710               0.000000000               0.426984773               0.318542033               0.000000000               0.451323182               0.337361355               0.000000000               0.475661591               0.356180678               0.000000000               0.500000000               0.375000000               0.000000000               0.102810390               0.084374307               0.000000000               0.127634741               0.106444663               0.000000000               0.152459092               0.128515018               0.000000000               0.177283442               0.150585374               0.000000000               0.202107793               0.172655730               0.000000000               0.226932143               0.194726086               0.000000000               0.251756494               0.216796442               0.000000000               0.276580845               0.238866798               0.000000000               0.301405195               0.260937153               0.000000000               0.326229546               0.283007509               0.000000000               0.351053896               0.305077865               0.000000000               0.375878247               0.327148221               0.000000000               0.400702598               0.349218577               0.000000000               0.425526948               0.371288933               0.000000000               0.450351299               0.393359288               0.000000000               0.475175649               0.415429644               0.000000000               0.500000000               0.437500000               0.000000000               0.094045202               0.094045202               0.000000000               0.119417377               0.119417377               0.000000000               0.144789552               0.144789552               0.000000000               0.170161727               0.170161727               0.000000000               0.195533901               0.195533901               0.000000000               0.220906076               0.220906076               0.000000000               0.246278251               0.246278251               0.000000000               0.271650426               0.271650426               0.000000000               0.297022601               0.297022601               0.000000000               0.322394776               0.322394776               0.000000000               0.347766951               0.347766951               0.000000000               0.373139126               0.373139126               0.000000000               0.398511300               0.398511300               0.000000000               0.423883475               0.423883475               0.000000000               0.449255650               0.449255650               0.000000000               0.474627825               0.474627825               0.000000000               0.500000000               0.500000000               0.000000000               0.084374307               0.102810390               0.000000000               0.106444663               0.127634741               0.000000000               0.128515018               0.152459092               0.000000000               0.150585374               0.177283442               0.000000000               0.172655730               0.202107793               0.000000000               0.194726086               0.226932143               0.000000000               0.216796442               0.251756494               0.000000000               0.238866798               0.276580845               0.000000000               0.260937153               0.301405195               0.000000000               0.283007509               0.326229546               0.000000000               0.305077865               0.351053896               0.000000000               0.327148221               0.375878247               0.000000000               0.349218577               0.400702598               0.000000000               0.371288933               0.425526948               0.000000000               0.393359288               0.450351299               0.000000000               0.415429644               0.475175649               0.000000000               0.437500000               0.500000000               0.000000000               0.073890841               0.110585458               0.000000000               0.092710163               0.134923867               0.000000000               0.111529486               0.159262276               0.000000000               0.130348808               0.183600685               0.000000000               0.149168131               0.207939094               0.000000000               0.167987453               0.232277503               0.000000000               0.186806776               0.256615912               0.000000000               0.205626098               0.280954320               0.000000000               0.224445420               0.305292729               0.000000000               0.243264743               0.329631138               0.000000000               0.262084065               0.353969547               0.000000000               0.280903388               0.378307956               0.000000000               0.299722710               0.402646365               0.000000000               0.318542033               0.426984773               0.000000000               0.337361355               0.451323182               0.000000000               0.356180678               0.475661591               0.000000000               0.375000000               0.500000000               0.000000000               0.062695766               0.117295528               0.000000000               0.078308531               0.141214558               0.000000000               0.093921295               0.165133587               0.000000000               0.109534060               0.189052617               0.000000000               0.125146824               0.212971646               0.000000000               0.140759589               0.236890676               0.000000000               0.156372354               0.260809705               0.000000000               0.171985118               0.284728735               0.000000000               0.187597883               0.308647764               0.000000000               0.203210648               0.332566794               0.000000000               0.218823412               0.356485823               0.000000000               0.234436177               0.380404853               0.000000000               0.250048941               0.404323882               0.000000000               0.265661706               0.428242912               0.000000000               0.281274471               0.452161941               0.000000000               0.296887235               0.476080971               0.000000000               0.312500000               0.500000000               0.000000000               0.050896897               0.122875978               0.000000000               0.063340840               0.146446229               0.000000000               0.075784784               0.170016481               0.000000000               0.088228728               0.193586732               0.000000000               0.100672672               0.217156983               0.000000000               0.113116616               0.240727235               0.000000000               0.125560560               0.264297486               0.000000000               0.138004504               0.287867738               0.000000000               0.150448448               0.311437989               0.000000000               0.162892392               0.335008240               0.000000000               0.175336336               0.358578492               0.000000000               0.187780280               0.382148743               0.000000000               0.200224224               0.405718994               0.000000000               0.212668168               0.429289246               0.000000000               0.225112112               0.452859497               0.000000000               0.237556056               0.476429749               0.000000000               0.250000000               0.500000000               0.000000000               0.038607862               0.127273065               0.000000000               0.047913621               0.150568498               0.000000000               0.057219379               0.173863932               0.000000000               0.066525138               0.197159365               0.000000000               0.075830897               0.220454798               0.000000000               0.085136655               0.243750232               0.000000000               0.094442414               0.267045665               0.000000000               0.103748172               0.290341099               0.000000000               0.113053931               0.313636532               0.000000000               0.122359690               0.336931966               0.000000000               0.131665448               0.360227399               0.000000000               0.140971207               0.383522833               0.000000000               0.150276966               0.406818266               0.000000000               0.159582724               0.430113700               0.000000000               0.168888483               0.453409133               0.000000000               0.178194241               0.476704567               0.000000000               0.187500000               0.500000000               0.000000000               0.025947013               0.130444442               0.000000000               0.032137825               0.153541665               0.000000000               0.038328636               0.176638887               0.000000000               0.044519448               0.199736109               0.000000000               0.050710260               0.222833332               0.000000000               0.056901071               0.245930554               0.000000000               0.063091883               0.269027776               0.000000000               0.069282695               0.292124999               0.000000000               0.075473506               0.315222221               0.000000000               0.081664318               0.338319444               0.000000000               0.087855130               0.361416666               0.000000000               0.094045942               0.384513888               0.000000000               0.100236753               0.407611111               0.000000000               0.106427565               0.430708333               0.000000000               0.112618377               0.453805555               0.000000000               0.118809188               0.476902778               0.000000000               0.125000000               0.500000000               0.000000000               0.013036280               0.132359569               0.000000000               0.016127762               0.155337096               0.000000000               0.019219245               0.178314623               0.000000000               0.022310727               0.201292150               0.000000000               0.025402210               0.224269676               0.000000000               0.028493692               0.247247203               0.000000000               0.031585175               0.270224730               0.000000000               0.034676657               0.293202257               0.000000000               0.037768140               0.316179784               0.000000000               0.040859622               0.339157311               0.000000000               0.043951105               0.362134838               0.000000000               0.047042587               0.385112365               0.000000000               0.050134070               0.408089892               0.000000000               0.053225552               0.431067419               0.000000000               0.056317035               0.454044946               0.000000000               0.059408517               0.477022473               0.000000000               0.062500000               0.500000000               0.000000000               0.000000000               0.133000000               0.000000000               0.000000000               0.155937500               0.000000000               0.000000000               0.178875000               0.000000000               0.000000000               0.201812500               0.000000000               0.000000000               0.224750000               0.000000000               0.000000000               0.247687500               0.000000000               0.000000000               0.270625000               0.000000000               0.000000000               0.293562500               0.000000000               0.000000000               0.316500000               0.000000000               0.000000000               0.339437500               0.000000000               0.000000000               0.362375000               0.000000000               0.000000000               0.385312500               0.000000000               0.000000000               0.408250000               0.000000000               0.000000000               0.431187500               0.000000000               0.000000000               0.454125000               0.000000000               0.000000000               0.477062500               0.000000000               0.000000000               0.500000000               0.000000000               0.133000000               0.000000000               0.000000000               0.155937500               0.000000000               0.000000000               0.178875000               0.000000000               0.000000000               0.201812500               0.000000000               0.000000000               0.224750000               0.000000000               0.000000000               0.247687500               0.000000000               0.000000000               0.270625000               0.000000000               0.000000000               0.293562500               0.000000000               0.000000000               0.316500000               0.000000000               0.000000000               0.339437500               0.000000000               0.000000000               0.362375000               0.000000000               0.000000000               0.385312500               0.000000000               0.000000000               0.408250000               0.000000000               0.000000000               0.431187500               0.000000000               0.000000000               0.454125000               0.000000000               0.000000000               0.477062500               0.000000000               0.000000000               0.500000000               0.000000000               0.000000000               0.132359569              -0.013036280               0.000000000               0.155337096              -0.016127762               0.000000000               0.178314623              -0.019219245               0.000000000               0.201292150              -0.022310727               0.000000000               0.224269676              -0.025402210               0.000000000               0.247247203              -0.028493692               0.000000000               0.270224730              -0.031585175               0.000000000               0.293202257              -0.034676657               0.000000000               0.316179784              -0.037768140               0.000000000               0.339157311              -0.040859622               0.000000000               0.362134838              -0.043951105               0.000000000               0.385112365              -0.047042587               0.000000000               0.408089892              -0.050134070               0.000000000               0.431067419              -0.053225552               0.000000000               0.454044946              -0.056317035               0.000000000               0.477022473              -0.059408517               0.000000000               0.500000000              -0.062500000               0.000000000               0.130444442              -0.025947013               0.000000000               0.153541665              -0.032137825               0.000000000               0.176638887              -0.038328636               0.000000000               0.199736109              -0.044519448               0.000000000               0.222833332              -0.050710260               0.000000000               0.245930554              -0.056901071               0.000000000               0.269027776              -0.063091883               0.000000000               0.292124999              -0.069282695               0.000000000               0.315222221              -0.075473506               0.000000000               0.338319444              -0.081664318               0.000000000               0.361416666              -0.087855130               0.000000000               0.384513888              -0.094045942               0.000000000               0.407611111              -0.100236753               0.000000000               0.430708333              -0.106427565               0.000000000               0.453805555              -0.112618377               0.000000000               0.476902778              -0.118809188               0.000000000               0.500000000              -0.125000000               0.000000000               0.127273065              -0.038607862               0.000000000               0.150568498              -0.047913621               0.000000000               0.173863932              -0.057219379               0.000000000               0.197159365              -0.066525138               0.000000000               0.220454798              -0.075830897               0.000000000               0.243750232              -0.085136655               0.000000000               0.267045665              -0.094442414               0.000000000               0.290341099              -0.103748172               0.000000000               0.313636532              -0.113053931               0.000000000               0.336931966              -0.122359690               0.000000000               0.360227399              -0.131665448               0.000000000               0.383522833              -0.140971207               0.000000000               0.406818266              -0.150276966               0.000000000               0.430113700              -0.159582724               0.000000000               0.453409133              -0.168888483               0.000000000               0.476704567              -0.178194241               0.000000000               0.500000000              -0.187500000               0.000000000               0.122875978              -0.050896897               0.000000000               0.146446229              -0.063340840               0.000000000               0.170016481              -0.075784784               0.000000000               0.193586732              -0.088228728               0.000000000               0.217156983              -0.100672672               0.000000000               0.240727235              -0.113116616               0.000000000               0.264297486              -0.125560560               0.000000000               0.287867738              -0.138004504               0.000000000               0.311437989              -0.150448448               0.000000000               0.335008240              -0.162892392               0.000000000               0.358578492              -0.175336336               0.000000000               0.382148743              -0.187780280               0.000000000               0.405718994              -0.200224224               0.000000000               0.429289246              -0.212668168               0.000000000               0.452859497              -0.225112112               0.000000000               0.476429749              -0.237556056               0.000000000               0.500000000              -0.250000000               0.000000000               0.117295528              -0.062695766               0.000000000               0.141214558              -0.078308531               0.000000000               0.165133587              -0.093921295               0.000000000               0.189052617              -0.109534060               0.000000000               0.212971646              -0.125146824               0.000000000               0.236890676              -0.140759589               0.000000000               0.260809705              -0.156372354               0.000000000               0.284728735              -0.171985118               0.000000000               0.308647764              -0.187597883               0.000000000               0.332566794              -0.203210648               0.000000000               0.356485823              -0.218823412               0.000000000               0.380404853              -0.234436177               0.000000000               0.404323882              -0.250048941               0.000000000               0.428242912              -0.265661706               0.000000000               0.452161941              -0.281274471               0.000000000               0.476080971              -0.296887235               0.000000000               0.500000000              -0.312500000               0.000000000               0.110585458              -0.073890841               0.000000000               0.134923867              -0.092710163               0.000000000               0.159262276              -0.111529486               0.000000000               0.183600685              -0.130348808               0.000000000               0.207939094              -0.149168131               0.000000000               0.232277503              -0.167987453               0.000000000               0.256615912              -0.186806776               0.000000000               0.280954320              -0.205626098               0.000000000               0.305292729              -0.224445420               0.000000000               0.329631138              -0.243264743               0.000000000               0.353969547              -0.262084065               0.000000000               0.378307956              -0.280903388               0.000000000               0.402646365              -0.299722710               0.000000000               0.426984773              -0.318542033               0.000000000               0.451323182              -0.337361355               0.000000000               0.475661591              -0.356180678               0.000000000               0.500000000              -0.375000000               0.000000000               0.102810390              -0.084374307               0.000000000               0.127634741              -0.106444663               0.000000000               0.152459092              -0.128515018               0.000000000               0.177283442              -0.150585374               0.000000000               0.202107793              -0.172655730               0.000000000               0.226932143              -0.194726086               0.000000000               0.251756494              -0.216796442               0.000000000               0.276580845              -0.238866798               0.000000000               0.301405195              -0.260937153               0.000000000               0.326229546              -0.283007509               0.000000000               0.351053896              -0.305077865               0.000000000               0.375878247              -0.327148221               0.000000000               0.400702598              -0.349218577               0.000000000               0.425526948              -0.371288933               0.000000000               0.450351299              -0.393359288               0.000000000               0.475175649              -0.415429644               0.000000000               0.500000000              -0.437500000               0.000000000               0.094045202              -0.094045202               0.000000000               0.119417377              -0.119417377               0.000000000               0.144789552              -0.144789552               0.000000000               0.170161727              -0.170161727               0.000000000               0.195533901              -0.195533901               0.000000000               0.220906076              -0.220906076               0.000000000               0.246278251              -0.246278251               0.000000000               0.271650426              -0.271650426               0.000000000               0.297022601              -0.297022601               0.000000000               0.322394776              -0.322394776               0.000000000               0.347766951              -0.347766951               0.000000000               0.373139126              -0.373139126               0.000000000               0.398511300              -0.398511300               0.000000000               0.423883475              -0.423883475               0.000000000               0.449255650              -0.449255650               0.000000000               0.474627825              -0.474627825               0.000000000               0.500000000              -0.500000000               0.000000000               0.084374307              -0.102810390               0.000000000               0.106444663              -0.127634741               0.000000000               0.128515018              -0.152459092               0.000000000               0.150585374              -0.177283442               0.000000000               0.172655730              -0.202107793               0.000000000               0.194726086              -0.226932143               0.000000000               0.216796442              -0.251756494               0.000000000               0.238866798              -0.276580845               0.000000000               0.260937153              -0.301405195               0.000000000               0.283007509              -0.326229546               0.000000000               0.305077865              -0.351053896               0.000000000               0.327148221              -0.375878247               0.000000000               0.349218577              -0.400702598               0.000000000               0.371288933              -0.425526948               0.000000000               0.393359288              -0.450351299               0.000000000               0.415429644              -0.475175649               0.000000000               0.437500000              -0.500000000               0.000000000               0.073890841              -0.110585458               0.000000000               0.092710163              -0.134923867               0.000000000               0.111529486              -0.159262276               0.000000000               0.130348808              -0.183600685               0.000000000               0.149168131              -0.207939094               0.000000000               0.167987453              -0.232277503               0.000000000               0.186806776              -0.256615912               0.000000000               0.205626098              -0.280954320               0.000000000               0.224445420              -0.305292729               0.000000000               0.243264743              -0.329631138               0.000000000               0.262084065              -0.353969547               0.000000000               0.280903388              -0.378307956               0.000000000               0.299722710              -0.402646365               0.000000000               0.318542033              -0.426984773               0.000000000               0.337361355              -0.451323182               0.000000000               0.356180678              -0.475661591               0.000000000               0.375000000              -0.500000000               0.000000000               0.062695766              -0.117295528               0.000000000               0.078308531              -0.141214558               0.000000000               0.093921295              -0.165133587               0.000000000               0.109534060              -0.189052617               0.000000000               0.125146824              -0.212971646               0.000000000               0.140759589              -0.236890676               0.000000000               0.156372354              -0.260809705               0.000000000               0.171985118              -0.284728735               0.000000000               0.187597883              -0.308647764               0.000000000               0.203210648              -0.332566794               0.000000000               0.218823412              -0.356485823               0.000000000               0.234436177              -0.380404853               0.000000000               0.250048941              -0.404323882               0.000000000               0.265661706              -0.428242912               0.000000000               0.281274471              -0.452161941               0.000000000               0.296887235              -0.476080971               0.000000000               0.312500000              -0.500000000               0.000000000               0.050896897              -0.122875978               0.000000000               0.063340840              -0.146446229               0.000000000               0.075784784              -0.170016481               0.000000000               0.088228728              -0.193586732               0.000000000               0.100672672              -0.217156983               0.000000000               0.113116616              -0.240727235               0.000000000               0.125560560              -0.264297486               0.000000000               0.138004504              -0.287867738               0.000000000               0.150448448              -0.311437989               0.000000000               0.162892392              -0.335008240               0.000000000               0.175336336              -0.358578492               0.000000000               0.187780280              -0.382148743               0.000000000               0.200224224              -0.405718994               0.000000000               0.212668168              -0.429289246               0.000000000               0.225112112              -0.452859497               0.000000000               0.237556056              -0.476429749               0.000000000               0.250000000              -0.500000000               0.000000000               0.038607862              -0.127273065               0.000000000               0.047913621              -0.150568498               0.000000000               0.057219379              -0.173863932               0.000000000               0.066525138              -0.197159365               0.000000000               0.075830897              -0.220454798               0.000000000               0.085136655              -0.243750232               0.000000000               0.094442414              -0.267045665               0.000000000               0.103748172              -0.290341099               0.000000000               0.113053931              -0.313636532               0.000000000               0.122359690              -0.336931966               0.000000000               0.131665448              -0.360227399               0.000000000               0.140971207              -0.383522833               0.000000000               0.150276966              -0.406818266               0.000000000               0.159582724              -0.430113700               0.000000000               0.168888483              -0.453409133               0.000000000               0.178194241              -0.476704567               0.000000000               0.187500000              -0.500000000               0.000000000               0.025947013              -0.130444442               0.000000000               0.032137825              -0.153541665               0.000000000               0.038328636              -0.176638887               0.000000000               0.044519448              -0.199736109               0.000000000               0.050710260              -0.222833332               0.000000000               0.056901071              -0.245930554               0.000000000               0.063091883              -0.269027776               0.000000000               0.069282695              -0.292124999               0.000000000               0.075473506              -0.315222221               0.000000000               0.081664318              -0.338319444               0.000000000               0.087855130              -0.361416666               0.000000000               0.094045942              -0.384513888               0.000000000               0.100236753              -0.407611111               0.000000000               0.106427565              -0.430708333               0.000000000               0.112618377              -0.453805555               0.000000000               0.118809188              -0.476902778               0.000000000               0.125000000              -0.500000000               0.000000000               0.013036280              -0.132359569               0.000000000               0.016127762              -0.155337096               0.000000000               0.019219245              -0.178314623               0.000000000               0.022310727              -0.201292150               0.000000000               0.025402210              -0.224269676               0.000000000               0.028493692              -0.247247203               0.000000000               0.031585175              -0.270224730               0.000000000               0.034676657              -0.293202257               0.000000000               0.037768140              -0.316179784               0.000000000               0.040859622              -0.339157311               0.000000000               0.043951105              -0.362134838               0.000000000               0.047042587              -0.385112365               0.000000000               0.050134070              -0.408089892               0.000000000               0.053225552              -0.431067419               0.000000000               0.056317035              -0.454044946               0.000000000               0.059408517              -0.477022473               0.000000000               0.062500000              -0.500000000               0.000000000               0.000000000              -0.133000000               0.000000000               0.000000000              -0.155937500               0.000000000               0.000000000              -0.178875000               0.000000000               0.000000000              -0.201812500               0.000000000               0.000000000              -0.224750000               0.000000000               0.000000000              -0.247687500               0.000000000               0.000000000              -0.270625000               0.000000000               0.000000000              -0.293562500               0.000000000               0.000000000              -0.316500000               0.000000000               0.000000000              -0.339437500               0.000000000               0.000000000              -0.362375000               0.000000000               0.000000000              -0.385312500               0.000000000               0.000000000              -0.408250000               0.000000000               0.000000000              -0.431187500               0.000000000               0.000000000              -0.454125000               0.000000000               0.000000000              -0.477062500               0.000000000               0.000000000              -0.500000000               0.000000000              -0.133000000               0.000000000               0.000000000              -0.155937500               0.000000000               0.000000000              -0.178875000               0.000000000               0.000000000              -0.201812500               0.000000000               0.000000000              -0.224750000               0.000000000               0.000000000              -0.247687500               0.000000000               0.000000000              -0.270625000               0.000000000               0.000000000              -0.293562500               0.000000000               0.000000000              -0.316500000               0.000000000               0.000000000              -0.339437500               0.000000000               0.000000000              -0.362375000               0.000000000               0.000000000              -0.385312500               0.000000000               0.000000000              -0.408250000               0.000000000               0.000000000              -0.431187500               0.000000000               0.000000000              -0.454125000               0.000000000               0.000000000              -0.477062500               0.000000000               0.000000000              -0.500000000               0.000000000               0.000000000              -0.132359569              -0.013036280               0.000000000              -0.155337096              -0.016127762               0.000000000              -0.178314623              -0.019219245               0.000000000              -0.201292150              -0.022310727               0.000000000              -0.224269676              -0.025402210               0.000000000              -0.247247203              -0.028493692               0.000000000              -0.270224730              -0.031585175               0.000000000              -0.293202257              -0.034676657               0.000000000              -0.316179784              -0.037768140               0.000000000              -0.339157311              -0.040859622               0.000000000              -0.362134838              -0.043951105               0.000000000              -0.385112365              -0.047042587               0.000000000              -0.408089892              -0.050134070               0.000000000              -0.431067419              -0.053225552               0.000000000              -0.454044946              -0.056317035               0.000000000              -0.477022473              -0.059408517               0.000000000              -0.500000000              -0.062500000               0.000000000              -0.130444442              -0.025947013               0.000000000              -0.153541665              -0.032137825               0.000000000              -0.176638887              -0.038328636               0.000000000              -0.199736109              -0.044519448               0.000000000              -0.222833332              -0.050710260               0.000000000              -0.245930554              -0.056901071               0.000000000              -0.269027776              -0.063091883               0.000000000              -0.292124999              -0.069282695               0.000000000              -0.315222221              -0.075473506               0.000000000              -0.338319444              -0.081664318               0.000000000              -0.361416666              -0.087855130               0.000000000              -0.384513888              -0.094045942               0.000000000              -0.407611111              -0.100236753               0.000000000              -0.430708333              -0.106427565               0.000000000              -0.453805555              -0.112618377               0.000000000              -0.476902778              -0.118809188               0.000000000              -0.500000000              -0.125000000               0.000000000              -0.127273065              -0.038607862               0.000000000              -0.150568498              -0.047913621               0.000000000              -0.173863932              -0.057219379               0.000000000              -0.197159365              -0.066525138               0.000000000              -0.220454798              -0.075830897               0.000000000              -0.243750232              -0.085136655               0.000000000              -0.267045665              -0.094442414               0.000000000              -0.290341099              -0.103748172               0.000000000              -0.313636532              -0.113053931               0.000000000              -0.336931966              -0.122359690               0.000000000              -0.360227399              -0.131665448               0.000000000              -0.383522833              -0.140971207               0.000000000              -0.406818266              -0.150276966               0.000000000              -0.430113700              -0.159582724               0.000000000              -0.453409133              -0.168888483               0.000000000              -0.476704567              -0.178194241               0.000000000              -0.500000000              -0.187500000               0.000000000              -0.122875978              -0.050896897               0.000000000              -0.146446229              -0.063340840               0.000000000              -0.170016481              -0.075784784               0.000000000              -0.193586732              -0.088228728               0.000000000              -0.217156983              -0.100672672               0.000000000              -0.240727235              -0.113116616               0.000000000              -0.264297486              -0.125560560               0.000000000              -0.287867738              -0.138004504               0.000000000              -0.311437989              -0.150448448               0.000000000              -0.335008240              -0.162892392               0.000000000              -0.358578492              -0.175336336               0.000000000              -0.382148743              -0.187780280               0.000000000              -0.405718994              -0.200224224               0.000000000              -0.429289246              -0.212668168               0.000000000              -0.452859497              -0.225112112               0.000000000              -0.476429749              -0.237556056               0.000000000              -0.500000000              -0.250000000               0.000000000              -0.117295528              -0.062695766               0.000000000              -0.141214558              -0.078308531               0.000000000              -0.165133587              -0.093921295               0.000000000              -0.189052617              -0.109534060               0.000000000              -0.212971646              -0.125146824               0.000000000              -0.236890676              -0.140759589               0.000000000              -0.260809705              -0.156372354               0.000000000              -0.284728735              -0.171985118               0.000000000              -0.308647764              -0.187597883               0.000000000              -0.332566794              -0.203210648               0.000000000              -0.356485823              -0.218823412               0.000000000              -0.380404853              -0.234436177               0.000000000              -0.404323882              -0.250048941               0.000000000              -0.428242912              -0.265661706               0.000000000              -0.452161941              -0.281274471               0.000000000              -0.476080971              -0.296887235               0.000000000              -0.500000000              -0.312500000               0.000000000              -0.110585458              -0.073890841               0.000000000              -0.134923867              -0.092710163               0.000000000              -0.159262276              -0.111529486               0.000000000              -0.183600685              -0.130348808               0.000000000              -0.207939094              -0.149168131               0.000000000              -0.232277503              -0.167987453               0.000000000              -0.256615912              -0.186806776               0.000000000              -0.280954320              -0.205626098               0.000000000              -0.305292729              -0.224445420               0.000000000              -0.329631138              -0.243264743               0.000000000              -0.353969547              -0.262084065               0.000000000              -0.378307956              -0.280903388               0.000000000              -0.402646365              -0.299722710               0.000000000              -0.426984773              -0.318542033               0.000000000              -0.451323182              -0.337361355               0.000000000              -0.475661591              -0.356180678               0.000000000              -0.500000000              -0.375000000               0.000000000              -0.102810390              -0.084374307               0.000000000              -0.127634741              -0.106444663               0.000000000              -0.152459092              -0.128515018               0.000000000              -0.177283442              -0.150585374               0.000000000              -0.202107793              -0.172655730               0.000000000              -0.226932143              -0.194726086               0.000000000              -0.251756494              -0.216796442               0.000000000              -0.276580845              -0.238866798               0.000000000              -0.301405195              -0.260937153               0.000000000              -0.326229546              -0.283007509               0.000000000              -0.351053896              -0.305077865               0.000000000              -0.375878247              -0.327148221               0.000000000              -0.400702598              -0.349218577               0.000000000              -0.425526948              -0.371288933               0.000000000              -0.450351299              -0.393359288               0.000000000              -0.475175649              -0.415429644               0.000000000              -0.500000000              -0.437500000               0.000000000              -0.094045202              -0.094045202               0.000000000              -0.119417377              -0.119417377               0.000000000              -0.144789552              -0.144789552               0.000000000              -0.170161727              -0.170161727               0.000000000              -0.195533901              -0.195533901               0.000000000              -0.220906076              -0.220906076               0.000000000              -0.246278251              -0.246278251               0.000000000              -0.271650426              -0.271650426               0.000000000              -0.297022601              -0.297022601               0.000000000              -0.322394776              -0.322394776               0.000000000              -0.347766951              -0.347766951               0.000000000              -0.373139126              -0.373139126               0.000000000              -0.398511300              -0.398511300               0.000000000              -0.423883475              -0.423883475               0.000000000              -0.449255650              -0.449255650               0.000000000              -0.474627825              -0.474627825               0.000000000              -0.500000000              -0.500000000               0.000000000              -0.084374307              -0.102810390               0.000000000              -0.106444663              -0.127634741               0.000000000              -0.128515018              -0.152459092               0.000000000              -0.150585374              -0.177283442               0.000000000              -0.172655730              -0.202107793               0.000000000              -0.194726086              -0.226932143               0.000000000              -0.216796442              -0.251756494               0.000000000              -0.238866798              -0.276580845               0.000000000              -0.260937153              -0.301405195               0.000000000              -0.283007509              -0.326229546               0.000000000              -0.305077865              -0.351053896               0.000000000              -0.327148221              -0.375878247               0.000000000              -0.349218577              -0.400702598               0.000000000              -0.371288933              -0.425526948               0.000000000              -0.393359288              -0.450351299               0.000000000              -0.415429644              -0.475175649               0.000000000              -0.437500000              -0.500000000               0.000000000              -0.073890841              -0.110585458               0.000000000              -0.092710163              -0.134923867               0.000000000              -0.111529486              -0.159262276               0.000000000              -0.130348808              -0.183600685               0.000000000              -0.149168131              -0.207939094               0.000000000              -0.167987453              -0.232277503               0.000000000              -0.186806776              -0.256615912               0.000000000              -0.205626098              -0.280954320               0.000000000              -0.224445420              -0.305292729               0.000000000              -0.243264743              -0.329631138               0.000000000              -0.262084065              -0.353969547               0.000000000              -0.280903388              -0.378307956               0.000000000              -0.299722710              -0.402646365               0.000000000              -0.318542033              -0.426984773               0.000000000              -0.337361355              -0.451323182               0.000000000              -0.356180678              -0.475661591               0.000000000              -0.375000000              -0.500000000               0.000000000              -0.062695766              -0.117295528               0.000000000              -0.078308531              -0.141214558               0.000000000              -0.093921295              -0.165133587               0.000000000              -0.109534060              -0.189052617               0.000000000              -0.125146824              -0.212971646               0.000000000              -0.140759589              -0.236890676               0.000000000              -0.156372354              -0.260809705               0.000000000              -0.171985118              -0.284728735               0.000000000              -0.187597883              -0.308647764               0.000000000              -0.203210648              -0.332566794               0.000000000              -0.218823412              -0.356485823               0.000000000              -0.234436177              -0.380404853               0.000000000              -0.250048941              -0.404323882               0.000000000              -0.265661706              -0.428242912               0.000000000              -0.281274471              -0.452161941               0.000000000              -0.296887235              -0.476080971               0.000000000              -0.312500000              -0.500000000               0.000000000              -0.050896897              -0.122875978               0.000000000              -0.063340840              -0.146446229               0.000000000              -0.075784784              -0.170016481               0.000000000              -0.088228728              -0.193586732               0.000000000              -0.100672672              -0.217156983               0.000000000              -0.113116616              -0.240727235               0.000000000              -0.125560560              -0.264297486               0.000000000              -0.138004504              -0.287867738               0.000000000              -0.150448448              -0.311437989               0.000000000              -0.162892392              -0.335008240               0.000000000              -0.175336336              -0.358578492               0.000000000              -0.187780280              -0.382148743               0.000000000              -0.200224224              -0.405718994               0.000000000              -0.212668168              -0.429289246               0.000000000              -0.225112112              -0.452859497               0.000000000              -0.237556056              -0.476429749               0.000000000              -0.250000000              -0.500000000               0.000000000              -0.038607862              -0.127273065               0.000000000              -0.047913621              -0.150568498               0.000000000              -0.057219379              -0.173863932               0.000000000              -0.066525138              -0.197159365               0.000000000              -0.075830897              -0.220454798               0.000000000              -0.085136655              -0.243750232               0.000000000              -0.094442414              -0.267045665               0.000000000              -0.103748172              -0.290341099               0.000000000              -0.113053931              -0.313636532               0.000000000              -0.122359690              -0.336931966               0.000000000              -0.131665448              -0.360227399               0.000000000              -0.140971207              -0.383522833               0.000000000              -0.150276966              -0.406818266               0.000000000              -0.159582724              -0.430113700               0.000000000              -0.168888483              -0.453409133               0.000000000              -0.178194241              -0.476704567               0.000000000              -0.187500000              -0.500000000               0.000000000              -0.025947013              -0.130444442               0.000000000              -0.032137825              -0.153541665               0.000000000              -0.038328636              -0.176638887               0.000000000              -0.044519448              -0.199736109               0.000000000              -0.050710260              -0.222833332               0.000000000              -0.056901071              -0.245930554               0.000000000              -0.063091883              -0.269027776               0.000000000              -0.069282695              -0.292124999               0.000000000              -0.075473506              -0.315222221               0.000000000              -0.081664318              -0.338319444               0.000000000              -0.087855130              -0.361416666               0.000000000              -0.094045942              -0.384513888               0.000000000              -0.100236753              -0.407611111               0.000000000              -0.106427565              -0.430708333               0.000000000              -0.112618377              -0.453805555               0.000000000              -0.118809188              -0.476902778               0.000000000              -0.125000000              -0.500000000               0.000000000              -0.013036280              -0.132359569               0.000000000              -0.016127762              -0.155337096               0.000000000              -0.019219245              -0.178314623               0.000000000              -0.022310727              -0.201292150               0.000000000              -0.025402210              -0.224269676               0.000000000              -0.028493692              -0.247247203               0.000000000              -0.031585175              -0.270224730               0.000000000              -0.034676657              -0.293202257               0.000000000              -0.037768140              -0.316179784               0.000000000              -0.040859622              -0.339157311               0.000000000              -0.043951105              -0.362134838               0.000000000              -0.047042587              -0.385112365               0.000000000              -0.050134070              -0.408089892               0.000000000              -0.053225552              -0.431067419               0.000000000              -0.056317035              -0.454044946               0.000000000              -0.059408517              -0.477022473               0.000000000              -0.062500000              -0.500000000               0.000000000               0.000000000              -0.133000000               0.000000000               0.000000000              -0.155937500               0.000000000               0.000000000              -0.178875000               0.000000000               0.000000000              -0.201812500               0.000000000               0.000000000              -0.224750000               0.000000000               0.000000000              -0.247687500               0.000000000               0.000000000              -0.270625000               0.000000000               0.000000000              -0.293562500               0.000000000               0.000000000              -0.316500000               0.000000000               0.000000000              -0.339437500               0.000000000               0.000000000              -0.362375000               0.000000000               0.000000000              -0.385312500               0.000000000               0.000000000              -0.408250000               0.000000000               0.000000000              -0.431187500               0.000000000               0.000000000              -0.454125000               0.000000000               0.000000000              -0.477062500               0.000000000               0.000000000              -0.500000000               0.000000000              -0.133000000               0.000000000               0.000000000              -0.155937500               0.000000000               0.000000000              -0.178875000               0.000000000               0.000000000              -0.201812500               0.000000000               0.000000000              -0.224750000               0.000000000               0.000000000              -0.247687500               0.000000000               0.000000000              -0.270625000               0.000000000               0.000000000              -0.293562500               0.000000000               0.000000000              -0.316500000               0.000000000               0.000000000              -0.339437500               0.000000000               0.000000000              -0.362375000               0.000000000               0.000000000              -0.385312500               0.000000000               0.000000000              -0.408250000               0.000000000               0.000000000              -0.431187500               0.000000000               0.000000000              -0.454125000               0.000000000               0.000000000              -0.477062500               0.000000000               0.000000000              -0.500000000               0.000000000               0.000000000              -0.132359569               0.013036280               0.000000000              -0.155337096               0.016127762               0.000000000              -0.178314623               0.019219245               0.000000000              -0.201292150               0.022310727               0.000000000              -0.224269676               0.025402210               0.000000000              -0.247247203               0.028493692               0.000000000              -0.270224730               0.031585175               0.000000000              -0.293202257               0.034676657               0.000000000              -0.316179784               0.037768140               0.000000000              -0.339157311               0.040859622               0.000000000              -0.362134838               0.043951105               0.000000000              -0.385112365               0.047042587               0.000000000              -0.408089892               0.050134070               0.000000000              -0.431067419               0.053225552               0.000000000              -0.454044946               0.056317035               0.000000000              -0.477022473               0.059408517               0.000000000              -0.500000000               0.062500000               0.000000000              -0.130444442               0.025947013               0.000000000              -0.153541665               0.032137825               0.000000000              -0.176638887               0.038328636               0.000000000              -0.199736109               0.044519448               0.000000000              -0.222833332               0.050710260               0.000000000              -0.245930554               0.056901071               0.000000000              -0.269027776               0.063091883               0.000000000              -0.292124999               0.069282695               0.000000000              -0.315222221               0.075473506               0.000000000              -0.338319444               0.081664318               0.000000000              -0.361416666               0.087855130               0.000000000              -0.384513888               0.094045942               0.000000000              -0.407611111               0.100236753               0.000000000              -0.430708333               0.106427565               0.000000000              -0.453805555               0.112618377               0.000000000              -0.476902778               0.118809188               0.000000000              -0.500000000               0.125000000               0.000000000              -0.127273065               0.038607862               0.000000000              -0.150568498               0.047913621               0.000000000              -0.173863932               0.057219379               0.000000000              -0.197159365               0.066525138               0.000000000              -0.220454798               0.075830897               0.000000000              -0.243750232               0.085136655               0.000000000              -0.267045665               0.094442414               0.000000000              -0.290341099               0.103748172               0.000000000              -0.313636532               0.113053931               0.000000000              -0.336931966               0.122359690               0.000000000              -0.360227399               0.131665448               0.000000000              -0.383522833               0.140971207               0.000000000              -0.406818266               0.150276966               0.000000000              -0.430113700               0.159582724               0.000000000              -0.453409133               0.168888483               0.000000000              -0.476704567               0.178194241               0.000000000              -0.500000000               0.187500000               0.000000000              -0.122875978               0.050896897               0.000000000              -0.146446229               0.063340840               0.000000000              -0.170016481               0.075784784               0.000000000              -0.193586732               0.088228728               0.000000000              -0.217156983               0.100672672               0.000000000              -0.240727235               0.113116616               0.000000000              -0.264297486               0.125560560               0.000000000              -0.287867738               0.138004504               0.000000000              -0.311437989               0.150448448               0.000000000              -0.335008240               0.162892392               0.000000000              -0.358578492               0.175336336               0.000000000              -0.382148743               0.187780280               0.000000000              -0.405718994               0.200224224               0.000000000              -0.429289246               0.212668168               0.000000000              -0.452859497               0.225112112               0.000000000              -0.476429749               0.237556056               0.000000000              -0.500000000               0.250000000               0.000000000              -0.117295528               0.062695766               0.000000000              -0.141214558               0.078308531               0.000000000              -0.165133587               0.093921295               0.000000000              -0.189052617               0.109534060               0.000000000              -0.212971646               0.125146824               0.000000000              -0.236890676               0.140759589               0.000000000              -0.260809705               0.156372354               0.000000000              -0.284728735               0.171985118               0.000000000              -0.308647764               0.187597883               0.000000000              -0.332566794               0.203210648               0.000000000              -0.356485823               0.218823412               0.000000000              -0.380404853               0.234436177               0.000000000              -0.404323882               0.250048941               0.000000000              -0.428242912               0.265661706               0.000000000              -0.452161941               0.281274471               0.000000000              -0.476080971               0.296887235               0.000000000              -0.500000000               0.312500000               0.000000000              -0.110585458               0.073890841               0.000000000              -0.134923867               0.092710163               0.000000000              -0.159262276               0.111529486               0.000000000              -0.183600685               0.130348808               0.000000000              -0.207939094               0.149168131               0.000000000              -0.232277503               0.167987453               0.000000000              -0.256615912               0.186806776               0.000000000              -0.280954320               0.205626098               0.000000000              -0.305292729               0.224445420               0.000000000              -0.329631138               0.243264743               0.000000000              -0.353969547               0.262084065               0.000000000              -0.378307956               0.280903388               0.000000000              -0.402646365               0.299722710               0.000000000              -0.426984773               0.318542033               0.000000000              -0.451323182               0.337361355               0.000000000              -0.475661591               0.356180678               0.000000000              -0.500000000               0.375000000               0.000000000              -0.102810390               0.084374307               0.000000000              -0.127634741               0.106444663               0.000000000              -0.152459092               0.128515018               0.000000000              -0.177283442               0.150585374               0.000000000              -0.202107793               0.172655730               0.000000000              -0.226932143               0.194726086               0.000000000              -0.251756494               0.216796442               0.000000000              -0.276580845               0.238866798               0.000000000              -0.301405195               0.260937153               0.000000000              -0.326229546               0.283007509               0.000000000              -0.351053896               0.305077865               0.000000000              -0.375878247               0.327148221               0.000000000              -0.400702598               0.349218577               0.000000000              -0.425526948               0.371288933               0.000000000              -0.450351299               0.393359288               0.000000000              -0.475175649               0.415429644               0.000000000              -0.500000000               0.437500000               0.000000000              -0.094045202               0.094045202               0.000000000              -0.119417377               0.119417377               0.000000000              -0.144789552               0.144789552               0.000000000              -0.170161727               0.170161727               0.000000000              -0.195533901               0.195533901               0.000000000              -0.220906076               0.220906076               0.000000000              -0.246278251               0.246278251               0.000000000              -0.271650426               0.271650426               0.000000000              -0.297022601               0.297022601               0.000000000              -0.322394776               0.322394776               0.000000000              -0.347766951               0.347766951               0.000000000              -0.373139126               0.373139126               0.000000000              -0.398511300               0.398511300               0.000000000              -0.423883475               0.423883475               0.000000000              -0.449255650               0.449255650               0.000000000              -0.474627825               0.474627825               0.000000000              -0.500000000               0.500000000               0.000000000              -0.084374307               0.102810390               0.000000000              -0.106444663               0.127634741               0.000000000              -0.128515018               0.152459092               0.000000000              -0.150585374               0.177283442               0.000000000              -0.172655730               0.202107793               0.000000000              -0.194726086               0.226932143               0.000000000              -0.216796442               0.251756494               0.000000000              -0.238866798               0.276580845               0.000000000              -0.260937153               0.301405195               0.000000000              -0.283007509               0.326229546               0.000000000              -0.305077865               0.351053896               0.000000000              -0.327148221               0.375878247               0.000000000              -0.349218577               0.400702598               0.000000000              -0.371288933               0.425526948               0.000000000              -0.393359288               0.450351299               0.000000000              -0.415429644               0.475175649               0.000000000              -0.437500000               0.500000000               0.000000000              -0.073890841               0.110585458               0.000000000              -0.092710163               0.134923867               0.000000000              -0.111529486               0.159262276               0.000000000              -0.130348808               0.183600685               0.000000000              -0.149168131               0.207939094               0.000000000              -0.167987453               0.232277503               0.000000000              -0.186806776               0.256615912               0.000000000              -0.205626098               0.280954320               0.000000000              -0.224445420               0.305292729               0.000000000              -0.243264743               0.329631138               0.000000000              -0.262084065               0.353969547               0.000000000              -0.280903388               0.378307956               0.000000000              -0.299722710               0.402646365               0.000000000              -0.318542033               0.426984773               0.000000000              -0.337361355               0.451323182               0.000000000              -0.356180678               0.475661591               0.000000000              -0.375000000               0.500000000               0.000000000              -0.062695766               0.117295528               0.000000000              -0.078308531               0.141214558               0.000000000              -0.093921295               0.165133587               0.000000000              -0.109534060               0.189052617               0.000000000              -0.125146824               0.212971646               0.000000000              -0.140759589               0.236890676               0.000000000              -0.156372354               0.260809705               0.000000000              -0.171985118               0.284728735               0.000000000              -0.187597883               0.308647764               0.000000000              -0.203210648               0.332566794               0.000000000              -0.218823412               0.356485823               0.000000000              -0.234436177               0.380404853               0.000000000              -0.250048941               0.404323882               0.000000000              -0.265661706               0.428242912               0.000000000              -0.281274471               0.452161941               0.000000000              -0.296887235               0.476080971               0.000000000              -0.312500000               0.500000000               0.000000000              -0.050896897               0.122875978               0.000000000              -0.063340840               0.146446229               0.000000000              -0.075784784               0.170016481               0.000000000              -0.088228728               0.193586732               0.000000000              -0.100672672               0.217156983               0.000000000              -0.113116616               0.240727235               0.000000000              -0.125560560               0.264297486               0.000000000              -0.138004504               0.287867738               0.000000000              -0.150448448               0.311437989               0.000000000              -0.162892392               0.335008240               0.000000000              -0.175336336               0.358578492               0.000000000              -0.187780280               0.382148743               0.000000000              -0.200224224               0.405718994               0.000000000              -0.212668168               0.429289246               0.000000000              -0.225112112               0.452859497               0.000000000              -0.237556056               0.476429749               0.000000000              -0.250000000               0.500000000               0.000000000              -0.038607862               0.127273065               0.000000000              -0.047913621               0.150568498               0.000000000              -0.057219379               0.173863932               0.000000000              -0.066525138               0.197159365               0.000000000              -0.075830897               0.220454798               0.000000000              -0.085136655               0.243750232               0.000000000              -0.094442414               0.267045665               0.000000000              -0.103748172               0.290341099               0.000000000              -0.113053931               0.313636532               0.000000000              -0.122359690               0.336931966               0.000000000              -0.131665448               0.360227399               0.000000000              -0.140971207               0.383522833               0.000000000              -0.150276966               0.406818266               0.000000000              -0.159582724               0.430113700               0.000000000              -0.168888483               0.453409133               0.000000000              -0.178194241               0.476704567               0.000000000              -0.187500000               0.500000000               0.000000000              -0.025947013               0.130444442               0.000000000              -0.032137825               0.153541665               0.000000000              -0.038328636               0.176638887               0.000000000              -0.044519448               0.199736109               0.000000000              -0.050710260               0.222833332               0.000000000              -0.056901071               0.245930554               0.000000000              -0.063091883               0.269027776               0.000000000              -0.069282695               0.292124999               0.000000000              -0.075473506               0.315222221               0.000000000              -0.081664318               0.338319444               0.000000000              -0.087855130               0.361416666               0.000000000              -0.094045942               0.384513888               0.000000000              -0.100236753               0.407611111               0.000000000              -0.106427565               0.430708333               0.000000000              -0.112618377               0.453805555               0.000000000              -0.118809188               0.476902778               0.000000000              -0.125000000               0.500000000               0.000000000              -0.013036280               0.132359569               0.000000000              -0.016127762               0.155337096               0.000000000              -0.019219245               0.178314623               0.000000000              -0.022310727               0.201292150               0.000000000              -0.025402210               0.224269676               0.000000000              -0.028493692               0.247247203               0.000000000              -0.031585175               0.270224730               0.000000000              -0.034676657               0.293202257               0.000000000              -0.037768140               0.316179784               0.000000000              -0.040859622               0.339157311               0.000000000              -0.043951105               0.362134838               0.000000000              -0.047042587               0.385112365               0.000000000              -0.050134070               0.408089892               0.000000000              -0.053225552               0.431067419               0.000000000              -0.056317035               0.454044946               0.000000000              -0.059408517               0.477022473               0.000000000              -0.062500000               0.500000000               0.000000000               0.000000000               0.133000000               0.000000000               0.000000000               0.155937500               0.000000000               0.000000000               0.178875000               0.000000000               0.000000000               0.201812500               0.000000000               0.000000000               0.224750000               0.000000000               0.000000000               0.247687500               0.000000000               0.000000000               0.270625000               0.000000000               0.000000000               0.293562500               0.000000000               0.000000000               0.316500000               0.000000000               0.000000000               0.339437500               0.000000000               0.000000000               0.362375000               0.000000000               0.000000000               0.385312500               0.000000000               0.000000000               0.408250000               0.000000000               0.000000000               0.431187500               0.000000000               0.000000000               0.454125000               0.000000000               0.000000000               0.477062500               0.000000000               0.000000000               0.500000000               0.000000000 </DataArray>
</Points>
<Cells>
<DataArray type="Int32"                                    Name="connectivity"                                                      NumberOfComponents=" 1" format="ascii">
         0          1         18         17          1          2         19         18          2          3         20         19          3          4         21         20          4          5         22         21          5          6         23         22          6          7         24         23          7          8         25         24          8          9         26         25          9         10         27         26         10         11         28         27         11         12         29         28         12         13         30         29         13         14         31         30         14         15         32         31         15         16         33         32         17         18         35         34         18         19         36         35         19         20         37         36         20         21         38         37         21         22         39         38         22         23         40         39         23         24         41         40         24         25         42         41         25         26         43         42         26         27         44         43         27         28         45         44         28         29         46         45         29         30         47         46         30         31         48         47         31         32         49         48         32         33         50         49         34         35         52         51         35         36         53         52         36         37         54         53         37         38         55         54         38         39         56         55         39         40         57         56         40         41         58         57         41         42         59         58         42         43         60         59         43         44         61         60         44         45         62         61         45         46         63         62         46         47         64         63         47         48         65         64         48         49         66         65         49         50         67         66         51         52         69         68         52         53         70         69         53         54         71         70         54         55         72         71         55         56         73         72         56         57         74         73         57         58         75         74         58         59         76         75         59         60         77         76         60         61         78         77         61         62         79         78         62         63         80         79         63         64         81         80         64         65         82         81         65         66         83         82         66         67         84         83         68         69         86         85         69         70         87         86         70         71         88         87         71         72         89         88         72         73         90         89         73         74         91         90         74         75         92         91         75         76         93         92         76         77         94         93         77         78         95         94         78         79         96         95         79         80         97         96         80         81         98         97         81         82         99         98         82         83        100         99         83         84        101        100         85         86        103        102         86         87        104        103         87         88        105        104         88         89        106        105         89         90        107        106         90         91        108        107         91         92        109        108         92         93        110        109         93         94        111        110         94         95        112        111         95         96        113        112         96         97        114        113         97         98        115        114         98         99        116        115         99        100        117        116        100        101        118        117        102        103        120        119        103        104        121        120        104        105        122        121        105        106        123        122        106        107        124        123        107        108        125        124        108        109        126        125        109        110        127        126        110        111        128        127        111        112        129        128        112        113        130        129        113        114        131        130        114        115        132        131        115        116        133        132        116        117        134        133        117        118        135        134        119        120        137        136        120        121        138        137        121        122        139        138        122        123        140        139        123        124        141        140        124        125        142        141        125        126        143        142        126        127        144        143        127        128        145        144        128        129        146        145        129        130        147        146        130        131        148        147        131        132        149        148        132        133        150        149        133        134        151        150        134        135        152        151        136        137        154        153        137        138        155        154        138        139        156        155        139        140        157        156        140        141        158        157        141        142        159        158        142        143        160        159        143        144        161        160        144        145        162        161        145        146        163        162        146        147        164        163        147        148        165        164        148        149        166        165        149        150        167        166        150        151        168        167        151        152        169        168        153        154        171        170        154        155        172        171        155        156        173        172        156        157        174        173        157        158        175        174        158        159        176        175        159        160        177        176        160        161        178        177        161        162        179        178        162        163        180        179        163        164        181        180        164        165        182        181        165        166        183        182        166        167        184        183        167        168        185        184        168        169        186        185        170        171        188        187        171        172        189        188        172        173        190        189        173        174        191        190        174        175        192        191        175        176        193        192        176        177        194        193        177        178        195        194        178        179        196        195        179        180        197        196        180        181        198        197        181        182        199        198        182        183        200        199        183        184        201        200        184        185        202        201        185        186        203        202        187        188        205        204        188        189        206        205        189        190        207        206        190        191        208        207        191        192        209        208        192        193        210        209        193        194        211        210        194        195        212        211        195        196        213        212        196        197        214        213        197        198        215        214        198        199        216        215        199        200        217        216        200        201        218        217        201        202        219        218        202        203        220        219        204        205        222        221        205        206        223        222        206        207        224        223        207        208        225        224        208        209        226        225        209        210        227        226        210        211        228        227        211        212        229        228        212        213        230        229        213        214        231        230        214        215        232        231        215        216        233        232        216        217        234        233        217        218        235        234        218        219        236        235        219        220        237        236        221        222        239        238        222        223        240        239        223        224        241        240        224        225        242        241        225        226        243        242        226        227        244        243        227        228        245        244        228        229        246        245        229        230        247        246        230        231        248        247        231        232        249        248        232        233        250        249        233        234        251        250        234        235        252        251        235        236        253        252        236        237        254        253        238        239        256        255        239        240        257        256        240        241        258        257        241        242        259        258        242        243        260        259        243        244        261        260        244        245        262        261        245        246        263        262        246        247        264        263        247        248        265        264        248        249        266        265        249        250        267        266        250        251        268        267        251        252        269        268        252        253        270        269        253        254        271        270        255        256        273        272        256        257        274        273        257        258        275        274        258        259        276        275        259        260        277        276        260        261        278        277        261        262        279        278        262        263        280        279        263        264        281        280        264        265        282        281        265        266        283        282        266        267        284        283        267        268        285        284        268        269        286        285        269        270        287        286        270        271        288        287        306        307          1          0        307        308          2          1        308        309          3          2        309        310          4          3        310        311          5          4        311        312          6          5        312        313          7          6        313        314          8          7        314        315          9          8        315        316         10          9        316        317         11         10        317        318         12         11        318        319         13         12        319        320         14         13        320        321         15         14        321        322         16         15        323        324        307        306        324        325        308        307        325        326        309        308        326        327        310        309        327        328        311        310        328        329        312        311        329        330        313        312        330        331        314        313        331        332        315        314        332        333        316        315        333        334        317        316        334        335        318        317        335        336        319        318        336        337        320        319        337        338        321        320        338        339        322        321        340        341        324        323        341        342        325        324        342        343        326        325        343        344        327        326        344        345        328        327        345        346        329        328        346        347        330        329        347        348        331        330        348        349        332        331        349        350        333        332        350        351        334        333        351        352        335        334        352        353        336        335        353        354        337        336        354        355        338        337        355        356        339        338        357        358        341        340        358        359        342        341        359        360        343        342        360        361        344        343        361        362        345        344        362        363        346        345        363        364        347        346        364        365        348        347        365        366        349        348        366        367        350        349        367        368        351        350        368        369        352        351        369        370        353        352        370        371        354        353        371        372        355        354        372        373        356        355        374        375        358        357        375        376        359        358        376        377        360        359        377        378        361        360        378        379        362        361        379        380        363        362        380        381        364        363        381        382        365        364        382        383        366        365        383        384        367        366        384        385        368        367        385        386        369        368        386        387        370        369        387        388        371        370        388        389        372        371        389        390        373        372        391        392        375        374        392        393        376        375        393        394        377        376        394        395        378        377        395        396        379        378        396        397        380        379        397        398        381        380        398        399        382        381        399        400        383        382        400        401        384        383        401        402        385        384        402        403        386        385        403        404        387        386        404        405        388        387        405        406        389        388        406        407        390        389        408        409        392        391        409        410        393        392        410        411        394        393        411        412        395        394        412        413        396        395        413        414        397        396        414        415        398        397        415        416        399        398        416        417        400        399        417        418        401        400        418        419        402        401        419        420        403        402        420        421        404        403        421        422        405        404        422        423        406        405        423        424        407        406        425        426        409        408        426        427        410        409        427        428        411        410        428        429        412        411        429        430        413        412        430        431        414        413        431        432        415        414        432        433        416        415        433        434        417        416        434        435        418        417        435        436        419        418        436        437        420        419        437        438        421        420        438        439        422        421        439        440        423        422        440        441        424        423        442        443        426        425        443        444        427        426        444        445        428        427        445        446        429        428        446        447        430        429        447        448        431        430        448        449        432        431        449        450        433        432        450        451        434        433        451        452        435        434        452        453        436        435        453        454        437        436        454        455        438        437        455        456        439        438        456        457        440        439        457        458        441        440        459        460        443        442        460        461        444        443        461        462        445        444        462        463        446        445        463        464        447        446        464        465        448        447        465        466        449        448        466        467        450        449        467        468        451        450        468        469        452        451        469        470        453        452        470        471        454        453        471        472        455        454        472        473        456        455        473        474        457        456        474        475        458        457        476        477        460        459        477        478        461        460        478        479        462        461        479        480        463        462        480        481        464        463        481        482        465        464        482        483        466        465        483        484        467        466        484        485        468        467        485        486        469        468        486        487        470        469        487        488        471        470        488        489        472        471        489        490        473        472        490        491        474        473        491        492        475        474        493        494        477        476        494        495        478        477        495        496        479        478        496        497        480        479        497        498        481        480        498        499        482        481        499        500        483        482        500        501        484        483        501        502        485        484        502        503        486        485        503        504        487        486        504        505        488        487        505        506        489        488        506        507        490        489        507        508        491        490        508        509        492        491        510        511        494        493        511        512        495        494        512        513        496        495        513        514        497        496        514        515        498        497        515        516        499        498        516        517        500        499        517        518        501        500        518        519        502        501        519        520        503        502        520        521        504        503        521        522        505        504        522        523        506        505        523        524        507        506        524        525        508        507        525        526        509        508        527        528        511        510        528        529        512        511        529        530        513        512        530        531        514        513        531        532        515        514        532        533        516        515        533        534        517        516        534        535        518        517        535        536        519        518        536        537        520        519        537        538        521        520        538        539        522        521        539        540        523        522        540        541        524        523        541        542        525        524        542        543        526        525        544        545        528        527        545        546        529        528        546        547        530        529        547        548        531        530        548        549        532        531        549        550        533        532        550        551        534        533        551        552        535        534        552        553        536        535        553        554        537        536        554        555        538        537        555        556        539        538        556        557        540        539        557        558        541        540        558        559        542        541        559        560        543        542        561        562        545        544        562        563        546        545        563        564        547        546        564        565        548        547        565        566        549        548        566        567        550        549        567        568        551        550        568        569        552        551        569        570        553        552        570        571        554        553        571        572        555        554        572        573        556        555        573        574        557        556        574        575        558        557        575        576        559        558        576        577        560        559        578        579        596        595        579        580        597        596        580        581        598        597        581        582        599        598        582        583        600        599        583        584        601        600        584        585        602        601        585        586        603        602        586        587        604        603        587        588        605        604        588        589        606        605        589        590        607        606        590        591        608        607        591        592        609        608        592        593        610        609        593        594        611        610        595        596        613        612        596        597        614        613        597        598        615        614        598        599        616        615        599        600        617        616        600        601        618        617        601        602        619        618        602        603        620        619        603        604        621        620        604        605        622        621        605        606        623        622        606        607        624        623        607        608        625        624        608        609        626        625        609        610        627        626        610        611        628        627        612        613        630        629        613        614        631        630        614        615        632        631        615        616        633        632        616        617        634        633        617        618        635        634        618        619        636        635        619        620        637        636        620        621        638        637        621        622        639        638        622        623        640        639        623        624        641        640        624        625        642        641        625        626        643        642        626        627        644        643        627        628        645        644        629        630        647        646        630        631        648        647        631        632        649        648        632        633        650        649        633        634        651        650        634        635        652        651        635        636        653        652        636        637        654        653        637        638        655        654        638        639        656        655        639        640        657        656        640        641        658        657        641        642        659        658        642        643        660        659        643        644        661        660        644        645        662        661        646        647        664        663        647        648        665        664        648        649        666        665        649        650        667        666        650        651        668        667        651        652        669        668        652        653        670        669        653        654        671        670        654        655        672        671        655        656        673        672        656        657        674        673        657        658        675        674        658        659        676        675        659        660        677        676        660        661        678        677        661        662        679        678        663        664        681        680        664        665        682        681        665        666        683        682        666        667        684        683        667        668        685        684        668        669        686        685        669        670        687        686        670        671        688        687        671        672        689        688        672        673        690        689        673        674        691        690        674        675        692        691        675        676        693        692        676        677        694        693        677        678        695        694        678        679        696        695        680        681        698        697        681        682        699        698        682        683        700        699        683        684        701        700        684        685        702        701        685        686        703        702        686        687        704        703        687        688        705        704        688        689        706        705        689        690        707        706        690        691        708        707        691        692        709        708        692        693        710        709        693        694        711        710        694        695        712        711        695        696        713        712        697        698        715        714        698        699        716        715        699        700        717        716        700        701        718        717        701        702        719        718        702        703        720        719        703        704        721        720        704        705        722        721        705        706        723        722        706        707        724        723        707        708        725        724        708        709        726        725        709        710        727        726        710        711        728        727        711        712        729        728        712        713        730        729        714        715        732        731        715        716        733        732        716        717        734        733        717        718        735        734        718        719        736        735        719        720        737        736        720        721        738        737        721        722        739        738        722        723        740        739        723        724        741        740        724        725        742        741        725        726        743        742        726        727        744        743        727        728        745        744        728        729        746        745        729        730        747        746        731        732        749        748        732        733        750        749        733        734        751        750        734        735        752        751        735        736        753        752        736        737        754        753        737        738        755        754        738        739        756        755        739        740        757        756        740        741        758        757        741        742        759        758        742        743        760        759        743        744        761        760        744        745        762        761        745        746        763        762        746        747        764        763        748        749        766        765        749        750        767        766        750        751        768        767        751        752        769        768        752        753        770        769        753        754        771        770        754        755        772        771        755        756        773        772        756        757        774        773        757        758        775        774        758        759        776        775        759        760        777        776        760        761        778        777        761        762        779        778        762        763        780        779        763        764        781        780        765        766        783        782        766        767        784        783        767        768        785        784        768        769        786        785        769        770        787        786        770        771        788        787        771        772        789        788        772        773        790        789        773        774        791        790        774        775        792        791        775        776        793        792        776        777        794        793        777        778        795        794        778        779        796        795        779        780        797        796        780        781        798        797        782        783        800        799        783        784        801        800        784        785        802        801        785        786        803        802        786        787        804        803        787        788        805        804        788        789        806        805        789        790        807        806        790        791        808        807        791        792        809        808        792        793        810        809        793        794        811        810        794        795        812        811        795        796        813        812        796        797        814        813        797        798        815        814        799        800        817        816        800        801        818        817        801        802        819        818        802        803        820        819        803        804        821        820        804        805        822        821        805        806        823        822        806        807        824        823        807        808        825        824        808        809        826        825        809        810        827        826        810        811        828        827        811        812        829        828        812        813        830        829        813        814        831        830        814        815        832        831        816        817        834        833        817        818        835        834        818        819        836        835        819        820        837        836        820        821        838        837        821        822        839        838        822        823        840        839        823        824        841        840        824        825        842        841        825        826        843        842        826        827        844        843        827        828        845        844        828        829        846        845        829        830        847        846        830        831        848        847        831        832        849        848        833        834        562        561        834        835        563        562        835        836        564        563        836        837        565        564        837        838        566        565        838        839        567        566        839        840        568        567        840        841        569        568        841        842        570        569        842        843        571        570        843        844        572        571        844        845        573        572        845        846        574        573        846        847        575        574        847        848        576        575        848        849        577        576        884        885        579        578        885        886        580        579        886        887        581        580        887        888        582        581        888        889        583        582        889        890        584        583        890        891        585        584        891        892        586        585        892        893        587        586        893        894        588        587        894        895        589        588        895        896        590        589        896        897        591        590        897        898        592        591        898        899        593        592        899        900        594        593        901        902        885        884        902        903        886        885        903        904        887        886        904        905        888        887        905        906        889        888        906        907        890        889        907        908        891        890        908        909        892        891        909        910        893        892        910        911        894        893        911        912        895        894        912        913        896        895        913        914        897        896        914        915        898        897        915        916        899        898        916        917        900        899        918        919        902        901        919        920        903        902        920        921        904        903        921        922        905        904        922        923        906        905        923        924        907        906        924        925        908        907        925        926        909        908        926        927        910        909        927        928        911        910        928        929        912        911        929        930        913        912        930        931        914        913        931        932        915        914        932        933        916        915        933        934        917        916        935        936        919        918        936        937        920        919        937        938        921        920        938        939        922        921        939        940        923        922        940        941        924        923        941        942        925        924        942        943        926        925        943        944        927        926        944        945        928        927        945        946        929        928        946        947        930        929        947        948        931        930        948        949        932        931        949        950        933        932        950        951        934        933        952        953        936        935        953        954        937        936        954        955        938        937        955        956        939        938        956        957        940        939        957        958        941        940        958        959        942        941        959        960        943        942        960        961        944        943        961        962        945        944        962        963        946        945        963        964        947        946        964        965        948        947        965        966        949        948        966        967        950        949        967        968        951        950        969        970        953        952        970        971        954        953        971        972        955        954        972        973        956        955        973        974        957        956        974        975        958        957        975        976        959        958        976        977        960        959        977        978        961        960        978        979        962        961        979        980        963        962        980        981        964        963        981        982        965        964        982        983        966        965        983        984        967        966        984        985        968        967        986        987        970        969        987        988        971        970        988        989        972        971        989        990        973        972        990        991        974        973        991        992        975        974        992        993        976        975        993        994        977        976        994        995        978        977        995        996        979        978        996        997        980        979        997        998        981        980        998        999        982        981        999       1000        983        982       1000       1001        984        983       1001       1002        985        984       1003       1004        987        986       1004       1005        988        987       1005       1006        989        988       1006       1007        990        989       1007       1008        991        990       1008       1009        992        991       1009       1010        993        992       1010       1011        994        993       1011       1012        995        994       1012       1013        996        995       1013       1014        997        996       1014       1015        998        997       1015       1016        999        998       1016       1017       1000        999       1017       1018       1001       1000       1018       1019       1002       1001       1020       1021       1004       1003       1021       1022       1005       1004       1022       1023       1006       1005       1023       1024       1007       1006       1024       1025       1008       1007       1025       1026       1009       1008       1026       1027       1010       1009       1027       1028       1011       1010       1028       1029       1012       1011       1029       1030       1013       1012       1030       1031       1014       1013       1031       1032       1015       1014       1032       1033       1016       1015       1033       1034       1017       1016       1034       1035       1018       1017       1035       1036       1019       1018       1037       1038       1021       1020       1038       1039       1022       1021       1039       1040       1023       1022       1040       1041       1024       1023       1041       1042       1025       1024       1042       1043       1026       1025       1043       1044       1027       1026       1044       1045       1028       1027       1045       1046       1029       1028       1046       1047       1030       1029       1047       1048       1031       1030       1048       1049       1032       1031       1049       1050       1033       1032       1050       1051       1034       1033       1051       1052       1035       1034       1052       1053       1036       1035       1054       1055       1038       1037       1055       1056       1039       1038       1056       1057       1040       1039       1057       1058       1041       1040       1058       1059       1042       1041       1059       1060       1043       1042       1060       1061       1044       1043       1061       1062       1045       1044       1062       1063       1046       1045       1063       1064       1047       1046       1064       1065       1048       1047       1065       1066       1049       1048       1066       1067       1050       1049       1067       1068       1051       1050       1068       1069       1052       1051       1069       1070       1053       1052       1071       1072       1055       1054       1072       1073       1056       1055       1073       1074       1057       1056       1074       1075       1058       1057       1075       1076       1059       1058       1076       1077       1060       1059       1077       1078       1061       1060       1078       1079       1062       1061       1079       1080       1063       1062       1080       1081       1064       1063       1081       1082       1065       1064       1082       1083       1066       1065       1083       1084       1067       1066       1084       1085       1068       1067       1085       1086       1069       1068       1086       1087       1070       1069       1088       1089       1072       1071       1089       1090       1073       1072       1090       1091       1074       1073       1091       1092       1075       1074       1092       1093       1076       1075       1093       1094       1077       1076       1094       1095       1078       1077       1095       1096       1079       1078       1096       1097       1080       1079       1097       1098       1081       1080       1098       1099       1082       1081       1099       1100       1083       1082       1100       1101       1084       1083       1101       1102       1085       1084       1102       1103       1086       1085       1103       1104       1087       1086       1105       1106       1089       1088       1106       1107       1090       1089       1107       1108       1091       1090       1108       1109       1092       1091       1109       1110       1093       1092       1110       1111       1094       1093       1111       1112       1095       1094       1112       1113       1096       1095       1113       1114       1097       1096       1114       1115       1098       1097       1115       1116       1099       1098       1116       1117       1100       1099       1117       1118       1101       1100       1118       1119       1102       1101       1119       1120       1103       1102       1120       1121       1104       1103       1122       1123       1106       1105       1123       1124       1107       1106       1124       1125       1108       1107       1125       1126       1109       1108       1126       1127       1110       1109       1127       1128       1111       1110       1128       1129       1112       1111       1129       1130       1113       1112       1130       1131       1114       1113       1131       1132       1115       1114       1132       1133       1116       1115       1133       1134       1117       1116       1134       1135       1118       1117       1135       1136       1119       1118       1136       1137       1120       1119       1137       1138       1121       1120        272        273       1123       1122        273        274       1124       1123        274        275       1125       1124        275        276       1126       1125        276        277       1127       1126        277        278       1128       1127        278        279       1129       1128        279        280       1130       1129        280        281       1131       1130        281        282       1132       1131        282        283       1133       1132        283        284       1134       1133        284        285       1135       1134        285        286       1136       1135        286        287       1137       1136        287        288       1138       1137 </DataArray>
<DataArray type="Int32"                                    Name="offsets"                                                      NumberOfComponents=" 1" format="ascii">
         4          8         12         16         20         24         28         32         36         40         44         48         52         56         60         64         68         72         76         80         84         88         92         96        100        104        108        112        116        120        124        128        132        136        140        144        148        152        156        160        164        168        172        176        180        184        188        192        196        200        204        208        212        216        220        224        228        232        236        240        244        248        252        256        260        264        268        272        276        280        284        288        292        296        300        304        308        312        316        320        324        328        332        336        340        344        348        352        356        360        364        368        372        376        380        384        388        392        396        400        404        408        412        416        420        424        428        432        436        440        444        448        452        456        460        464        468        472        476        480        484        488        492        496        500        504        508        512        516        520        524        528        532        536        540        544        548        552        556        560        564        568        572        576        580        584        588        592        596        600        604        608        612        616        620        624        628        632        636        640        644        648        652        656        660        664        668        672        676        680        684        688        692        696        700        704        708        712        716        720        724        728        732        736        740        744        748        752        756        760        764        768        772        776        780        784        788        792        796        800        804        808        812        816        820        824        828        832        836        840        844        848        852        856        860        864        868        872        876        880        884        888        892        896        900        904        908        912        916        920        924        928        932        936        940        944        948        952        956        960        964        968        972        976        980        984        988        992        996       1000       1004       1008       1012       1016       1020       1024       1028       1032       1036       1040       1044       1048       1052       1056       1060       1064       1068       1072       1076       1080       1084       1088       1092       1096       1100       1104       1108       1112       1116       1120       1124       1128       1132       1136       1140       1144       1148       1152       1156       1160       1164       1168       1172       1176       1180       1184       1188       1192       1196       1200       1204       1208       1212       1216       1220       1224       1228       1232       1236       1240       1244       1248       1252       1256       1260       1264       1268       1272       1276       1280       1284       1288       1292       1296       1300       1304       1308       1312       1316       1320       1324       1328       1332       1336       1340       1344       1348       1352       1356       1360       1364       1368       1372       1376       1380       1384       1388       1392       1396       1400       1404       1408       1412       1416       1420       1424       1428       1432       1436       1440       1444       1448       1452       1456       1460       1464       1468       1472       1476       1480       1484       1488       1492       1496       1500       1504       1508       1512       1516       1520       1524       1528       1532       1536       1540       1544       1548       1552       1556       1560       1564       1568       1572       1576       1580       1584       1588       1592       1596       1600       1604       1608       1612       1616       1620       1624       1628       1632       1636       1640       1644       1648       1652       1656       1660       1664       1668       1672       1676       1680       1684       1688       1692       1696       1700       1704       1708       1712       1716       1720       1724       1728       1732       1736       1740       1744       1748       1752       1756       1760       1764       1768       1772       1776       1780       1784       1788       1792       1796       1800       1804       1808       1812       1816       1820       1824       1828       1832       1836       1840       1844       1848       1852       1856       1860       1864       1868       1872       1876       1880       1884       1888       1892       1896       1900       1904       1908       1912       1916       1920       1924       1928       1932       1936       1940       1944       1948       1952       1956       1960       1964       1968       1972       1976       1980       1984       1988       1992       1996       2000       2004       2008       2012       2016       2020       2024       2028       2032       2036       2040       2044       2048       2052       2056       2060       2064       2068       2072       2076       2080       2084       2088       2092       2096       2100       2104       2108       2112       2116       2120       2124       2128       2132       2136       2140       2144       2148       2152       2156       2160       2164       2168       2172       2176       2180       2184       2188       2192       2196       2200       2204       2208       2212       2216       2220       2224       2228       2232       2236       2240       2244       2248       2252       2256       2260       2264       2268       2272       2276       2280       2284       2288       2292       2296       2300       2304       2308       2312       2316       2320       2324       2328       2332       2336       2340       2344       2348       2352       2356       2360       2364       2368       2372       2376       2380       2384       2388       2392       2396       2400       2404       2408       2412       2416       2420       2424       2428       2432       2436       2440       2444       2448       2452       2456       2460       2464       2468       2472       2476       2480       2484       2488       2492       2496       2500       2504       2508       2512       2516       2520       2524       2528       2532       2536       2540       2544       2548       2552       2556       2560       2564       2568       2572       2576       2580       2584       2588       2592       2596       2600       2604       2608       2612       2616       2620       2624       2628       2632       2636       2640       2644       2648       2652       2656       2660       2664       2668       2672       2676       2680       2684       2688       2692       2696       2700       2704       2708       2712       2716       2720       2724       2728       2732       2736       2740       2744       2748       2752       2756       2760       2764       2768       2772       2776       2780       2784       2788       2792       2796       2800       2804       2808       2812       2816       2820       2824       2828       2832       2836       2840       2844       2848       2852       2856       2860       2864       2868       2872       2876       2880       2884       2888       2892       2896       2900       2904       2908       2912       2916       2920       2924       2928       2932       2936       2940       2944       2948       2952       2956       2960       2964       2968       2972       2976       2980       2984       2988       2992       2996       3000       3004       3008       3012       3016       3020       3024       3028       3032       3036       3040       3044       3048       3052       3056       3060       3064       3068       3072       3076       3080       3084       3088       3092       3096       3100       3104       3108       3112       3116       3120       3124       3128       3132       3136       3140       3144       3148       3152       3156       3160       3164       3168       3172       3176       3180       3184       3188       3192       3196       3200       3204       3208       3212       3216       3220       3224       3228       3232       3236       3240       3244       3248       3252       3256       3260       3264       3268       3272       3276       3280       3284       3288       3292       3296       3300       3304       3308       3312       3316       3320       3324       3328       3332       3336       3340       3344       3348       3352       3356       3360       3364       3368       3372       3376       3380       3384       3388       3392       3396       3400       3404       3408       3412       3416       3420       3424       3428       3432       3436       3440       3444       3448       3452       3456       3460       3464       3468       3472       3476       3480       3484       3488       3492       3496       3500       3504       3508       3512       3516       3520       3524       3528       3532       3536       3540       3544       3548       3552       3556       3560       3564       3568       3572       3576       3580       3584       3588       3592       3596       3600       3604       3608       3612       3616       3620       3624       3628       3632       3636       3640       3644       3648       3652       3656       3660       3664       3668       3672       3676       3680       3684       3688       3692       3696       3700       3704       3708       3712       3716       3720       3724       3728       3732       3736       3740       3744       3748       3752       3756       3760       3764       3768       3772       3776       3780       3784       3788       3792       3796       3800       3804       3808       3812       3816       3820       3824       3828       3832       3836       3840       3844       3848       3852       3856       3860       3864       3868       3872       3876       3880       3884       3888       3892       3896       3900       3904       3908       3912       3916       3920       3924       3928       3932       3936       3940       3944       3948       3952       3956       3960       3964       3968       3972       3976       3980       3984       3988       3992       3996       4000       4004       4008       4012       4016       4020       4024       4028       4032       4036       4040       4044       4048       4052       4056       4060       4064       4068       4072       4076       4080       4084       4088       4092       4096 </DataArray>
<DataArray type="UInt8"                                    Name="types"                                                      NumberOfComponents=" 1" format="ascii">
         9          9          9          9          9          9          9          9          9          9          9          9          9          9          9          9          9          9          9          9          9          9          9          9          9          9          9          9          9          9          9          9          9          9          9          9          9          9          9          9          9          9          9          9          9          9          9          9          9          9          9          9          9          9          9          9          9          9          9          9          9          9          9          9          9          9          9          9          9          9          9          9          9          9          9          9          9          9          9          9          9          9          9          9          9          9          9          9          9          9          9          9          9          9          9          9          9          9          9          9          9          9          9          9          9          9          9          9          9          9          9          9          9          9          9          9          9          9          9          9          9          9          9          9          9          9          9          9          9          9          9          9          9          9          9          9          9          9          9          9          9          9          9          9          9          9          9          9          9          9          9          9          9          9          9          9          9          9          9          9          9          9          9          9          9          9          9          9          9          9          9          9          9          9          9          9          9          9          9          9          9          9          9          9          9          9          9          9          9          9          9          9          9          9          9          9          9          9          9          9          9          9          9          9          9          9          9          9          9          9          9          9          9          9          9          9          9          9          9          9          9          9          9          9          9          9          9          9          9          9          9          9          9          9          9          9          9          9          9          9          9          9          9          9          9          9          9          9          9          9          9          9          9          9          9          9          9          9          9          9          9          9          9          9          9          9          9          9          9          9          9          9          9          9          9          9          9          9          9          9          9          9          9          9          9          9          9          9          9          9          9          9          9          9          9          9          9          9          9          9          9          9          9          9          9          9          9          9          9          9          9          9          9          9          9          9          9          9          9          9          9          9          9          9          9          9          9          9          9          9          9          9          9          9          9          9          9          9          9          9          9          9          9          9          9          9          9          9          9          9          9          9          9          9          9          9          9          9          9          9          9          9          9          9          9          9          9          9          9          9          9          9          9          9          9          9          9          9          9          9          9          9          9          9          9          9          9          9          9          9          9          9          9          9          9          9          9          9          9          9          9          9          9          9          9          9          9          9          9          9          9          9          9          9          9          9          9          9          9          9          9          9          9          9          9          9          9          9          9          9          9          9          9          9          9          9          9          9          9          9          9          9          9          9          9          9          9          9          9          9          9          9          9          9          9          9          9          9          9          9          9          9          9          9          9          9          9          9          9          9          9          9          9          9          9          9          9          9          9          9          9          9          9          9          9          9          9          9          9          9          9          9          9          9          9          9          9          9          9          9          9          9          9          9          9          9          9          9          9          9          9          9          9          9          9          9          9          9          9          9          9          9          9          9          9          9          9          9          9          9          9          9          9          9          9          9          9          9          9          9          9          9          9          9          9          9          9          9          9          9          9          9          9          9          9          9          9          9          9          9          9          9          9          9          9          9          9          9          9          9          9          9          9          9          9          9          9          9          9          9          9          9          9          9          9          9          9          9          9          9          9          9          9          9          9          9          9          9          9          9          9          9          9          9          9          9          9          9          9          9          9          9          9          9          9          9          9          9          9          9          9          9          9          9          9          9          9          9          9          9          9          9          9          9          9          9          9          9          9          9          9          9          9          9          9          9          9          9          9          9          9          9          9          9          9          9          9          9          9          9          9          9          9          9          9          9          9          9          9          9          9          9          9          9          9          9          9          9          9          9          9          9          9          9          9          9          9          9          9          9          9          9          9          9          9          9          9          9          9          9          9          9          9          9          9          9          9          9          9          9          9          9          9          9          9          9          9          9          9          9          9          9          9          9          9          9          9          9          9          9          9          9          9          9          9          9          9          9          9          9          9          9          9          9          9          9          9          9          9          9          9          9          9          9          9          9          9          9          9          9          9          9          9          9          9          9          9          9          9          9          9          9          9          9          9          9          9          9          9          9          9          9          9          9          9          9          9          9          9          9          9          9          9          9          9          9          9          9          9          9          9          9          9          9          9          9          9          9          9          9          9          9          9          9          9          9          9          9          9          9          9          9          9          9          9          9          9          9          9          9          9          9          9          9          9          9          9          9          9          9          9          9          9          9          9          9          9          9          9          9          9          9          9          9          9          9          9          9          9          9          9          9          9          9          9          9          9          9          9          9          9          9          9          9          9          9          9          9          9          9          9          9          9          9          9          9          9          9          9          9          9          9          9          9          9          9          9          9          9          9          9          9          9          9          9          9          9          9          9          9          9          9          9          9          9          9          9          9          9          9          9          9          9          9          9          9          9          9          9          9          9          9          9          9          9          9          9          9          9          9          9          9          9          9          9          9          9          9          9          9          9          9          9          9          9          9          9          9          9          9          9          9          9          9          9          9          9          9          9          9          9          9          9          9          9          9          9          9          9          9          9          9          9          9          9          9          9          9          9          9          9          9          9          9          9          9          9          9          9          9          9          9          9          9          9          9          9          9          9          9          9          9          9          9          9          9          9          9          9          9          9          9          9          9 </DataArray>
</Cells>
<CellData>
<DataArray type="Int32"                                    Name="material"                                                      NumberOfComponents=" 1" format="ascii">
         1          1          1          1          1          1          1          1          1          1          1          1          1          1          1          1          1          1          1          1          1          1          1          1          1          1          1          1          1          1          1          1          1          1          1          1          1          1          1          1          1          1          1          1          1          1          1          1          1          1          1          1          1          1          1          1          1          1          1          1          1          1          1          1          1          1          1          1          1          1          1          1          1          1          1          1          1          1          1          1          1          1          1          1          1          1          1          1          1          1          1          1          1          1          1          1          1          1          1          1          1          1          1          1          1          1          1          1          1          1          1          1          1          1          1          1          1          1          1          1          1          1          1          1          1          1          1          1          1          1          1          1          1          1          1          1          1          1          1          1          1          1          1          1          1          1          1          1          1          1          1          1          1          1          1          1          1          1          1          1          1          1          1          1          1          1          1          1          1          1          1          1          1          1          1          1          1          1          1          1          1          1          1          1          1          1          1          1          1          1          1          1          1          1          1          1          1          1          1          1          1          1          1          1          1          1          1          1          1          1          1          1          1          1          1          1          1          1          1          1          1          1          1          1          1          1          1          1          1          1          1          1          1          1          1          1          1          1          1          1          1          1          1          1          1          1          1          1          1          1          1          1          1          1          1          1          1          1          1          1          1          1          1          1          1          1          1          1          1          1          1          1          1          1          1          1          1          1          1          1          1          1          1          1          1          1          1          1          1          1          1          1          1          1          1          1          1          1          1          1          1          1          1          1          1          1          1          1          1          1          1          1          1          1          1          1          1          1          1          1          1          1          1          1          1          1          1          1          1          1          1          1          1          1          1          1          1          1          1          1          1          1          1          1          1          1          1          1          1          1          1          1          1          1          1          1          1          1          1          1          1          1          1          1          1          1          1          1          1          1          1          1          1          1          1          1          1          1          1          1          1          1          1          1          1          1          1          1          1          1          1          1          1          1          1          1          1          1          1          1          1          1          1          1          1          1          1          1          1          1          1          1          1          1          1          1          1          1          1          1          1          1          1          1          1          1          1          1          1          1          1          1          1          1          1          1          1          1          1          1          1          1          1          1          1          1          1          1          1          1          1          1          1          1          1          1          1          1          1          1          1          1          1          1          1          1          1          1          1          1          1          1          1          1          1          1          1          1          1          1          1          1          1          1          1          1          1          1          1          1          1          1          1          1          1          1          1          1          1          1          1          1          1          1          1          1          1          1          1          1          1          1          1          1          1          1          1          1          1          1          1          1          1          1          1          1          1          1          1          1          1          1          1          1          1          1          1          1          1          1          1          1          1          1          1          1          1          1          1          1          1          1          1          1          1          1          1          1          1          1          1          1          1          1          1          1          1          1          1          1          1          1          1          1          1          1          1          1          1          1          1          1          1          1          1          1          1          1          1          1          1          1          1          1          1          1          1          1          1          1          1          1          1          1          1          1          1          1          1          1          1          1          1          1          1          1          1          1          1          1          1          1          1          1          1          1          1          1          1          1          1          1          1          1          1          1          1          1          1          1          1          1          1          1          1          1          1          1          1          1          1          1          1          1          1          1          1          1          1          1          1          1          1          1          1          1          1          1          1          1          1          1          1          1          1          1          1          1          1          1          1          1          1          1          1          1          1          1          1          1          1          1          1          1          1          1          1          1          1          1          1          1          1          1          1          1          1          1          1          1          1          1          1          1          1          1          1          1          1          1          1          1          1          1          1          1          1          1          1          1          1          1          1          1          1          1          1          1          1          1          1          1          1          1          1          1          1          1          1          1          1          1          1          1          1          1          1          1          1          1          1          1          1          1          1          1          1          1          1          1          1          1          1          1          1          1          1          1          1          1          1          1          1          1          1          1          1          1          1          1          1          1          1          1          1          1          1          1          1          1          1          1          1          1          1          1          1          1          1          1          1          1          1          1          1          1          1          1          1          1          1          1          1          1          1          1          1          1          1          1          1          1          1          1          1          1          1          1          1          1          1          1          1          1          1          1          1          1          1          1          1          1          1          1          1          1          1          1          1          1          1          1          1          1          1          1          1          1          1          1          1          1          1          1          1          1          1          1          1          1          1          1          1          1          1          1          1          1          1          1          1          1          1          1          1          1          1          1          1          1          1          1          1          1          1          1          1          1          1          1          1          1          1          1          1          1          1          1          1          1          1          1          1          1          1          1          1          1          1          1          1          1          1          1          1          1          1          1          1          1          1          1          1          1          1          1          1          1          1          1          1          1          1          1          1          1          1          1          1          1          1          1          1          1          1          1          1          1          1          1          1          1          1          1          1          1          1          1          1          1          1          1          1          1          1          1          1          1          1          1          1          1          1          1          1          1          1          1          1          1          1          1          1          1          1          1          1          1          1          1          1          1          1          1          1          1          1          1          1          1          1          1          1          1 </DataArray>
</CellData>
<PointData>
<DataArray type="Float64"                                    Name="u"                                                      NumberOfComponents=" 3" format="ascii">
             -0.000917674               0.000000000               0.999999987              -0.000965441              -0.000000000               0.999999987              -0.000984814               0.000000000               0.999999987              -0.000994971               0.000000000               0.999999987              -0.001002529               0.000000000               0.999999987              -0.001010153               0.000000000               0.999999987              -0.001018813              -0.000000000               0.999999987              -0.001028524               0.000000000               0.999999987              -0.001039095              -0.000000000               0.999999987              -0.001050153              -0.000000000               0.999999987              -0.001061267               0.000000000               0.999999987              -0.001072180               0.000000000               0.999999987              -0.001082611               0.000000000               0.999999987              -0.001091918              -0.000000000               0.999999987              -0.001099512              -0.000000000               0.999999987              -0.001104615              -0.000000000               0.999999987              -0.001106383              -0.000000000               0.999999987              -0.000912499               0.000126062               0.999999987              -0.000955997               0.000099129               0.999999987              -0.000972672               0.000086606               0.999999987              -0.000981089               0.000081012               0.999999987              -0.000987535               0.000078780               0.999999987              -0.000994300               0.000078247               0.999999987              -0.001002032               0.000078341               0.999999987              -0.001010791               0.000078174               0.999999987              -0.001020270               0.000077225               0.999999987              -0.001030017               0.000075178               0.999999987              -0.001039666               0.000071777               0.999999987              -0.001048835               0.000066859               0.999999987              -0.001057147               0.000059969               0.999999987              -0.001064112               0.000050377               0.999999987              -0.001069165               0.000037440               0.999999987              -0.001071672               0.000020280               0.999999987              -0.001070964              -0.000002093               0.999999987              -0.000897077               0.000250897               0.999999987              -0.000928198               0.000197954               0.999999987              -0.000937350               0.000174271               0.999999987              -0.000941081               0.000164261               0.999999987              -0.000944365               0.000160740               0.999999987              -0.000948676               0.000160216               0.999999987              -0.000954166               0.000160675               0.999999987              -0.000960433               0.000160510               0.999999987              -0.000966848               0.000158675               0.999999987              -0.000972912               0.000154681               0.999999987              -0.000978233               0.000147957               0.999999987              -0.000982443               0.000138327               0.999999987              -0.000985120               0.000124909               0.999999987              -0.000985731               0.000106532               0.999999987              -0.000983939               0.000082299               0.999999987              -0.000979379               0.000051224               0.999999987              -0.000971920               0.000011881               0.999999987              -0.000871809               0.000373445               0.999999987              -0.000883627               0.000296321               0.999999987              -0.000881788               0.000263889               0.999999987              -0.000879018               0.000251466               0.999999987              -0.000878218               0.000248027               0.999999987              -0.000879306               0.000248422               0.999999987              -0.000881645               0.000249606               0.999999987              -0.000884163               0.000249404               0.999999987              -0.000886056               0.000246733               0.999999987              -0.000886770               0.000240711               0.999999987              -0.000885845               0.000230955               0.999999987              -0.000882783               0.000216890               0.999999987              -0.000877113               0.000197605               0.999999987              -0.000868647               0.000172041               0.999999987              -0.000857285               0.000139519               0.999999987              -0.000843206               0.000099256               0.999999987              -0.000826923               0.000050958               0.999999987              -0.000837092               0.000492665               0.999999987              -0.000824274               0.000394340               0.999999987              -0.000810213               0.000356139               0.999999987              -0.000801133               0.000343400               0.999999987              -0.000796421               0.000341361               0.999999987              -0.000794211               0.000343402               0.999999987              -0.000792843               0.000345623               0.999999987              -0.000790816               0.000345508               0.999999987              -0.000787342               0.000341863               0.999999987              -0.000781538               0.000333934               0.999999987              -0.000772852               0.000321156               0.999999987              -0.000760783               0.000302958               0.999999987              -0.000745272               0.000278858               0.999999987              -0.000726411               0.000248163               0.999999987              -0.000704601               0.000210539               0.999999987              -0.000680522               0.000166520               0.999999987              -0.000655119               0.000116980               0.999999987              -0.000793652               0.000607312               0.999999987              -0.000753288               0.000492069               0.999999987              -0.000728011               0.000451240               0.999999987              -0.000714131               0.000439931               0.999999987              -0.000706526               0.000440203               0.999999987              -0.000701512               0.000444096               0.999999987              -0.000696448               0.000447122               0.999999987              -0.000689655               0.000447079               0.999999987              -0.000680012               0.000442506               0.999999987              -0.000666675               0.000432550               0.999999987              -0.000649234               0.000416909               0.999999987              -0.000627547               0.000395075               0.999999987              -0.000601816               0.000367162               0.999999987              -0.000572636               0.000333328               0.999999987              -0.000540832               0.000293817               0.999999987              -0.000507383               0.000249925               0.999999987              -0.000473360               0.000203471               0.999999987              -0.000742414               0.000716215               0.999999987              -0.000674471               0.000589516               0.999999987              -0.000640739               0.000548667               0.999999987              -0.000624262               0.000539859               0.999999987              -0.000615234               0.000542644               0.999999987              -0.000608008               0.000548102               0.999999987              -0.000599300               0.000551803               0.999999987              -0.000587279               0.000551662               0.999999987              -0.000570750               0.000546014               0.999999987              -0.000549191               0.000534140               0.999999987              -0.000522426               0.000515893               0.999999987              -0.000490836               0.000491112               0.999999987              -0.000454827               0.000460507               0.999999987              -0.000415462               0.000425177               0.999999987              -0.000373724               0.000385855               0.999999987              -0.000330744               0.000344140               0.999999987              -0.000287288               0.000301674               0.999999987              -0.000684646               0.000818253               0.999999987              -0.000591543               0.000686466               0.999999987              -0.000553096               0.000647479               0.999999987              -0.000536782               0.000641210               0.999999987              -0.000527490               0.000646178               0.999999987              -0.000518315               0.000653008               0.999999987              -0.000505688               0.000657196               0.999999987              -0.000487820               0.000656827               0.999999987              -0.000463852               0.000649998               0.999999987              -0.000433336               0.000636229               0.999999987              -0.000396484               0.000615610               0.999999987              -0.000353908               0.000588713               0.999999987              -0.000306700               0.000556874               0.999999987              -0.000256103               0.000521622               0.999999987              -0.000203390               0.000484052               0.999999987              -0.000149834               0.000445741               0.999999987              -0.000096027               0.000407377               0.999999987              -0.000622224               0.000911695               0.999999987              -0.000507340               0.000782680               0.999999987              -0.000469533               0.000745962               0.999999987              -0.000455268               0.000741745               0.999999987              -0.000446467               0.000748348               0.999999987              -0.000435216               0.000756296               0.999999987              -0.000418273               0.000760881               0.999999987              -0.000393902               0.000759959               0.999999987              -0.000361354               0.000751939               0.999999987              -0.000320521               0.000736380               0.999999987              -0.000272038               0.000713901               0.999999987              -0.000217084               0.000685786               0.999999987              -0.000157207               0.000653999               0.999999987              -0.000094206               0.000620296               0.999999987              -0.000029801               0.000586236               0.999999987               0.000034758               0.000552736               0.999999987               0.000099080               0.000519912               0.999999987              -0.000557650               0.001000300               0.999999987              -0.000436515               0.000891008               0.999999987              -0.000396463               0.000851353               0.999999987              -0.000382162               0.000843028               0.999999987              -0.000374597               0.000847594               0.999999987              -0.000365797               0.000856149               0.999999987              -0.000352500               0.000864049               0.999999987              -0.000332670               0.000868780               0.999999987              -0.000305315               0.000868811               0.999999987              -0.000270142               0.000863183               0.999999987              -0.000227415               0.000851505               0.999999987              -0.000177454               0.000834405               0.999999987              -0.000121044               0.000813066               0.999999987              -0.000059733               0.000789114               0.999999987               0.000004797               0.000764076               0.999999987               0.000070647               0.000739477               0.999999987               0.000136266               0.000715908               0.999999987              -0.000487409               0.001081127               0.999999987              -0.000368152               0.000995975               0.999999987              -0.000326115               0.000959526               0.999999987              -0.000310814               0.000949399               0.999999987              -0.000303705               0.000952725               0.999999987              -0.000296786               0.000961839               0.999999987              -0.000286464               0.000972501               0.999999987              -0.000270631               0.000982223               0.999999987              -0.000248015               0.000989292               0.999999987              -0.000218292               0.000992555               0.999999987              -0.000181500               0.000991188               0.999999987              -0.000137358               0.000984895               0.999999987              -0.000086043               0.000974263               0.999999987              -0.000028055               0.000960277               0.999999987               0.000035153               0.000944361               0.999999987               0.000101637               0.000927896               0.999999987               0.000169505               0.000912158               0.999999987              -0.000412790               0.001152219               0.999999987              -0.000302226               0.001094409               0.999999987              -0.000260091               0.001065523               0.999999987              -0.000243599               0.001056766               0.999999987              -0.000236389               0.001060281               0.999999987              -0.000230485               0.001070496               0.999999987              -0.000222405               0.001083832               0.999999987              -0.000209842               0.001097985               0.999999987              -0.000191602               0.001111270               0.999999987              -0.000167151               0.001122414               0.999999987              -0.000136255               0.001130477               0.999999987              -0.000098521               0.001134814               0.999999987              -0.000053473               0.001135198               0.999999987              -0.000000839               0.001131964               0.999999987               0.000058983               0.001126037               0.999999987               0.000124584               0.001118641               0.999999987               0.000194502               0.001110978               0.999999987              -0.000334560               0.001212210               0.999999987              -0.000238737               0.001182157               0.999999987              -0.000199173               0.001164077               0.999999987              -0.000182425               0.001159334               0.999999987              -0.000174815               0.001164869               0.999999987              -0.000169463               0.001177155               0.999999987              -0.000162966               0.001193377               0.999999987              -0.000153214               0.001211654               0.999999987              -0.000138921               0.001230396               0.999999987              -0.000119431               0.001248528               0.999999987              -0.000094500               0.001265054               0.999999987              -0.000063547               0.001279159               0.999999987              -0.000025807               0.001290215               0.999999987               0.000019756               0.001298128               0.999999987               0.000073367               0.001303101               0.999999987               0.000134798               0.001305868               0.999999987               0.000203727               0.001307307               0.999999987              -0.000253421               0.001259965               0.999999987              -0.000177359               0.001255098               0.999999987              -0.000143651               0.001249101               0.999999987              -0.000128272               0.001250355               0.999999987              -0.000120760               0.001259229               0.999999987              -0.000115968               0.001274335               0.999999987              -0.000110670               0.001293756               0.999999987              -0.000103358               0.001316012               0.999999987              -0.000092585               0.001339893               0.999999987              -0.000077898               0.001364169               0.999999987              -0.000059005               0.001387997               0.999999987              -0.000035255               0.001410582               0.999999987              -0.000005755               0.001431324               0.999999987               0.000030655               0.001449703               0.999999987               0.000074946               0.001465479               0.999999987               0.000127902               0.001478736               0.999999987               0.000190384               0.001489958               0.999999987              -0.000170098               0.001294552               0.999999987              -0.000117509               0.001309707               0.999999987              -0.000092895               0.001314736               0.999999987              -0.000080957               0.001322285               0.999999987              -0.000074756               0.001335118               0.999999987              -0.000070788               0.001353241               0.999999987              -0.000066938               0.001375752               0.999999987              -0.000061847               0.001401531               0.999999987              -0.000054725               0.001429522               0.999999987              -0.000044966               0.001458701               0.999999987              -0.000032226               0.001488340               0.999999987              -0.000015970               0.001517829               0.999999987               0.000004297               0.001546389               0.999999987               0.000029558               0.001573391               0.999999987               0.000061322               0.001598533               0.999999987               0.000100856               0.001621438               0.999999987               0.000149593               0.001641907               0.999999987              -0.000085374               0.001315456               0.999999987              -0.000058544               0.001343368               0.999999987              -0.000045569               0.001356156               0.999999987              -0.000038996               0.001368451               0.999999987              -0.000035411               0.001384476               0.999999987              -0.000033133               0.001405013               0.999999987              -0.000030982               0.001429667               0.999999987              -0.000028427               0.001457810               0.999999987              -0.000024914               0.001488507               0.999999987              -0.000020093               0.001521027               0.999999987              -0.000013591               0.001554691               0.999999987              -0.000005267               0.001588857               0.999999987               0.000004850               0.001622887               0.999999987               0.000017755               0.001656112               0.999999987               0.000034600               0.001687972               0.999999987               0.000055996               0.001717835               0.999999987               0.000083167               0.001745080               0.999999987              -0.000000000               0.001322493               0.999999987              -0.000000000               0.001354689               0.999999987              -0.000000000               0.001370191               0.999999987               0.000000000               0.001384339               0.999999987               0.000000000               0.001401535               0.999999987              -0.000000000               0.001423015               0.999999987               0.000000000               0.001448543               0.999999987              -0.000000000               0.001477408               0.999999987              -0.000000000               0.001508920               0.999999987               0.000000000               0.001542626               0.999999987               0.000000000               0.001577794               0.999999987               0.000000000               0.001613678               0.999999987              -0.000000000               0.001649775               0.999999987              -0.000000000               0.001685420               0.999999987              -0.000000000               0.001720004               0.999999987               0.000000000               0.001752665               0.999999987               0.000000000               0.001782490               0.999999987              -0.000917674               0.000000000               0.999999987              -0.000965441              -0.000000000               0.999999987              -0.000984814               0.000000000               0.999999987              -0.000994971               0.000000000               0.999999987              -0.001002529               0.000000000               0.999999987              -0.001010153               0.000000000               0.999999987              -0.001018813              -0.000000000               0.999999987              -0.001028524               0.000000000               0.999999987              -0.001039095              -0.000000000               0.999999987              -0.001050153              -0.000000000               0.999999987              -0.001061267               0.000000000               0.999999987              -0.001072180               0.000000000               0.999999987              -0.001082611               0.000000000               0.999999987              -0.001091918              -0.000000000               0.999999987              -0.001099512              -0.000000000               0.999999987              -0.001104615              -0.000000000               0.999999987              -0.001106383              -0.000000000               0.999999987              -0.000912499              -0.000126062               0.999999987              -0.000955997              -0.000099129               0.999999987              -0.000972672              -0.000086606               0.999999987              -0.000981089              -0.000081012               0.999999987              -0.000987535              -0.000078780               0.999999987              -0.000994300              -0.000078247               0.999999987              -0.001002032              -0.000078341               0.999999987              -0.001010791              -0.000078174               0.999999987              -0.001020270              -0.000077225               0.999999987              -0.001030017              -0.000075178               0.999999987              -0.001039666              -0.000071777               0.999999987              -0.001048835              -0.000066859               0.999999987              -0.001057147              -0.000059969               0.999999987              -0.001064112              -0.000050377               0.999999987              -0.001069165              -0.000037440               0.999999987              -0.001071672              -0.000020280               0.999999987              -0.001070964               0.000002093               0.999999987              -0.000897077              -0.000250897               0.999999987              -0.000928198              -0.000197954               0.999999987              -0.000937350              -0.000174271               0.999999987              -0.000941081              -0.000164261               0.999999987              -0.000944365              -0.000160740               0.999999987              -0.000948676              -0.000160216               0.999999987              -0.000954166              -0.000160675               0.999999987              -0.000960433              -0.000160510               0.999999987              -0.000966848              -0.000158675               0.999999987              -0.000972912              -0.000154681               0.999999987              -0.000978233              -0.000147957               0.999999987              -0.000982443              -0.000138327               0.999999987              -0.000985120              -0.000124909               0.999999987              -0.000985731              -0.000106532               0.999999987              -0.000983939              -0.000082299               0.999999987              -0.000979379              -0.000051224               0.999999987              -0.000971920              -0.000011881               0.999999987              -0.000871809              -0.000373445               0.999999987              -0.000883627              -0.000296321               0.999999987              -0.000881788              -0.000263889               0.999999987              -0.000879018              -0.000251466               0.999999987              -0.000878218              -0.000248027               0.999999987              -0.000879306              -0.000248422               0.999999987              -0.000881645              -0.000249606               0.999999987              -0.000884163              -0.000249404               0.999999987              -0.000886056              -0.000246733               0.999999987              -0.000886770              -0.000240711               0.999999987              -0.000885845              -0.000230955               0.999999987              -0.000882783              -0.000216890               0.999999987              -0.000877113              -0.000197605               0.999999987              -0.000868647              -0.000172041               0.999999987              -0.000857285              -0.000139519               0.999999987              -0.000843206              -0.000099256               0.999999987              -0.000826923              -0.000050958               0.999999987              -0.000837092              -0.000492665               0.999999987              -0.000824274              -0.000394340               0.999999987              -0.000810213              -0.000356139               0.999999987              -0.000801133              -0.000343400               0.999999987              -0.000796421              -0.000341361               0.999999987              -0.000794211              -0.000343402               0.999999987              -0.000792843              -0.000345623               0.999999987              -0.000790816              -0.000345508               0.999999987              -0.000787342              -0.000341863               0.999999987              -0.000781538              -0.000333934               0.999999987              -0.000772852              -0.000321156               0.999999987              -0.000760783              -0.000302958               0.999999987              -0.000745272              -0.000278858               0.999999987              -0.000726411              -0.000248163               0.999999987              -0.000704601              -0.000210539               0.999999987              -0.000680522              -0.000166520               0.999999987              -0.000655119              -0.000116980               0.999999987              -0.000793652              -0.000607312               0.999999987              -0.000753288              -0.000492069               0.999999987              -0.000728011              -0.000451240               0.999999987              -0.000714131              -0.000439931               0.999999987              -0.000706526              -0.000440203               0.999999987              -0.000701512              -0.000444096               0.999999987              -0.000696448              -0.000447122               0.999999987              -0.000689655              -0.000447079               0.999999987              -0.000680012              -0.000442506               0.999999987              -0.000666675              -0.000432550               0.999999987              -0.000649234              -0.000416909               0.999999987              -0.000627547              -0.000395075               0.999999987              -0.000601816              -0.000367162               0.999999987              -0.000572636              -0.000333328               0.999999987              -0.000540832              -0.000293817               0.999999987              -0.000507383              -0.000249925               0.999999987              -0.000473360              -0.000203471               0.999999987              -0.000742414              -0.000716215               0.999999987              -0.000674471              -0.000589516               0.999999987              -0.000640739              -0.000548667               0.999999987              -0.000624262              -0.000539859               0.999999987              -0.000615234              -0.000542644               0.999999987              -0.000608008              -0.000548102               0.999999987              -0.000599300              -0.000551803               0.999999987              -0.000587279              -0.000551662               0.999999987              -0.000570750              -0.000546014               0.999999987              -0.000549191              -0.000534140               0.999999987              -0.000522426              -0.000515893               0.999999987              -0.000490836              -0.000491112               0.999999987              -0.000454827              -0.000460507               0.999999987              -0.000415462              -0.000425177               0.999999987              -0.000373724              -0.000385855               0.999999987              -0.000330744              -0.000344140               0.999999987              -0.000287288              -0.000301674               0.999999987              -0.000684646              -0.000818253               0.999999987              -0.000591543              -0.000686466               0.999999987              -0.000553096              -0.000647479               0.999999987              -0.000536782              -0.000641210               0.999999987              -0.000527490              -0.000646178               0.999999987              -0.000518315              -0.000653008               0.999999987              -0.000505688              -0.000657196               0.999999987              -0.000487820              -0.000656827               0.999999987              -0.000463852              -0.000649998               0.999999987              -0.000433336              -0.000636229               0.999999987              -0.000396484              -0.000615610               0.999999987              -0.000353908              -0.000588713               0.999999987              -0.000306700              -0.000556874               0.999999987              -0.000256103              -0.000521622               0.999999987              -0.000203390              -0.000484052               0.999999987              -0.000149834              -0.000445741               0.999999987              -0.000096027              -0.000407377               0.999999987              -0.000622224              -0.000911695               0.999999987              -0.000507340              -0.000782680               0.999999987              -0.000469533              -0.000745962               0.999999987              -0.000455268              -0.000741745               0.999999987              -0.000446467              -0.000748348               0.999999987              -0.000435216              -0.000756296               0.999999987              -0.000418273              -0.000760881               0.999999987              -0.000393902              -0.000759959               0.999999987              -0.000361354              -0.000751939               0.999999987              -0.000320521              -0.000736380               0.999999987              -0.000272038              -0.000713901               0.999999987              -0.000217084              -0.000685786               0.999999987              -0.000157207              -0.000653999               0.999999987              -0.000094206              -0.000620296               0.999999987              -0.000029801              -0.000586236               0.999999987               0.000034758              -0.000552736               0.999999987               0.000099080              -0.000519912               0.999999987              -0.000557650              -0.001000300               0.999999987              -0.000436515              -0.000891008               0.999999987              -0.000396463              -0.000851353               0.999999987              -0.000382162              -0.000843028               0.999999987              -0.000374597              -0.000847594               0.999999987              -0.000365797              -0.000856149               0.999999987              -0.000352500              -0.000864049               0.999999987              -0.000332670              -0.000868780               0.999999987              -0.000305315              -0.000868811               0.999999987              -0.000270142              -0.000863183               0.999999987              -0.000227415              -0.000851505               0.999999987              -0.000177454              -0.000834405               0.999999987              -0.000121044              -0.000813066               0.999999987              -0.000059733              -0.000789114               0.999999987               0.000004797              -0.000764076               0.999999987               0.000070647              -0.000739477               0.999999987               0.000136266              -0.000715908               0.999999987              -0.000487409              -0.001081127               0.999999987              -0.000368152              -0.000995975               0.999999987              -0.000326115              -0.000959526               0.999999987              -0.000310814              -0.000949399               0.999999987              -0.000303705              -0.000952725               0.999999987              -0.000296786              -0.000961839               0.999999987              -0.000286464              -0.000972501               0.999999987              -0.000270631              -0.000982223               0.999999987              -0.000248015              -0.000989292               0.999999987              -0.000218292              -0.000992555               0.999999987              -0.000181500              -0.000991188               0.999999987              -0.000137358              -0.000984895               0.999999987              -0.000086043              -0.000974263               0.999999987              -0.000028055              -0.000960277               0.999999987               0.000035153              -0.000944361               0.999999987               0.000101637              -0.000927896               0.999999987               0.000169505              -0.000912158               0.999999987              -0.000412790              -0.001152219               0.999999987              -0.000302226              -0.001094409               0.999999987              -0.000260091              -0.001065523               0.999999987              -0.000243599              -0.001056766               0.999999987              -0.000236389              -0.001060281               0.999999987              -0.000230485              -0.001070496               0.999999987              -0.000222405              -0.001083832               0.999999987              -0.000209842              -0.001097985               0.999999987              -0.000191602              -0.001111270               0.999999987              -0.000167151              -0.001122414               0.999999987              -0.000136255              -0.001130477               0.999999987              -0.000098521              -0.001134814               0.999999987              -0.000053473              -0.001135198               0.999999987              -0.000000839              -0.001131964               0.999999987               0.000058983              -0.001126037               0.999999987               0.000124584              -0.001118641               0.999999987               0.000194502              -0.001110978               0.999999987              -0.000334560              -0.001212210               0.999999987              -0.000238737              -0.001182157               0.999999987              -0.000199173              -0.001164077               0.999999987              -0.000182425              -0.001159334               0.999999987              -0.000174815              -0.001164869               0.999999987              -0.000169463              -0.001177155               0.999999987              -0.000162966              -0.001193377               0.999999987              -0.000153214              -0.001211654               0.999999987              -0.000138921              -0.001230396               0.999999987              -0.000119431              -0.001248528               0.999999987              -0.000094500              -0.001265054               0.999999987              -0.000063547              -0.001279159               0.999999987              -0.000025807              -0.001290215               0.999999987               0.000019756              -0.001298128               0.999999987               0.000073367              -0.001303101               0.999999987               0.000134798              -0.001305868               0.999999987               0.000203727              -0.001307307               0.999999987              -0.000253421              -0.001259965               0.999999987              -0.000177359              -0.001255098               0.999999987              -0.000143651              -0.001249101               0.999999987              -0.000128272              -0.001250355               0.999999987              -0.000120760              -0.001259229               0.999999987              -0.000115968              -0.001274335               0.999999987              -0.000110670              -0.001293756               0.999999987              -0.000103358              -0.001316012               0.999999987              -0.000092585              -0.001339893               0.999999987              -0.000077898              -0.001364169               0.999999987              -0.000059005              -0.001387997               0.999999987              -0.000035255              -0.001410582               0.999999987              -0.000005755              -0.001431324               0.999999987               0.000030655              -0.001449703               0.999999987               0.000074946              -0.001465479               0.999999987               0.000127902              -0.001478736               0.999999987               0.000190384              -0.001489958               0.999999987              -0.000170098              -0.001294552               0.999999987              -0.000117509              -0.001309707               0.999999987              -0.000092895              -0.001314736               0.999999987              -0.000080957              -0.001322285               0.999999987              -0.000074756              -0.001335118               0.999999987              -0.000070788              -0.001353241               0.999999987              -0.000066938              -0.001375752               0.999999987              -0.000061847              -0.001401531               0.999999987              -0.000054725              -0.001429522               0.999999987              -0.000044966              -0.001458701               0.999999987              -0.000032226              -0.001488340               0.999999987              -0.000015970              -0.001517829               0.999999987               0.000004297              -0.001546389               0.999999987               0.000029558              -0.001573391               0.999999987               0.000061322              -0.001598533               0.999999987               0.000100856              -0.001621438               0.999999987               0.000149593              -0.001641907               0.999999987              -0.000085374              -0.001315456               0.999999987              -0.000058544              -0.001343368               0.999999987              -0.000045569              -0.001356156               0.999999987              -0.000038996              -0.001368451               0.999999987              -0.000035411              -0.001384476               0.999999987              -0.000033133              -0.001405013               0.999999987              -0.000030982              -0.001429667               0.999999987              -0.000028427              -0.001457810               0.999999987              -0.000024914              -0.001488507               0.999999987              -0.000020093              -0.001521027               0.999999987              -0.000013591              -0.001554691               0.999999987              -0.000005267              -0.001588857               0.999999987               0.000004850              -0.001622887               0.999999987               0.000017755              -0.001656112               0.999999987               0.000034600              -0.001687972               0.999999987               0.000055996              -0.001717835               0.999999987               0.000083167              -0.001745080               0.999999987               0.000000000              -0.001322493               0.999999987              -0.000000000              -0.001354689               0.999999987              -0.000000000              -0.001370191               0.999999987               0.000000000              -0.001384339               0.999999987               0.000000000              -0.001401535               0.999999987              -0.000000000              -0.001423015               0.999999987               0.000000000              -0.001448543               0.999999987              -0.000000000              -0.001477408               0.999999987              -0.000000000              -0.001508920               0.999999987              -0.000000000              -0.001542626               0.999999987               0.000000000              -0.001577794               0.999999987              -0.000000000              -0.001613678               0.999999987               0.000000000              -0.001649775               0.999999987               0.000000000              -0.001685420               0.999999987               0.000000000              -0.001720004               0.999999987              -0.000000000              -0.001752665               0.999999987              -0.000000000              -0.001782490               0.999999987               0.000917674              -0.000000000               0.999999987               0.000965441              -0.000000000               0.999999987               0.000984814              -0.000000000               0.999999987               0.000994971              -0.000000000               0.999999987               0.001002529               0.000000000               0.999999987               0.001010153              -0.000000000               0.999999987               0.001018813               0.000000000               0.999999987               0.001028524               0.000000000               0.999999987               0.001039095              -0.000000000               0.999999987               0.001050153              -0.000000000               0.999999987               0.001061267              -0.000000000               0.999999987               0.001072180               0.000000000               0.999999987               0.001082611              -0.000000000               0.999999987               0.001091918               0.000000000               0.999999987               0.001099512               0.000000000               0.999999987               0.001104615              -0.000000000               0.999999987               0.001106383              -0.000000000               0.999999987               0.000912499              -0.000126062               0.999999987               0.000955997              -0.000099129               0.999999987               0.000972672              -0.000086606               0.999999987               0.000981089              -0.000081012               0.999999987               0.000987535              -0.000078780               0.999999987               0.000994300              -0.000078247               0.999999987               0.001002032              -0.000078341               0.999999987               0.001010791              -0.000078174               0.999999987               0.001020270              -0.000077225               0.999999987               0.001030017              -0.000075178               0.999999987               0.001039666              -0.000071777               0.999999987               0.001048835              -0.000066859               0.999999987               0.001057147              -0.000059969               0.999999987               0.001064112              -0.000050377               0.999999987               0.001069165              -0.000037440               0.999999987               0.001071672              -0.000020280               0.999999987               0.001070964               0.000002093               0.999999987               0.000897077              -0.000250897               0.999999987               0.000928198              -0.000197954               0.999999987               0.000937350              -0.000174271               0.999999987               0.000941081              -0.000164261               0.999999987               0.000944365              -0.000160740               0.999999987               0.000948676              -0.000160216               0.999999987               0.000954166              -0.000160675               0.999999987               0.000960433              -0.000160510               0.999999987               0.000966848              -0.000158675               0.999999987               0.000972912              -0.000154681               0.999999987               0.000978233              -0.000147957               0.999999987               0.000982443              -0.000138327               0.999999987               0.000985120              -0.000124909               0.999999987               0.000985731              -0.000106532               0.999999987               0.000983939              -0.000082299               0.999999987               0.000979379              -0.000051224               0.999999987               0.000971920              -0.000011881               0.999999987               0.000871809              -0.000373445               0.999999987               0.000883627              -0.000296321               0.999999987               0.000881788              -0.000263889               0.999999987               0.000879018              -0.000251466               0.999999987               0.000878218              -0.000248027               0.999999987               0.000879306              -0.000248422               0.999999987               0.000881645              -0.000249606               0.999999987               0.000884163              -0.000249404               0.999999987               0.000886056              -0.000246733               0.999999987               0.000886770              -0.000240711               0.999999987               0.000885845              -0.000230955               0.999999987               0.000882783              -0.000216890               0.999999987               0.000877113              -0.000197605               0.999999987               0.000868647              -0.000172041               0.999999987               0.000857285              -0.000139519               0.999999987               0.000843206              -0.000099256               0.999999987               0.000826923              -0.000050958               0.999999987               0.000837092              -0.000492665               0.999999987               0.000824274              -0.000394340               0.999999987               0.000810213              -0.000356139               0.999999987               0.000801133              -0.000343400               0.999999987               0.000796421              -0.000341361               0.999999987               0.000794211              -0.000343402               0.999999987               0.000792843              -0.000345623               0.999999987               0.000790816              -0.000345508               0.999999987               0.000787342              -0.000341863               0.999999987               0.000781538              -0.000333934               0.999999987               0.000772852              -0.000321156               0.999999987               0.000760783              -0.000302958               0.999999987               0.000745272              -0.000278858               0.999999987               0.000726411              -0.000248163               0.999999987               0.000704601              -0.000210539               0.999999987               0.000680522              -0.000166520               0.999999987               0.000655119              -0.000116980               0.999999987               0.000793652              -0.000607312               0.999999987               0.000753288              -0.000492069               0.999999987               0.000728011              -0.000451240               0.999999987               0.000714131              -0.000439931               0.999999987               0.000706526              -0.000440203               0.999999987               0.000701512              -0.000444096               0.999999987               0.000696448              -0.000447122               0.999999987               0.000689655              -0.000447079               0.999999987               0.000680012              -0.000442506               0.999999987               0.000666675              -0.000432550               0.999999987               0.000649234              -0.000416909               0.999999987               0.000627547              -0.000395075               0.999999987               0.000601816              -0.000367162               0.999999987               0.000572636              -0.000333328               0.999999987               0.000540832              -0.000293817               0.999999987               0.000507383              -0.000249925               0.999999987               0.000473360              -0.000203471               0.999999987               0.000742414              -0.000716215               0.999999987               0.000674471              -0.000589516               0.999999987               0.000640739              -0.000548667               0.999999987               0.000624262              -0.000539859               0.999999987               0.000615234              -0.000542644               0.999999987               0.000608008              -0.000548102               0.999999987               0.000599300              -0.000551803               0.999999987               0.000587279              -0.000551662               0.999999987               0.000570750              -0.000546014               0.999999987               0.000549191              -0.000534140               0.999999987               0.000522426              -0.000515893               0.999999987               0.000490836              -0.000491112               0.999999987               0.000454827              -0.000460507               0.999999987               0.000415462              -0.000425177               0.999999987               0.000373724              -0.000385855               0.999999987               0.000330744              -0.000344140               0.999999987               0.000287288              -0.000301674               0.999999987               0.000684646              -0.000818253               0.999999987               0.000591543              -0.000686466               0.999999987               0.000553096              -0.000647479               0.999999987               0.000536782              -0.000641210               0.999999987               0.000527490              -0.000646178               0.999999987               0.000518315              -0.000653008               0.999999987               0.000505688              -0.000657196               0.999999987               0.000487820              -0.000656827               0.999999987               0.000463852              -0.000649998               0.999999987               0.000433336              -0.000636229               0.999999987               0.000396484              -0.000615610               0.999999987               0.000353908              -0.000588713               0.999999987               0.000306700              -0.000556874               0.999999987               0.000256103              -0.000521622               0.999999987               0.000203390              -0.000484052               0.999999987               0.000149834              -0.000445741               0.999999987               0.000096027              -0.000407377               0.999999987               0.000622224              -0.000911695               0.999999987               0.000507340              -0.000782680               0.999999987               0.000469533              -0.000745962               0.999999987               0.000455268              -0.000741745               0.999999987               0.000446467              -0.000748348               0.999999987               0.000435216              -0.000756296               0.999999987               0.000418273              -0.000760881               0.999999987               0.000393902              -0.000759959               0.999999987               0.000361354              -0.000751939               0.999999987               0.000320521              -0.000736380               0.999999987               0.000272038              -0.000713901               0.999999987               0.000217084              -0.000685786               0.999999987               0.000157207              -0.000653999               0.999999987               0.000094206              -0.000620296               0.999999987               0.000029801              -0.000586236               0.999999987              -0.000034758              -0.000552736               0.999999987              -0.000099080              -0.000519912               0.999999987               0.000557650              -0.001000300               0.999999987               0.000436515              -0.000891008               0.999999987               0.000396463              -0.000851353               0.999999987               0.000382162              -0.000843028               0.999999987               0.000374597              -0.000847594               0.999999987               0.000365797              -0.000856149               0.999999987               0.000352500              -0.000864049               0.999999987               0.000332670              -0.000868780               0.999999987               0.000305315              -0.000868811               0.999999987               0.000270142              -0.000863183               0.999999987               0.000227415              -0.000851505               0.999999987               0.000177454              -0.000834405               0.999999987               0.000121044              -0.000813066               0.999999987               0.000059733              -0.000789114               0.999999987              -0.000004797              -0.000764076               0.999999987              -0.000070647              -0.000739477               0.999999987              -0.000136266              -0.000715908               0.999999987               0.000487409              -0.001081127               0.999999987               0.000368152              -0.000995975               0.999999987               0.000326115              -0.000959526               0.999999987               0.000310814              -0.000949399               0.999999987               0.000303705              -0.000952725               0.999999987               0.000296786              -0.000961839               0.999999987               0.000286464              -0.000972501               0.999999987               0.000270631              -0.000982223               0.999999987               0.000248015              -0.000989292               0.999999987               0.000218292              -0.000992555               0.999999987               0.000181500              -0.000991188               0.999999987               0.000137358              -0.000984895               0.999999987               0.000086043              -0.000974263               0.999999987               0.000028055              -0.000960277               0.999999987              -0.000035153              -0.000944361               0.999999987              -0.000101637              -0.000927896               0.999999987              -0.000169505              -0.000912158               0.999999987               0.000412790              -0.001152219               0.999999987               0.000302226              -0.001094409               0.999999987               0.000260091              -0.001065523               0.999999987               0.000243599              -0.001056766               0.999999987               0.000236389              -0.001060281               0.999999987               0.000230485              -0.001070496               0.999999987               0.000222405              -0.001083832               0.999999987               0.000209842              -0.001097985               0.999999987               0.000191602              -0.001111270               0.999999987               0.000167151              -0.001122414               0.999999987               0.000136255              -0.001130477               0.999999987               0.000098521              -0.001134814               0.999999987               0.000053473              -0.001135198               0.999999987               0.000000839              -0.001131964               0.999999987              -0.000058983              -0.001126037               0.999999987              -0.000124584              -0.001118641               0.999999987              -0.000194502              -0.001110978               0.999999987               0.000334560              -0.001212210               0.999999987               0.000238737              -0.001182157               0.999999987               0.000199173              -0.001164077               0.999999987               0.000182425              -0.001159334               0.999999987               0.000174815              -0.001164869               0.999999987               0.000169463              -0.001177155               0.999999987               0.000162966              -0.001193377               0.999999987               0.000153214              -0.001211654               0.999999987               0.000138921              -0.001230396               0.999999987               0.000119431              -0.001248528               0.999999987               0.000094500              -0.001265054               0.999999987               0.000063547              -0.001279159               0.999999987               0.000025807              -0.001290215               0.999999987              -0.000019756              -0.001298128               0.999999987              -0.000073367              -0.001303101               0.999999987              -0.000134798              -0.001305868               0.999999987              -0.000203727              -0.001307307               0.999999987               0.000253421              -0.001259965               0.999999987               0.000177359              -0.001255098               0.999999987               0.000143651              -0.001249101               0.999999987               0.000128272              -0.001250355               0.999999987               0.000120760              -0.001259229               0.999999987               0.000115968              -0.001274335               0.999999987               0.000110670              -0.001293756               0.999999987               0.000103358              -0.001316012               0.999999987               0.000092585              -0.001339893               0.999999987               0.000077898              -0.001364169               0.999999987               0.000059005              -0.001387997               0.999999987               0.000035255              -0.001410582               0.999999987               0.000005755              -0.001431324               0.999999987              -0.000030655              -0.001449703               0.999999987              -0.000074946              -0.001465479               0.999999987              -0.000127902              -0.001478736               0.999999987              -0.000190384              -0.001489958               0.999999987               0.000170098              -0.001294552               0.999999987               0.000117509              -0.001309707               0.999999987               0.000092895              -0.001314736               0.999999987               0.000080957              -0.001322285               0.999999987               0.000074756              -0.001335118               0.999999987               0.000070788              -0.001353241               0.999999987               0.000066938              -0.001375752               0.999999987               0.000061847              -0.001401531               0.999999987               0.000054725              -0.001429522               0.999999987               0.000044966              -0.001458701               0.999999987               0.000032226              -0.001488340               0.999999987               0.000015970              -0.001517829               0.999999987              -0.000004297              -0.001546389               0.999999987              -0.000029558              -0.001573391               0.999999987              -0.000061322              -0.001598533               0.999999987              -0.000100856              -0.001621438               0.999999987              -0.000149593              -0.001641907               0.999999987               0.000085374              -0.001315456               0.999999987               0.000058544              -0.001343368               0.999999987               0.000045569              -0.001356156               0.999999987               0.000038996              -0.001368451               0.999999987               0.000035411              -0.001384476               0.999999987               0.000033133              -0.001405013               0.999999987               0.000030982              -0.001429667               0.999999987               0.000028427              -0.001457810               0.999999987               0.000024914              -0.001488507               0.999999987               0.000020093              -0.001521027               0.999999987               0.000013591              -0.001554691               0.999999987               0.000005267              -0.001588857               0.999999987              -0.000004850              -0.001622887               0.999999987              -0.000017755              -0.001656112               0.999999987              -0.000034600              -0.001687972               0.999999987              -0.000055996              -0.001717835               0.999999987              -0.000083167              -0.001745080               0.999999987               0.000000000              -0.001322493               0.999999987              -0.000000000              -0.001354689               0.999999987              -0.000000000              -0.001370191               0.999999987               0.000000000              -0.001384339               0.999999987               0.000000000              -0.001401535               0.999999987              -0.000000000              -0.001423015               0.999999987               0.000000000              -0.001448543               0.999999987              -0.000000000              -0.001477408               0.999999987              -0.000000000              -0.001508920               0.999999987              -0.000000000              -0.001542626               0.999999987               0.000000000              -0.001577794               0.999999987              -0.000000000              -0.001613678               0.999999987               0.000000000              -0.001649775               0.999999987               0.000000000              -0.001685420               0.999999987               0.000000000              -0.001720004               0.999999987              -0.000000000              -0.001752665               0.999999987              -0.000000000              -0.001782490               0.999999987               0.000917674              -0.000000000               0.999999987               0.000965441              -0.000000000               0.999999987               0.000984814              -0.000000000               0.999999987               0.000994971              -0.000000000               0.999999987               0.001002529               0.000000000               0.999999987               0.001010153              -0.000000000               0.999999987               0.001018813               0.000000000               0.999999987               0.001028524               0.000000000               0.999999987               0.001039095              -0.000000000               0.999999987               0.001050153              -0.000000000               0.999999987               0.001061267              -0.000000000               0.999999987               0.001072180               0.000000000               0.999999987               0.001082611              -0.000000000               0.999999987               0.001091918               0.000000000               0.999999987               0.001099512               0.000000000               0.999999987               0.001104615              -0.000000000               0.999999987               0.001106383              -0.000000000               0.999999987               0.000912499               0.000126062               0.999999987               0.000955997               0.000099129               0.999999987               0.000972672               0.000086606               0.999999987               0.000981089               0.000081012               0.999999987               0.000987535               0.000078780               0.999999987               0.000994300               0.000078247               0.999999987               0.001002032               0.000078341               0.999999987               0.001010791               0.000078174               0.999999987               0.001020270               0.000077225               0.999999987               0.001030017               0.000075178               0.999999987               0.001039666               0.000071777               0.999999987               0.001048835               0.000066859               0.999999987               0.001057147               0.000059969               0.999999987               0.001064112               0.000050377               0.999999987               0.001069165               0.000037440               0.999999987               0.001071672               0.000020280               0.999999987               0.001070964              -0.000002093               0.999999987               0.000897077               0.000250897               0.999999987               0.000928198               0.000197954               0.999999987               0.000937350               0.000174271               0.999999987               0.000941081               0.000164261               0.999999987               0.000944365               0.000160740               0.999999987               0.000948676               0.000160216               0.999999987               0.000954166               0.000160675               0.999999987               0.000960433               0.000160510               0.999999987               0.000966848               0.000158675               0.999999987               0.000972912               0.000154681               0.999999987               0.000978233               0.000147957               0.999999987               0.000982443               0.000138327               0.999999987               0.000985120               0.000124909               0.999999987               0.000985731               0.000106532               0.999999987               0.000983939               0.000082299               0.999999987               0.000979379               0.000051224               0.999999987               0.000971920               0.000011881               0.999999987               0.000871809               0.000373445               0.999999987               0.000883627               0.000296321               0.999999987               0.000881788               0.000263889               0.999999987               0.000879018               0.000251466               0.999999987               0.000878218               0.000248027               0.999999987               0.000879306               0.000248422               0.999999987               0.000881645               0.000249606               0.999999987               0.000884163               0.000249404               0.999999987               0.000886056               0.000246733               0.999999987               0.000886770               0.000240711               0.999999987               0.000885845               0.000230955               0.999999987               0.000882783               0.000216890               0.999999987               0.000877113               0.000197605               0.999999987               0.000868647               0.000172041               0.999999987               0.000857285               0.000139519               0.999999987               0.000843206               0.000099256               0.999999987               0.000826923               0.000050958               0.999999987               0.000837092               0.000492665               0.999999987               0.000824274               0.000394340               0.999999987               0.000810213               0.000356139               0.999999987               0.000801133               0.000343400               0.999999987               0.000796421               0.000341361               0.999999987               0.000794211               0.000343402               0.999999987               0.000792843               0.000345623               0.999999987               0.000790816               0.000345508               0.999999987               0.000787342               0.000341863               0.999999987               0.000781538               0.000333934               0.999999987               0.000772852               0.000321156               0.999999987               0.000760783               0.000302958               0.999999987               0.000745272               0.000278858               0.999999987               0.000726411               0.000248163               0.999999987               0.000704601               0.000210539               0.999999987               0.000680522               0.000166520               0.999999987               0.000655119               0.000116980               0.999999987               0.000793652               0.000607312               0.999999987               0.000753288               0.000492069               0.999999987               0.000728011               0.000451240               0.999999987               0.000714131               0.000439931               0.999999987               0.000706526               0.000440203               0.999999987               0.000701512               0.000444096               0.999999987               0.000696448               0.000447122               0.999999987               0.000689655               0.000447079               0.999999987               0.000680012               0.000442506               0.999999987               0.000666675               0.000432550               0.999999987               0.000649234               0.000416909               0.999999987               0.000627547               0.000395075               0.999999987               0.000601816               0.000367162               0.999999987               0.000572636               0.000333328               0.999999987               0.000540832               0.000293817               0.999999987               0.000507383               0.000249925               0.999999987               0.000473360               0.000203471               0.999999987               0.000742414               0.000716215               0.999999987               0.000674471               0.000589516               0.999999987               0.000640739               0.000548667               0.999999987               0.000624262               0.000539859               0.999999987               0.000615234               0.000542644               0.999999987               0.000608008               0.000548102               0.999999987               0.000599300               0.000551803               0.999999987               0.000587279               0.000551662               0.999999987               0.000570750               0.000546014               0.999999987               0.000549191               0.000534140               0.999999987               0.000522426               0.000515893               0.999999987               0.000490836               0.000491112               0.999999987               0.000454827               0.000460507               0.999999987               0.000415462               0.000425177               0.999999987               0.000373724               0.000385855               0.999999987               0.000330744               0.000344140               0.999999987               0.000287288               0.000301674               0.999999987               0.000684646               0.000818253               0.999999987               0.000591543               0.000686466               0.999999987               0.000553096               0.000647479               0.999999987               0.000536782               0.000641210               0.999999987               0.000527490               0.000646178               0.999999987               0.000518315               0.000653008               0.999999987               0.000505688               0.000657196               0.999999987               0.000487820               0.000656827               0.999999987               0.000463852               0.000649998               0.999999987               0.000433336               0.000636229               0.999999987               0.000396484               0.000615610               0.999999987               0.000353908               0.000588713               0.999999987               0.000306700               0.000556874               0.999999987               0.000256103               0.000521622               0.999999987               0.000203390               0.000484052               0.999999987               0.000149834               0.000445741               0.999999987               0.000096027               0.000407377               0.999999987               0.000622224               0.000911695               0.999999987               0.000507340               0.000782680               0.999999987               0.000469533               0.000745962               0.999999987               0.000455268               0.000741745               0.999999987               0.000446467               0.000748348               0.999999987               0.000435216               0.000756296               0.999999987               0.000418273               0.000760881               0.999999987               0.000393902               0.000759959               0.999999987               0.000361354               0.000751939               0.999999987               0.000320521               0.000736380               0.999999987               0.000272038               0.000713901               0.999999987               0.000217084               0.000685786               0.999999987               0.000157207               0.000653999               0.999999987               0.000094206               0.000620296               0.999999987               0.000029801               0.000586236               0.999999987              -0.000034758               0.000552736               0.999999987              -0.000099080               0.000519912               0.999999987               0.000557650               0.001000300               0.999999987               0.000436515               0.000891008               0.999999987               0.000396463               0.000851353               0.999999987               0.000382162               0.000843028               0.999999987               0.000374597               0.000847594               0.999999987               0.000365797               0.000856149               0.999999987               0.000352500               0.000864049               0.999999987               0.000332670               0.000868780               0.999999987               0.000305315               0.000868811               0.999999987               0.000270142               0.000863183               0.999999987               0.000227415               0.000851505               0.999999987               0.000177454               0.000834405               0.999999987               0.000121044               0.000813066               0.999999987               0.000059733               0.000789114               0.999999987              -0.000004797               0.000764076               0.999999987              -0.000070647               0.000739477               0.999999987              -0.000136266               0.000715908               0.999999987               0.000487409               0.001081127               0.999999987               0.000368152               0.000995975               0.999999987               0.000326115               0.000959526               0.999999987               0.000310814               0.000949399               0.999999987               0.000303705               0.000952725               0.999999987               0.000296786               0.000961839               0.999999987               0.000286464               0.000972501               0.999999987               0.000270631               0.000982223               0.999999987               0.000248015               0.000989292               0.999999987               0.000218292               0.000992555               0.999999987               0.000181500               0.000991188               0.999999987               0.000137358               0.000984895               0.999999987               0.000086043               0.000974263               0.999999987               0.000028055               0.000960277               0.999999987              -0.000035153               0.000944361               0.999999987              -0.000101637               0.000927896               0.999999987              -0.000169505               0.000912158               0.999999987               0.000412790               0.001152219               0.999999987               0.000302226               0.001094409               0.999999987               0.000260091               0.001065523               0.999999987               0.000243599               0.001056766               0.999999987               0.000236389               0.001060281               0.999999987               0.000230485               0.001070496               0.999999987               0.000222405               0.001083832               0.999999987               0.000209842               0.001097985               0.999999987               0.000191602               0.001111270               0.999999987               0.000167151               0.001122414               0.999999987               0.000136255               0.001130477               0.999999987               0.000098521               0.001134814               0.999999987               0.000053473               0.001135198               0.999999987               0.000000839               0.001131964               0.999999987              -0.000058983               0.001126037               0.999999987              -0.000124584               0.001118641               0.999999987              -0.000194502               0.001110978               0.999999987               0.000334560               0.001212210               0.999999987               0.000238737               0.001182157               0.999999987               0.000199173               0.001164077               0.999999987               0.000182425               0.001159334               0.999999987               0.000174815               0.001164869               0.999999987               0.000169463               0.001177155               0.999999987               0.000162966               0.001193377               0.999999987               0.000153214               0.001211654               0.999999987               0.000138921               0.001230396               0.999999987               0.000119431               0.001248528               0.999999987               0.000094500               0.001265054               0.999999987               0.000063547               0.001279159               0.999999987               0.000025807               0.001290215               0.999999987              -0.000019756               0.001298128               0.999999987              -0.000073367               0.001303101               0.999999987              -0.000134798               0.001305868               0.999999987              -0.000203727               0.001307307               0.999999987               0.000253421               0.001259965               0.999999987               0.000177359               0.001255098               0.999999987               0.000143651               0.001249101               0.999999987               0.000128272               0.001250355               0.999999987               0.000120760               0.001259229               0.999999987               0.000115968               0.001274335               0.999999987               0.000110670               0.001293756               0.999999987               0.000103358               0.001316012               0.999999987               0.000092585               0.001339893               0.999999987               0.000077898               0.001364169               0.999999987               0.000059005               0.001387997               0.999999987               0.000035255               0.001410582               0.999999987               0.000005755               0.001431324               0.999999987              -0.000030655               0.001449703               0.999999987              -0.000074946               0.001465479               0.999999987              -0.000127902               0.001478736               0.999999987              -0.000190384               0.001489958               0.999999987               0.000170098               0.001294552               0.999999987               0.000117509               0.001309707               0.999999987               0.000092895               0.001314736               0.999999987               0.000080957               0.001322285               0.999999987               0.000074756               0.001335118               0.999999987               0.000070788               0.001353241               0.999999987               0.000066938               0.001375752               0.999999987               0.000061847               0.001401531               0.999999987               0.000054725               0.001429522               0.999999987               0.000044966               0.001458701               0.999999987               0.000032226               0.001488340               0.999999987               0.000015970               0.001517829               0.999999987              -0.000004297               0.001546389               0.999999987              -0.000029558               0.001573391               0.999999987              -0.000061322               0.001598533               0.999999987              -0.000100856               0.001621438               0.999999987              -0.000149593               0.001641907               0.999999987               0.000085374               0.001315456               0.999999987               0.000058544               0.001343368               0.999999987               0.000045569               0.001356156               0.999999987               0.000038996               0.001368451               0.999999987               0.000035411               0.001384476               0.999999987               0.000033133               0.001405013               0.999999987               0.000030982               0.001429667               0.999999987               0.000028427               0.001457810               0.999999987               0.000024914               0.001488507               0.999999987               0.000020093               0.001521027               0.999999987               0.000013591               0.001554691               0.999999987               0.000005267               0.001588857               0.999999987              -0.000004850               0.001622887               0.999999987              -0.000017755               0.001656112               0.999999987              -0.000034600               0.001687972               0.999999987              -0.000055996               0.001717835               0.999999987              -0.000083167               0.001745080               0.999999987              -0.000000000               0.001322493               0.999999987              -0.000000000               0.001354689               0.999999987              -0.000000000               0.001370191               0.999999987               0.000000000               0.001384339               0.999999987               0.000000000               0.001401535               0.999999987              -0.000000000               0.001423015               0.999999987               0.000000000               0.001448543               0.999999987              -0.000000000               0.001477408               0.999999987              -0.000000000               0.001508920               0.999999987               0.000000000               0.001542626               0.999999987               0.000000000               0.001577794               0.999999987               0.000000000               0.001613678               0.999999987              -0.000000000               0.001649775               0.999999987              -0.000000000               0.001685420               0.999999987              -0.000000000               0.001720004               0.999999987               0.000000000               0.001752665               0.999999987               0.000000000               0.001782490               0.999999987 </DataArray>
<DataArray type="Float64"                                    Name="defo"                                                      NumberOfComponents=" 3" format="ascii">
             -0.000917674               0.000000000               0.999999987              -0.000965441              -0.000000000               0.999999987              -0.000984814               0.000000000               0.999999987              -0.000994971               0.000000000               0.999999987              -0.001002529               0.000000000               0.999999987              -0.001010153               0.000000000               0.999999987              -0.001018813              -0.000000000               0.999999987              -0.001028524               0.000000000               0.999999987              -0.001039095              -0.000000000               0.999999987              -0.001050153              -0.000000000               0.999999987              -0.001061267               0.000000000               0.999999987              -0.001072180               0.000000000               0.999999987              -0.001082611               0.000000000               0.999999987              -0.001091918              -0.000000000               0.999999987              -0.001099512              -0.000000000               0.999999987              -0.001104615              -0.000000000               0.999999987              -0.001106383              -0.000000000               0.999999987              -0.000912499               0.000126062               0.999999987              -0.000955997               0.000099129               0.999999987              -0.000972672               0.000086606               0.999999987              -0.000981089               0.000081012               0.999999987              -0.000987535               0.000078780               0.999999987              -0.000994300               0.000078247               0.999999987              -0.001002032               0.000078341               0.999999987              -0.001010791               0.000078174               0.999999987              -0.001020270               0.000077225               0.999999987              -0.001030017               0.000075178               0.999999987              -0.001039666               0.000071777               0.999999987              -0.001048835               0.000066859               0.999999987              -0.001057147               0.000059969               0.999999987              -0.001064112               0.000050377               0.999999987              -0.001069165               0.000037440               0.999999987              -0.001071672               0.000020280               0.999999987              -0.001070964              -0.000002093               0.999999987              -0.000897077               0.000250897               0.999999987              -0.000928198               0.000197954               0.999999987              -0.000937350               0.000174271               0.999999987              -0.000941081               0.000164261               0.999999987              -0.000944365               0.000160740               0.999999987              -0.000948676               0.000160216               0.999999987              -0.000954166               0.000160675               0.999999987              -0.000960433               0.000160510               0.999999987              -0.000966848               0.000158675               0.999999987              -0.000972912               0.000154681               0.999999987              -0.000978233               0.000147957               0.999999987              -0.000982443               0.000138327               0.999999987              -0.000985120               0.000124909               0.999999987              -0.000985731               0.000106532               0.999999987              -0.000983939               0.000082299               0.999999987              -0.000979379               0.000051224               0.999999987              -0.000971920               0.000011881               0.999999987              -0.000871809               0.000373445               0.999999987              -0.000883627               0.000296321               0.999999987              -0.000881788               0.000263889               0.999999987              -0.000879018               0.000251466               0.999999987              -0.000878218               0.000248027               0.999999987              -0.000879306               0.000248422               0.999999987              -0.000881645               0.000249606               0.999999987              -0.000884163               0.000249404               0.999999987              -0.000886056               0.000246733               0.999999987              -0.000886770               0.000240711               0.999999987              -0.000885845               0.000230955               0.999999987              -0.000882783               0.000216890               0.999999987              -0.000877113               0.000197605               0.999999987              -0.000868647               0.000172041               0.999999987              -0.000857285               0.000139519               0.999999987              -0.000843206               0.000099256               0.999999987              -0.000826923               0.000050958               0.999999987              -0.000837092               0.000492665               0.999999987              -0.000824274               0.000394340               0.999999987              -0.000810213               0.000356139               0.999999987              -0.000801133               0.000343400               0.999999987              -0.000796421               0.000341361               0.999999987              -0.000794211               0.000343402               0.999999987              -0.000792843               0.000345623               0.999999987              -0.000790816               0.000345508               0.999999987              -0.000787342               0.000341863               0.999999987              -0.000781538               0.000333934               0.999999987              -0.000772852               0.000321156               0.999999987              -0.000760783               0.000302958               0.999999987              -0.000745272               0.000278858               0.999999987              -0.000726411               0.000248163               0.999999987              -0.000704601               0.000210539               0.999999987              -0.000680522               0.000166520               0.999999987              -0.000655119               0.000116980               0.999999987              -0.000793652               0.000607312               0.999999987              -0.000753288               0.000492069               0.999999987              -0.000728011               0.000451240               0.999999987              -0.000714131               0.000439931               0.999999987              -0.000706526               0.000440203               0.999999987              -0.000701512               0.000444096               0.999999987              -0.000696448               0.000447122               0.999999987              -0.000689655               0.000447079               0.999999987              -0.000680012               0.000442506               0.999999987              -0.000666675               0.000432550               0.999999987              -0.000649234               0.000416909               0.999999987              -0.000627547               0.000395075               0.999999987              -0.000601816               0.000367162               0.999999987              -0.000572636               0.000333328               0.999999987              -0.000540832               0.000293817               0.999999987              -0.000507383               0.000249925               0.999999987              -0.000473360               0.000203471               0.999999987              -0.000742414               0.000716215               0.999999987              -0.000674471               0.000589516               0.999999987              -0.000640739               0.000548667               0.999999987              -0.000624262               0.000539859               0.999999987              -0.000615234               0.000542644               0.999999987              -0.000608008               0.000548102               0.999999987              -0.000599300               0.000551803               0.999999987              -0.000587279               0.000551662               0.999999987              -0.000570750               0.000546014               0.999999987              -0.000549191               0.000534140               0.999999987              -0.000522426               0.000515893               0.999999987              -0.000490836               0.000491112               0.999999987              -0.000454827               0.000460507               0.999999987              -0.000415462               0.000425177               0.999999987              -0.000373724               0.000385855               0.999999987              -0.000330744               0.000344140               0.999999987              -0.000287288               0.000301674               0.999999987              -0.000684646               0.000818253               0.999999987              -0.000591543               0.000686466               0.999999987              -0.000553096               0.000647479               0.999999987              -0.000536782               0.000641210               0.999999987              -0.000527490               0.000646178               0.999999987              -0.000518315               0.000653008               0.999999987              -0.000505688               0.000657196               0.999999987              -0.000487820               0.000656827               0.999999987              -0.000463852               0.000649998               0.999999987              -0.000433336               0.000636229               0.999999987              -0.000396484               0.000615610               0.999999987              -0.000353908               0.000588713               0.999999987              -0.000306700               0.000556874               0.999999987              -0.000256103               0.000521622               0.999999987              -0.000203390               0.000484052               0.999999987              -0.000149834               0.000445741               0.999999987              -0.000096027               0.000407377               0.999999987              -0.000622224               0.000911695               0.999999987              -0.000507340               0.000782680               0.999999987              -0.000469533               0.000745962               0.999999987              -0.000455268               0.000741745               0.999999987              -0.000446467               0.000748348               0.999999987              -0.000435216               0.000756296               0.999999987              -0.000418273               0.000760881               0.999999987              -0.000393902               0.000759959               0.999999987              -0.000361354               0.000751939               0.999999987              -0.000320521               0.000736380               0.999999987              -0.000272038               0.000713901               0.999999987              -0.000217084               0.000685786               0.999999987              -0.000157207               0.000653999               0.999999987              -0.000094206               0.000620296               0.999999987              -0.000029801               0.000586236               0.999999987               0.000034758               0.000552736               0.999999987               0.000099080               0.000519912               0.999999987              -0.000557650               0.001000300               0.999999987              -0.000436515               0.000891008               0.999999987              -0.000396463               0.000851353               0.999999987              -0.000382162               0.000843028               0.999999987              -0.000374597               0.000847594               0.999999987              -0.000365797               0.000856149               0.999999987              -0.000352500               0.000864049               0.999999987              -0.000332670               0.000868780               0.999999987              -0.000305315               0.000868811               0.999999987              -0.000270142               0.000863183               0.999999987              -0.000227415               0.000851505               0.999999987              -0.000177454               0.000834405               0.999999987              -0.000121044               0.000813066               0.999999987              -0.000059733               0.000789114               0.999999987               0.000004797               0.000764076               0.999999987               0.000070647               0.000739477               0.999999987               0.000136266               0.000715908               0.999999987              -0.000487409               0.001081127               0.999999987              -0.000368152               0.000995975               0.999999987              -0.000326115               0.000959526               0.999999987              -0.000310814               0.000949399               0.999999987              -0.000303705               0.000952725               0.999999987              -0.000296786               0.000961839               0.999999987              -0.000286464               0.000972501               0.999999987              -0.000270631               0.000982223               0.999999987              -0.000248015               0.000989292               0.999999987              -0.000218292               0.000992555               0.999999987              -0.000181500               0.000991188               0.999999987              -0.000137358               0.000984895               0.999999987              -0.000086043               0.000974263               0.999999987              -0.000028055               0.000960277               0.999999987               0.000035153               0.000944361               0.999999987               0.000101637               0.000927896               0.999999987               0.000169505               0.000912158               0.999999987              -0.000412790               0.001152219               0.999999987              -0.000302226               0.001094409               0.999999987              -0.000260091               0.001065523               0.999999987              -0.000243599               0.001056766               0.999999987              -0.000236389               0.001060281               0.999999987              -0.000230485               0.001070496               0.999999987              -0.000222405               0.001083832               0.999999987              -0.000209842               0.001097985               0.999999987              -0.000191602               0.001111270               0.999999987              -0.000167151               0.001122414               0.999999987              -0.000136255               0.001130477               0.999999987              -0.000098521               0.001134814               0.999999987              -0.000053473               0.001135198               0.999999987              -0.000000839               0.001131964               0.999999987               0.000058983               0.001126037               0.999999987               0.000124584               0.001118641               0.999999987               0.000194502               0.001110978               0.999999987              -0.000334560               0.001212210               0.999999987              -0.000238737               0.001182157               0.999999987              -0.000199173               0.001164077               0.999999987              -0.000182425               0.001159334               0.999999987              -0.000174815               0.001164869               0.999999987              -0.000169463               0.001177155               0.999999987              -0.000162966               0.001193377               0.999999987              -0.000153214               0.001211654               0.999999987              -0.000138921               0.001230396               0.999999987              -0.000119431               0.001248528               0.999999987              -0.000094500               0.001265054               0.999999987              -0.000063547               0.001279159               0.999999987              -0.000025807               0.001290215               0.999999987               0.000019756               0.001298128               0.999999987               0.000073367               0.001303101               0.999999987               0.000134798               0.001305868               0.999999987               0.000203727               0.001307307               0.999999987              -0.000253421               0.001259965               0.999999987              -0.000177359               0.001255098               0.999999987              -0.000143651               0.001249101               0.999999987              -0.000128272               0.001250355               0.999999987              -0.000120760               0.001259229               0.999999987              -0.000115968               0.001274335               0.999999987              -0.000110670               0.001293756               0.999999987              -0.000103358               0.001316012               0.999999987              -0.000092585               0.001339893               0.999999987              -0.000077898               0.001364169               0.999999987              -0.000059005               0.001387997               0.999999987              -0.000035255               0.001410582               0.999999987              -0.000005755               0.001431324               0.999999987               0.000030655               0.001449703               0.999999987               0.000074946               0.001465479               0.999999987               0.000127902               0.001478736               0.999999987               0.000190384               0.001489958               0.999999987              -0.000170098               0.001294552               0.999999987              -0.000117509               0.001309707               0.999999987              -0.000092895               0.001314736               0.999999987              -0.000080957               0.001322285               0.999999987              -0.000074756               0.001335118               0.999999987              -0.000070788               0.001353241               0.999999987              -0.000066938               0.001375752               0.999999987              -0.000061847               0.001401531               0.999999987              -0.000054725               0.001429522               0.999999987              -0.000044966               0.001458701               0.999999987              -0.000032226               0.001488340               0.999999987              -0.000015970               0.001517829               0.999999987               0.000004297               0.001546389               0.999999987               0.000029558               0.001573391               0.999999987               0.000061322               0.001598533               0.999999987               0.000100856               0.001621438               0.999999987               0.000149593               0.001641907               0.999999987              -0.000085374               0.001315456               0.999999987              -0.000058544               0.001343368               0.999999987              -0.000045569               0.001356156               0.999999987              -0.000038996               0.001368451               0.999999987              -0.000035411               0.001384476               0.999999987              -0.000033133               0.001405013               0.999999987              -0.000030982               0.001429667               0.999999987              -0.000028427               0.001457810               0.999999987              -0.000024914               0.001488507               0.999999987              -0.000020093               0.001521027               0.999999987              -0.000013591               0.001554691               0.999999987              -0.000005267               0.001588857               0.999999987               0.000004850               0.001622887               0.999999987               0.000017755               0.001656112               0.999999987               0.000034600               0.001687972               0.999999987               0.000055996               0.001717835               0.999999987               0.000083167               0.001745080               0.999999987              -0.000000000               0.001322493               0.999999987              -0.000000000               0.001354689               0.999999987              -0.000000000               0.001370191               0.999999987               0.000000000               0.001384339               0.999999987               0.000000000               0.001401535               0.999999987              -0.000000000               0.001423015               0.999999987               0.000000000               0.001448543               0.999999987              -0.000000000               0.001477408               0.999999987              -0.000000000               0.001508920               0.999999987               0.000000000               0.001542626               0.999999987               0.000000000               0.001577794               0.999999987               0.000000000               0.001613678               0.999999987              -0.000000000               0.001649775               0.999999987              -0.000000000               0.001685420               0.999999987              -0.000000000               0.001720004               0.999999987               0.000000000               0.001752665               0.999999987               0.000000000               0.001782490               0.999999987              -0.000917674               0.000000000               0.999999987              -0.000965441              -0.000000000               0.999999987              -0.000984814               0.000000000               0.999999987              -0.000994971               0.000000000               0.999999987              -0.001002529               0.000000000               0.999999987              -0.001010153               0.000000000               0.999999987              -0.001018813              -0.000000000               0.999999987              -0.001028524               0.000000000               0.999999987              -0.001039095              -0.000000000               0.999999987              -0.001050153              -0.000000000               0.999999987              -0.001061267               0.000000000               0.999999987              -0.001072180               0.000000000               0.999999987              -0.001082611               0.000000000               0.999999987              -0.001091918              -0.000000000               0.999999987              -0.001099512              -0.000000000               0.999999987              -0.001104615              -0.000000000               0.999999987              -0.001106383              -0.000000000               0.999999987              -0.000912499              -0.000126062               0.999999987              -0.000955997              -0.000099129               0.999999987              -0.000972672              -0.000086606               0.999999987              -0.000981089              -0.000081012               0.999999987              -0.000987535              -0.000078780               0.999999987              -0.000994300              -0.000078247               0.999999987              -0.001002032              -0.000078341               0.999999987              -0.001010791              -0.000078174               0.999999987              -0.001020270              -0.000077225               0.999999987              -0.001030017              -0.000075178               0.999999987              -0.001039666              -0.000071777               0.999999987              -0.001048835              -0.000066859               0.999999987              -0.001057147              -0.000059969               0.999999987              -0.001064112              -0.000050377               0.999999987              -0.001069165              -0.000037440               0.999999987              -0.001071672              -0.000020280               0.999999987              -0.001070964               0.000002093               0.999999987              -0.000897077              -0.000250897               0.999999987              -0.000928198              -0.000197954               0.999999987              -0.000937350              -0.000174271               0.999999987              -0.000941081              -0.000164261               0.999999987              -0.000944365              -0.000160740               0.999999987              -0.000948676              -0.000160216               0.999999987              -0.000954166              -0.000160675               0.999999987              -0.000960433              -0.000160510               0.999999987              -0.000966848              -0.000158675               0.999999987              -0.000972912              -0.000154681               0.999999987              -0.000978233              -0.000147957               0.999999987              -0.000982443              -0.000138327               0.999999987              -0.000985120              -0.000124909               0.999999987              -0.000985731              -0.000106532               0.999999987              -0.000983939              -0.000082299               0.999999987              -0.000979379              -0.000051224               0.999999987              -0.000971920              -0.000011881               0.999999987              -0.000871809              -0.000373445               0.999999987              -0.000883627              -0.000296321               0.999999987              -0.000881788              -0.000263889               0.999999987              -0.000879018              -0.000251466               0.999999987              -0.000878218              -0.000248027               0.999999987              -0.000879306              -0.000248422               0.999999987              -0.000881645              -0.000249606               0.999999987              -0.000884163              -0.000249404               0.999999987              -0.000886056              -0.000246733               0.999999987              -0.000886770              -0.000240711               0.999999987              -0.000885845              -0.000230955               0.999999987              -0.000882783              -0.000216890               0.999999987              -0.000877113              -0.000197605               0.999999987              -0.000868647              -0.000172041               0.999999987              -0.000857285              -0.000139519               0.999999987              -0.000843206              -0.000099256               0.999999987              -0.000826923              -0.000050958               0.999999987              -0.000837092              -0.000492665               0.999999987              -0.000824274              -0.000394340               0.999999987              -0.000810213              -0.000356139               0.999999987              -0.000801133              -0.000343400               0.999999987              -0.000796421              -0.000341361               0.999999987              -0.000794211              -0.000343402               0.999999987              -0.000792843              -0.000345623               0.999999987              -0.000790816              -0.000345508               0.999999987              -0.000787342              -0.000341863               0.999999987              -0.000781538              -0.000333934               0.999999987              -0.000772852              -0.000321156               0.999999987              -0.000760783              -0.000302958               0.999999987              -0.000745272              -0.000278858               0.999999987              -0.000726411              -0.000248163               0.999999987              -0.000704601              -0.000210539               0.999999987              -0.000680522              -0.000166520               0.999999987              -0.000655119              -0.000116980               0.999999987              -0.000793652              -0.000607312               0.999999987              -0.000753288              -0.000492069               0.999999987              -0.000728011              -0.000451240               0.999999987              -0.000714131              -0.000439931               0.999999987              -0.000706526              -0.000440203               0.999999987              -0.000701512              -0.000444096               0.999999987              -0.000696448              -0.000447122               0.999999987              -0.000689655              -0.000447079               0.999999987              -0.000680012              -0.000442506               0.999999987              -0.000666675              -0.000432550               0.999999987              -0.000649234              -0.000416909               0.999999987              -0.000627547              -0.000395075               0.999999987              -0.000601816              -0.000367162               0.999999987              -0.000572636              -0.000333328               0.999999987              -0.000540832              -0.000293817               0.999999987              -0.000507383              -0.000249925               0.999999987              -0.000473360              -0.000203471               0.999999987              -0.000742414              -0.000716215               0.999999987              -0.000674471              -0.000589516               0.999999987              -0.000640739              -0.000548667               0.999999987              -0.000624262              -0.000539859               0.999999987              -0.000615234              -0.000542644               0.999999987              -0.000608008              -0.000548102               0.999999987              -0.000599300              -0.000551803               0.999999987              -0.000587279              -0.000551662               0.999999987              -0.000570750              -0.000546014               0.999999987              -0.000549191              -0.000534140               0.999999987              -0.000522426              -0.000515893               0.999999987              -0.000490836              -0.000491112               0.999999987              -0.000454827              -0.000460507               0.999999987              -0.000415462              -0.000425177               0.999999987              -0.000373724              -0.000385855               0.999999987              -0.000330744              -0.000344140               0.999999987              -0.000287288              -0.000301674               0.999999987              -0.000684646              -0.000818253               0.999999987              -0.000591543              -0.000686466               0.999999987              -0.000553096              -0.000647479               0.999999987              -0.000536782              -0.000641210               0.999999987              -0.000527490              -0.000646178               0.999999987              -0.000518315              -0.000653008               0.999999987              -0.000505688              -0.000657196               0.999999987              -0.000487820              -0.000656827               0.999999987              -0.000463852              -0.000649998               0.999999987              -0.000433336              -0.000636229               0.999999987              -0.000396484              -0.000615610               0.999999987              -0.000353908              -0.000588713               0.999999987              -0.000306700              -0.000556874               0.999999987              -0.000256103              -0.000521622               0.999999987              -0.000203390              -0.000484052               0.999999987              -0.000149834              -0.000445741               0.999999987              -0.000096027              -0.000407377               0.999999987              -0.000622224              -0.000911695               0.999999987              -0.000507340              -0.000782680               0.999999987              -0.000469533              -0.000745962               0.999999987              -0.000455268              -0.000741745               0.999999987              -0.000446467              -0.000748348               0.999999987              -0.000435216              -0.000756296               0.999999987              -0.000418273              -0.000760881               0.999999987              -0.000393902              -0.000759959               0.999999987              -0.000361354              -0.000751939               0.999999987              -0.000320521              -0.000736380               0.999999987              -0.000272038              -0.000713901               0.999999987              -0.000217084              -0.000685786               0.999999987              -0.000157207              -0.000653999               0.999999987              -0.000094206              -0.000620296               0.999999987              -0.000029801              -0.000586236               0.999999987               0.000034758              -0.000552736               0.999999987               0.000099080              -0.000519912               0.999999987              -0.000557650              -0.001000300               0.999999987              -0.000436515              -0.000891008               0.999999987              -0.000396463              -0.000851353               0.999999987              -0.000382162              -0.000843028               0.999999987              -0.000374597              -0.000847594               0.999999987              -0.000365797              -0.000856149               0.999999987              -0.000352500              -0.000864049               0.999999987              -0.000332670              -0.000868780               0.999999987              -0.000305315              -0.000868811               0.999999987              -0.000270142              -0.000863183               0.999999987              -0.000227415              -0.000851505               0.999999987              -0.000177454              -0.000834405               0.999999987              -0.000121044              -0.000813066               0.999999987              -0.000059733              -0.000789114               0.999999987               0.000004797              -0.000764076               0.999999987               0.000070647              -0.000739477               0.999999987               0.000136266              -0.000715908               0.999999987              -0.000487409              -0.001081127               0.999999987              -0.000368152              -0.000995975               0.999999987              -0.000326115              -0.000959526               0.999999987              -0.000310814              -0.000949399               0.999999987              -0.000303705              -0.000952725               0.999999987              -0.000296786              -0.000961839               0.999999987              -0.000286464              -0.000972501               0.999999987              -0.000270631              -0.000982223               0.999999987              -0.000248015              -0.000989292               0.999999987              -0.000218292              -0.000992555               0.999999987              -0.000181500              -0.000991188               0.999999987              -0.000137358              -0.000984895               0.999999987              -0.000086043              -0.000974263               0.999999987              -0.000028055              -0.000960277               0.999999987               0.000035153              -0.000944361               0.999999987               0.000101637              -0.000927896               0.999999987               0.000169505              -0.000912158               0.999999987              -0.000412790              -0.001152219               0.999999987              -0.000302226              -0.001094409               0.999999987              -0.000260091              -0.001065523               0.999999987              -0.000243599              -0.001056766               0.999999987              -0.000236389              -0.001060281               0.999999987              -0.000230485              -0.001070496               0.999999987              -0.000222405              -0.001083832               0.999999987              -0.000209842              -0.001097985               0.999999987              -0.000191602              -0.001111270               0.999999987              -0.000167151              -0.001122414               0.999999987              -0.000136255              -0.001130477               0.999999987              -0.000098521              -0.001134814               0.999999987              -0.000053473              -0.001135198               0.999999987              -0.000000839              -0.001131964               0.999999987               0.000058983              -0.001126037               0.999999987               0.000124584              -0.001118641               0.999999987               0.000194502              -0.001110978               0.999999987              -0.000334560              -0.001212210               0.999999987              -0.000238737              -0.001182157               0.999999987              -0.000199173              -0.001164077               0.999999987              -0.000182425              -0.001159334               0.999999987              -0.000174815              -0.001164869               0.999999987              -0.000169463              -0.001177155               0.999999987              -0.000162966              -0.001193377               0.999999987              -0.000153214              -0.001211654               0.999999987              -0.000138921              -0.001230396               0.999999987              -0.000119431              -0.001248528               0.999999987              -0.000094500              -0.001265054               0.999999987              -0.000063547              -0.001279159               0.999999987              -0.000025807              -0.001290215               0.999999987               0.000019756              -0.001298128               0.999999987               0.000073367              -0.001303101               0.999999987               0.000134798              -0.001305868               0.999999987               0.000203727              -0.001307307               0.999999987              -0.000253421              -0.001259965               0.999999987              -0.000177359              -0.001255098               0.999999987              -0.000143651              -0.001249101               0.999999987              -0.000128272              -0.001250355               0.999999987              -0.000120760              -0.001259229               0.999999987              -0.000115968              -0.001274335               0.999999987              -0.000110670              -0.001293756               0.999999987              -0.000103358              -0.001316012               0.999999987              -0.000092585              -0.001339893               0.999999987              -0.000077898              -0.001364169               0.999999987              -0.000059005              -0.001387997               0.999999987              -0.000035255              -0.001410582               0.999999987              -0.000005755              -0.001431324               0.999999987               0.000030655              -0.001449703               0.999999987               0.000074946              -0.001465479               0.999999987               0.000127902              -0.001478736               0.999999987               0.000190384              -0.001489958               0.999999987              -0.000170098              -0.001294552               0.999999987              -0.000117509              -0.001309707               0.999999987              -0.000092895              -0.001314736               0.999999987              -0.000080957              -0.001322285               0.999999987              -0.000074756              -0.001335118               0.999999987              -0.000070788              -0.001353241               0.999999987              -0.000066938              -0.001375752               0.999999987              -0.000061847              -0.001401531               0.999999987              -0.000054725              -0.001429522               0.999999987              -0.000044966              -0.001458701               0.999999987              -0.000032226              -0.001488340               0.999999987              -0.000015970              -0.001517829               0.999999987               0.000004297              -0.001546389               0.999999987               0.000029558              -0.001573391               0.999999987               0.000061322              -0.001598533               0.999999987               0.000100856              -0.001621438               0.999999987               0.000149593              -0.001641907               0.999999987              -0.000085374              -0.001315456               0.999999987              -0.000058544              -0.001343368               0.999999987              -0.000045569              -0.001356156               0.999999987              -0.000038996              -0.001368451               0.999999987              -0.000035411              -0.001384476               0.999999987              -0.000033133              -0.001405013               0.999999987              -0.000030982              -0.001429667               0.999999987              -0.000028427              -0.001457810               0.999999987              -0.000024914              -0.001488507               0.999999987              -0.000020093              -0.001521027               0.999999987              -0.000013591              -0.001554691               0.999999987              -0.000005267              -0.001588857               0.999999987               0.000004850              -0.001622887               0.999999987               0.000017755              -0.001656112               0.999999987               0.000034600              -0.001687972               0.999999987               0.000055996              -0.001717835               0.999999987               0.000083167              -0.001745080               0.999999987               0.000000000              -0.001322493               0.999999987              -0.000000000              -0.001354689               0.999999987              -0.000000000              -0.001370191               0.999999987               0.000000000              -0.001384339               0.999999987               0.000000000              -0.001401535               0.999999987              -0.000000000              -0.001423015               0.999999987               0.000000000              -0.001448543               0.999999987              -0.000000000              -0.001477408               0.999999987              -0.000000000              -0.001508920               0.999999987              -0.000000000              -0.001542626               0.999999987               0.000000000              -0.001577794               0.999999987              -0.000000000              -0.001613678               0.999999987               0.000000000              -0.001649775               0.999999987               0.000000000              -0.001685420               0.999999987               0.000000000              -0.001720004               0.999999987              -0.000000000              -0.001752665               0.999999987              -0.000000000              -0.001782490               0.999999987               0.000917674              -0.000000000               0.999999987               0.000965441              -0.000000000               0.999999987               0.000984814              -0.000000000               0.999999987               0.000994971              -0.000000000               0.999999987               0.001002529               0.000000000               0.999999987               0.001010153              -0.000000000               0.999999987               0.001018813               0.000000000               0.999999987               0.001028524               0.000000000               0.999999987               0.001039095              -0.000000000               0.999999987               0.001050153              -0.000000000               0.999999987               0.001061267              -0.000000000               0.999999987               0.001072180               0.000000000               0.999999987               0.001082611              -0.000000000               0.999999987               0.001091918               0.000000000               0.999999987               0.001099512               0.000000000               0.999999987               0.001104615              -0.000000000               0.999999987               0.001106383              -0.000000000               0.999999987               0.000912499              -0.000126062               0.999999987               0.000955997              -0.000099129               0.999999987               0.000972672              -0.000086606               0.999999987               0.000981089              -0.000081012               0.999999987               0.000987535              -0.000078780               0.999999987               0.000994300              -0.000078247               0.999999987               0.001002032              -0.000078341               0.999999987               0.001010791              -0.000078174               0.999999987               0.001020270              -0.000077225               0.999999987               0.001030017              -0.000075178               0.999999987               0.001039666              -0.000071777               0.999999987               0.001048835              -0.000066859               0.999999987               0.001057147              -0.000059969               0.999999987               0.001064112              -0.000050377               0.999999987               0.001069165              -0.000037440               0.999999987               0.001071672              -0.000020280               0.999999987               0.001070964               0.000002093               0.999999987               0.000897077              -0.000250897               0.999999987               0.000928198              -0.000197954               0.999999987               0.000937350              -0.000174271               0.999999987               0.000941081              -0.000164261               0.999999987               0.000944365              -0.000160740               0.999999987               0.000948676              -0.000160216               0.999999987               0.000954166              -0.000160675               0.999999987               0.000960433              -0.000160510               0.999999987               0.000966848              -0.000158675               0.999999987               0.000972912              -0.000154681               0.999999987               0.000978233              -0.000147957               0.999999987               0.000982443              -0.000138327               0.999999987               0.000985120              -0.000124909               0.999999987               0.000985731              -0.000106532               0.999999987               0.000983939              -0.000082299               0.999999987               0.000979379              -0.000051224               0.999999987               0.000971920              -0.000011881               0.999999987               0.000871809              -0.000373445               0.999999987               0.000883627              -0.000296321               0.999999987               0.000881788              -0.000263889               0.999999987               0.000879018              -0.000251466               0.999999987               0.000878218              -0.000248027               0.999999987               0.000879306              -0.000248422               0.999999987               0.000881645              -0.000249606               0.999999987               0.000884163              -0.000249404               0.999999987               0.000886056              -0.000246733               0.999999987               0.000886770              -0.000240711               0.999999987               0.000885845              -0.000230955               0.999999987               0.000882783              -0.000216890               0.999999987               0.000877113              -0.000197605               0.999999987               0.000868647              -0.000172041               0.999999987               0.000857285              -0.000139519               0.999999987               0.000843206              -0.000099256               0.999999987               0.000826923              -0.000050958               0.999999987               0.000837092              -0.000492665               0.999999987               0.000824274              -0.000394340               0.999999987               0.000810213              -0.000356139               0.999999987               0.000801133              -0.000343400               0.999999987               0.000796421              -0.000341361               0.999999987               0.000794211              -0.000343402               0.999999987               0.000792843              -0.000345623               0.999999987               0.000790816              -0.000345508               0.999999987               0.000787342              -0.000341863               0.999999987               0.000781538              -0.000333934               0.999999987               0.000772852              -0.000321156               0.999999987               0.000760783              -0.000302958               0.999999987               0.000745272              -0.000278858               0.999999987               0.000726411              -0.000248163               0.999999987               0.000704601              -0.000210539               0.999999987               0.000680522              -0.000166520               0.999999987               0.000655119              -0.000116980               0.999999987               0.000793652              -0.000607312               0.999999987               0.000753288              -0.000492069               0.999999987               0.000728011              -0.000451240               0.999999987               0.000714131              -0.000439931               0.999999987               0.000706526              -0.000440203               0.999999987               0.000701512              -0.000444096               0.999999987               0.000696448              -0.000447122               0.999999987               0.000689655              -0.000447079               0.999999987               0.000680012              -0.000442506               0.999999987               0.000666675              -0.000432550               0.999999987               0.000649234              -0.000416909               0.999999987               0.000627547              -0.000395075               0.999999987               0.000601816              -0.000367162               0.999999987               0.000572636              -0.000333328               0.999999987               0.000540832              -0.000293817               0.999999987               0.000507383              -0.000249925               0.999999987               0.000473360              -0.000203471               0.999999987               0.000742414              -0.000716215               0.999999987               0.000674471              -0.000589516               0.999999987               0.000640739              -0.000548667               0.999999987               0.000624262              -0.000539859               0.999999987               0.000615234              -0.000542644               0.999999987               0.000608008              -0.000548102               0.999999987               0.000599300              -0.000551803               0.999999987               0.000587279              -0.000551662               0.999999987               0.000570750              -0.000546014               0.999999987               0.000549191              -0.000534140               0.999999987               0.000522426              -0.000515893               0.999999987               0.000490836              -0.000491112               0.999999987               0.000454827              -0.000460507               0.999999987               0.000415462              -0.000425177               0.999999987               0.000373724              -0.000385855               0.999999987               0.000330744              -0.000344140               0.999999987               0.000287288              -0.000301674               0.999999987               0.000684646              -0.000818253               0.999999987               0.000591543              -0.000686466               0.999999987               0.000553096              -0.000647479               0.999999987               0.000536782              -0.000641210               0.999999987               0.000527490              -0.000646178               0.999999987               0.000518315              -0.000653008               0.999999987               0.000505688              -0.000657196               0.999999987               0.000487820              -0.000656827               0.999999987               0.000463852              -0.000649998               0.999999987               0.000433336              -0.000636229               0.999999987               0.000396484              -0.000615610               0.999999987               0.000353908              -0.000588713               0.999999987               0.000306700              -0.000556874               0.999999987               0.000256103              -0.000521622               0.999999987               0.000203390              -0.000484052               0.999999987               0.000149834              -0.000445741               0.999999987               0.000096027              -0.000407377               0.999999987               0.000622224              -0.000911695               0.999999987               0.000507340              -0.000782680               0.999999987               0.000469533              -0.000745962               0.999999987               0.000455268              -0.000741745               0.999999987               0.000446467              -0.000748348               0.999999987               0.000435216              -0.000756296               0.999999987               0.000418273              -0.000760881               0.999999987               0.000393902              -0.000759959               0.999999987               0.000361354              -0.000751939               0.999999987               0.000320521              -0.000736380               0.999999987               0.000272038              -0.000713901               0.999999987               0.000217084              -0.000685786               0.999999987               0.000157207              -0.000653999               0.999999987               0.000094206              -0.000620296               0.999999987               0.000029801              -0.000586236               0.999999987              -0.000034758              -0.000552736               0.999999987              -0.000099080              -0.000519912               0.999999987               0.000557650              -0.001000300               0.999999987               0.000436515              -0.000891008               0.999999987               0.000396463              -0.000851353               0.999999987               0.000382162              -0.000843028               0.999999987               0.000374597              -0.000847594               0.999999987               0.000365797              -0.000856149               0.999999987               0.000352500              -0.000864049               0.999999987               0.000332670              -0.000868780               0.999999987               0.000305315              -0.000868811               0.999999987               0.000270142              -0.000863183               0.999999987               0.000227415              -0.000851505               0.999999987               0.000177454              -0.000834405               0.999999987               0.000121044              -0.000813066               0.999999987               0.000059733              -0.000789114               0.999999987              -0.000004797              -0.000764076               0.999999987              -0.000070647              -0.000739477               0.999999987              -0.000136266              -0.000715908               0.999999987               0.000487409              -0.001081127               0.999999987               0.000368152              -0.000995975               0.999999987               0.000326115              -0.000959526               0.999999987               0.000310814              -0.000949399               0.999999987               0.000303705              -0.000952725               0.999999987               0.000296786              -0.000961839               0.999999987               0.000286464              -0.000972501               0.999999987               0.000270631              -0.000982223               0.999999987               0.000248015              -0.000989292               0.999999987               0.000218292              -0.000992555               0.999999987               0.000181500              -0.000991188               0.999999987               0.000137358              -0.000984895               0.999999987               0.000086043              -0.000974263               0.999999987               0.000028055              -0.000960277               0.999999987              -0.000035153              -0.000944361               0.999999987              -0.000101637              -0.000927896               0.999999987              -0.000169505              -0.000912158               0.999999987               0.000412790              -0.001152219               0.999999987               0.000302226              -0.001094409               0.999999987               0.000260091              -0.001065523               0.999999987               0.000243599              -0.001056766               0.999999987               0.000236389              -0.001060281               0.999999987               0.000230485              -0.001070496               0.999999987               0.000222405              -0.001083832               0.999999987               0.000209842              -0.001097985               0.999999987               0.000191602              -0.001111270               0.999999987               0.000167151              -0.001122414               0.999999987               0.000136255              -0.001130477               0.999999987               0.000098521              -0.001134814               0.999999987               0.000053473              -0.001135198               0.999999987               0.000000839              -0.001131964               0.999999987              -0.000058983              -0.001126037               0.999999987              -0.000124584              -0.001118641               0.999999987              -0.000194502              -0.001110978               0.999999987               0.000334560              -0.001212210               0.999999987               0.000238737              -0.001182157               0.999999987               0.000199173              -0.001164077               0.999999987               0.000182425              -0.001159334               0.999999987               0.000174815              -0.001164869               0.999999987               0.000169463              -0.001177155               0.999999987               0.000162966              -0.001193377               0.999999987               0.000153214              -0.001211654               0.999999987               0.000138921              -0.001230396               0.999999987               0.000119431              -0.001248528               0.999999987               0.000094500              -0.001265054               0.999999987               0.000063547              -0.001279159               0.999999987               0.000025807              -0.001290215               0.999999987              -0.000019756              -0.001298128               0.999999987              -0.000073367              -0.001303101               0.999999987              -0.000134798              -0.001305868               0.999999987              -0.000203727              -0.001307307               0.999999987               0.000253421              -0.001259965               0.999999987               0.000177359              -0.001255098               0.999999987               0.000143651              -0.001249101               0.999999987               0.000128272              -0.001250355               0.999999987               0.000120760              -0.001259229               0.999999987               0.000115968              -0.001274335               0.999999987               0.000110670              -0.001293756               0.999999987               0.000103358              -0.001316012               0.999999987               0.000092585              -0.001339893               0.999999987               0.000077898              -0.001364169               0.999999987               0.000059005              -0.001387997               0.999999987               0.000035255              -0.001410582               0.999999987               0.000005755              -0.001431324               0.999999987              -0.000030655              -0.001449703               0.999999987              -0.000074946              -0.001465479               0.999999987              -0.000127902              -0.001478736               0.999999987              -0.000190384              -0.001489958               0.999999987               0.000170098              -0.001294552               0.999999987               0.000117509              -0.001309707               0.999999987               0.000092895              -0.001314736               0.999999987               0.000080957              -0.001322285               0.999999987               0.000074756              -0.001335118               0.999999987               0.000070788              -0.001353241               0.999999987               0.000066938              -0.001375752               0.999999987               0.000061847              -0.001401531               0.999999987               0.000054725              -0.001429522               0.999999987               0.000044966              -0.001458701               0.999999987               0.000032226              -0.001488340               0.999999987               0.000015970              -0.001517829               0.999999987              -0.000004297              -0.001546389               0.999999987              -0.000029558              -0.001573391               0.999999987              -0.000061322              -0.001598533               0.999999987              -0.000100856              -0.001621438               0.999999987              -0.000149593              -0.001641907               0.999999987               0.000085374              -0.001315456               0.999999987               0.000058544              -0.001343368               0.999999987               0.000045569              -0.001356156               0.999999987               0.000038996              -0.001368451               0.999999987               0.000035411              -0.001384476               0.999999987               0.000033133              -0.001405013               0.999999987               0.000030982              -0.001429667               0.999999987               0.000028427              -0.001457810               0.999999987               0.000024914              -0.001488507               0.999999987               0.000020093              -0.001521027               0.999999987               0.000013591              -0.001554691               0.999999987               0.000005267              -0.001588857               0.999999987              -0.000004850              -0.001622887               0.999999987              -0.000017755              -0.001656112               0.999999987              -0.000034600              -0.001687972               0.999999987              -0.000055996              -0.001717835               0.999999987              -0.000083167              -0.001745080               0.999999987               0.000000000              -0.001322493               0.999999987              -0.000000000              -0.001354689               0.999999987              -0.000000000              -0.001370191               0.999999987               0.000000000              -0.001384339               0.999999987               0.000000000              -0.001401535               0.999999987              -0.000000000              -0.001423015               0.999999987               0.000000000              -0.001448543               0.999999987              -0.000000000              -0.001477408               0.999999987              -0.000000000              -0.001508920               0.999999987              -0.000000000              -0.001542626               0.999999987               0.000000000              -0.001577794               0.999999987              -0.000000000              -0.001613678               0.999999987               0.000000000              -0.001649775               0.999999987               0.000000000              -0.001685420               0.999999987               0.000000000              -0.001720004               0.999999987              -0.000000000              -0.001752665               0.999999987              -0.000000000              -0.001782490               0.999999987               0.000917674              -0.000000000               0.999999987               0.000965441              -0.000000000               0.999999987               0.000984814              -0.000000000               0.999999987               0.000994971              -0.000000000               0.999999987               0.001002529               0.000000000               0.999999987               0.001010153              -0.000000000               0.999999987               0.001018813               0.000000000               0.999999987               0.001028524               0.000000000               0.999999987               0.001039095              -0.000000000               0.999999987               0.001050153              -0.000000000               0.999999987               0.001061267              -0.000000000               0.999999987               0.001072180               0.000000000               0.999999987               0.001082611              -0.000000000               0.999999987               0.001091918               0.000000000               0.999999987               0.001099512               0.000000000               0.999999987               0.001104615              -0.000000000               0.999999987               0.001106383              -0.000000000               0.999999987               0.000912499               0.000126062               0.999999987               0.000955997               0.000099129               0.999999987               0.000972672               0.000086606               0.999999987               0.000981089               0.000081012               0.999999987               0.000987535               0.000078780               0.999999987               0.000994300               0.000078247               0.999999987               0.001002032               0.000078341               0.999999987               0.001010791               0.000078174               0.999999987               0.001020270               0.000077225               0.999999987               0.001030017               0.000075178               0.999999987               0.001039666               0.000071777               0.999999987               0.001048835               0.000066859               0.999999987               0.001057147               0.000059969               0.999999987               0.001064112               0.000050377               0.999999987               0.001069165               0.000037440               0.999999987               0.001071672               0.000020280               0.999999987               0.001070964              -0.000002093               0.999999987               0.000897077               0.000250897               0.999999987               0.000928198               0.000197954               0.999999987               0.000937350               0.000174271               0.999999987               0.000941081               0.000164261               0.999999987               0.000944365               0.000160740               0.999999987               0.000948676               0.000160216               0.999999987               0.000954166               0.000160675               0.999999987               0.000960433               0.000160510               0.999999987               0.000966848               0.000158675               0.999999987               0.000972912               0.000154681               0.999999987               0.000978233               0.000147957               0.999999987               0.000982443               0.000138327               0.999999987               0.000985120               0.000124909               0.999999987               0.000985731               0.000106532               0.999999987               0.000983939               0.000082299               0.999999987               0.000979379               0.000051224               0.999999987               0.000971920               0.000011881               0.999999987               0.000871809               0.000373445               0.999999987               0.000883627               0.000296321               0.999999987               0.000881788               0.000263889               0.999999987               0.000879018               0.000251466               0.999999987               0.000878218               0.000248027               0.999999987               0.000879306               0.000248422               0.999999987               0.000881645               0.000249606               0.999999987               0.000884163               0.000249404               0.999999987               0.000886056               0.000246733               0.999999987               0.000886770               0.000240711               0.999999987               0.000885845               0.000230955               0.999999987               0.000882783               0.000216890               0.999999987               0.000877113               0.000197605               0.999999987               0.000868647               0.000172041               0.999999987               0.000857285               0.000139519               0.999999987               0.000843206               0.000099256               0.999999987               0.000826923               0.000050958               0.999999987               0.000837092               0.000492665               0.999999987               0.000824274               0.000394340               0.999999987               0.000810213               0.000356139               0.999999987               0.000801133               0.000343400               0.999999987               0.000796421               0.000341361               0.999999987               0.000794211               0.000343402               0.999999987               0.000792843               0.000345623               0.999999987               0.000790816               0.000345508               0.999999987               0.000787342               0.000341863               0.999999987               0.000781538               0.000333934               0.999999987               0.000772852               0.000321156               0.999999987               0.000760783               0.000302958               0.999999987               0.000745272               0.000278858               0.999999987               0.000726411               0.000248163               0.999999987               0.000704601               0.000210539               0.999999987               0.000680522               0.000166520               0.999999987               0.000655119               0.000116980               0.999999987               0.000793652               0.000607312               0.999999987               0.000753288               0.000492069               0.999999987               0.000728011               0.000451240               0.999999987               0.000714131               0.000439931               0.999999987               0.000706526               0.000440203               0.999999987               0.000701512               0.000444096               0.999999987               0.000696448               0.000447122               0.999999987               0.000689655               0.000447079               0.999999987               0.000680012               0.000442506               0.999999987               0.000666675               0.000432550               0.999999987               0.000649234               0.000416909               0.999999987               0.000627547               0.000395075               0.999999987               0.000601816               0.000367162               0.999999987               0.000572636               0.000333328               0.999999987               0.000540832               0.000293817               0.999999987               0.000507383               0.000249925               0.999999987               0.000473360               0.000203471               0.999999987               0.000742414               0.000716215               0.999999987               0.000674471               0.000589516               0.999999987               0.000640739               0.000548667               0.999999987               0.000624262               0.000539859               0.999999987               0.000615234               0.000542644               0.999999987               0.000608008               0.000548102               0.999999987               0.000599300               0.000551803               0.999999987               0.000587279               0.000551662               0.999999987               0.000570750               0.000546014               0.999999987               0.000549191               0.000534140               0.999999987               0.000522426               0.000515893               0.999999987               0.000490836               0.000491112               0.999999987               0.000454827               0.000460507               0.999999987               0.000415462               0.000425177               0.999999987               0.000373724               0.000385855               0.999999987               0.000330744               0.000344140               0.999999987               0.000287288               0.000301674               0.999999987               0.000684646               0.000818253               0.999999987               0.000591543               0.000686466               0.999999987               0.000553096               0.000647479               0.999999987               0.000536782               0.000641210               0.999999987               0.000527490               0.000646178               0.999999987               0.000518315               0.000653008               0.999999987               0.000505688               0.000657196               0.999999987               0.000487820               0.000656827               0.999999987               0.000463852               0.000649998               0.999999987               0.000433336               0.000636229               0.999999987               0.000396484               0.000615610               0.999999987               0.000353908               0.000588713               0.999999987               0.000306700               0.000556874               0.999999987               0.000256103               0.000521622               0.999999987               0.000203390               0.000484052               0.999999987               0.000149834               0.000445741               0.999999987               0.000096027               0.000407377               0.999999987               0.000622224               0.000911695               0.999999987               0.000507340               0.000782680               0.999999987               0.000469533               0.000745962               0.999999987               0.000455268               0.000741745               0.999999987               0.000446467               0.000748348               0.999999987               0.000435216               0.000756296               0.999999987               0.000418273               0.000760881               0.999999987               0.000393902               0.000759959               0.999999987               0.000361354               0.000751939               0.999999987               0.000320521               0.000736380               0.999999987               0.000272038               0.000713901               0.999999987               0.000217084               0.000685786               0.999999987               0.000157207               0.000653999               0.999999987               0.000094206               0.000620296               0.999999987               0.000029801               0.000586236               0.999999987              -0.000034758               0.000552736               0.999999987              -0.000099080               0.000519912               0.999999987               0.000557650               0.001000300               0.999999987               0.000436515               0.000891008               0.999999987               0.000396463               0.000851353               0.999999987               0.000382162               0.000843028               0.999999987               0.000374597               0.000847594               0.999999987               0.000365797               0.000856149               0.999999987               0.000352500               0.000864049               0.999999987               0.000332670               0.000868780               0.999999987               0.000305315               0.000868811               0.999999987               0.000270142               0.000863183               0.999999987               0.000227415               0.000851505               0.999999987               0.000177454               0.000834405               0.999999987               0.000121044               0.000813066               0.999999987               0.000059733               0.000789114               0.999999987              -0.000004797               0.000764076               0.999999987              -0.000070647               0.000739477               0.999999987              -0.000136266               0.000715908               0.999999987               0.000487409               0.001081127               0.999999987               0.000368152               0.000995975               0.999999987               0.000326115               0.000959526               0.999999987               0.000310814               0.000949399               0.999999987               0.000303705               0.000952725               0.999999987               0.000296786               0.000961839               0.999999987               0.000286464               0.000972501               0.999999987               0.000270631               0.000982223               0.999999987               0.000248015               0.000989292               0.999999987               0.000218292               0.000992555               0.999999987               0.000181500               0.000991188               0.999999987               0.000137358               0.000984895               0.999999987               0.000086043               0.000974263               0.999999987               0.000028055               0.000960277               0.999999987              -0.000035153               0.000944361               0.999999987              -0.000101637               0.000927896               0.999999987              -0.000169505               0.000912158               0.999999987               0.000412790               0.001152219               0.999999987               0.000302226               0.001094409               0.999999987               0.000260091               0.001065523               0.999999987               0.000243599               0.001056766               0.999999987               0.000236389               0.001060281               0.999999987               0.000230485               0.001070496               0.999999987               0.000222405               0.001083832               0.999999987               0.000209842               0.001097985               0.999999987               0.000191602               0.001111270               0.999999987               0.000167151               0.001122414               0.999999987               0.000136255               0.001130477               0.999999987               0.000098521               0.001134814               0.999999987               0.000053473               0.001135198               0.999999987               0.000000839               0.001131964               0.999999987              -0.000058983               0.001126037               0.999999987              -0.000124584               0.001118641               0.999999987              -0.000194502               0.001110978               0.999999987               0.000334560               0.001212210               0.999999987               0.000238737               0.001182157               0.999999987               0.000199173               0.001164077               0.999999987               0.000182425               0.001159334               0.999999987               0.000174815               0.001164869               0.999999987               0.000169463               0.001177155               0.999999987               0.000162966               0.001193377               0.999999987               0.000153214               0.001211654               0.999999987               0.000138921               0.001230396               0.999999987               0.000119431               0.001248528               0.999999987               0.000094500               0.001265054               0.999999987               0.000063547               0.001279159               0.999999987               0.000025807               0.001290215               0.999999987              -0.000019756               0.001298128               0.999999987              -0.000073367               0.001303101               0.999999987              -0.000134798               0.001305868               0.999999987              -0.000203727               0.001307307               0.999999987               0.000253421               0.001259965               0.999999987               0.000177359               0.001255098               0.999999987               0.000143651               0.001249101               0.999999987               0.000128272               0.001250355               0.999999987               0.000120760               0.001259229               0.999999987               0.000115968               0.001274335               0.999999987               0.000110670               0.001293756               0.999999987               0.000103358               0.001316012               0.999999987               0.000092585               0.001339893               0.999999987               0.000077898               0.001364169               0.999999987               0.000059005               0.001387997               0.999999987               0.000035255               0.001410582               0.999999987               0.000005755               0.001431324               0.999999987              -0.000030655               0.001449703               0.999999987              -0.000074946               0.001465479               0.999999987              -0.000127902               0.001478736               0.999999987              -0.000190384               0.001489958               0.999999987               0.000170098               0.001294552               0.999999987               0.000117509               0.001309707               0.999999987               0.000092895               0.001314736               0.999999987               0.000080957               0.001322285               0.999999987               0.000074756               0.001335118               0.999999987               0.000070788               0.001353241               0.999999987               0.000066938               0.001375752               0.999999987               0.000061847               0.001401531               0.999999987               0.000054725               0.001429522               0.999999987               0.000044966               0.001458701               0.999999987               0.000032226               0.001488340               0.999999987               0.000015970               0.001517829               0.999999987              -0.000004297               0.001546389               0.999999987              -0.000029558               0.001573391               0.999999987              -0.000061322               0.001598533               0.999999987              -0.000100856               0.001621438               0.999999987              -0.000149593               0.001641907               0.999999987               0.000085374               0.001315456               0.999999987               0.000058544               0.001343368               0.999999987               0.000045569               0.001356156               0.999999987               0.000038996               0.001368451               0.999999987               0.000035411               0.001384476               0.999999987               0.000033133               0.001405013               0.999999987               0.000030982               0.001429667               0.999999987               0.000028427               0.001457810               0.999999987               0.000024914               0.001488507               0.999999987               0.000020093               0.001521027               0.999999987               0.000013591               0.001554691               0.999999987               0.000005267               0.001588857               0.999999987              -0.000004850               0.001622887               0.999999987              -0.000017755               0.001656112               0.999999987              -0.000034600               0.001687972               0.999999987              -0.000055996               0.001717835               0.999999987              -0.000083167               0.001745080               0.999999987              -0.000000000               0.001322493               0.999999987              -0.000000000               0.001354689               0.999999987              -0.000000000               0.001370191               0.999999987               0.000000000               0.001384339               0.999999987               0.000000000               0.001401535               0.999999987              -0.000000000               0.001423015               0.999999987               0.000000000               0.001448543               0.999999987              -0.000000000               0.001477408               0.999999987              -0.000000000               0.001508920               0.999999987               0.000000000               0.001542626               0.999999987               0.000000000               0.001577794               0.999999987               0.000000000               0.001613678               0.999999987              -0.000000000               0.001649775               0.999999987              -0.000000000               0.001685420               0.999999987              -0.000000000               0.001720004               0.999999987               0.000000000               0.001752665               0.999999987               0.000000000               0.001782490               0.999999987 </DataArray>
<DataArray type="Float64"                                    Name="stress"                                                      NumberOfComponents="10" format="ascii">
              0.002180713               0.022832336               0.000000000              -0.002036270               0.008289459               0.006253190               0.000000000               0.000000000               0.000000000               0.000000000               0.002084640               0.017426184               0.000000000              -0.001396530               0.006274180               0.004877650               0.000000000               0.000000000               0.000000000               0.000000000               0.002672882               0.013041702               0.000000000              -0.000627881               0.004556484               0.003928604               0.000000000               0.000000000               0.000000000               0.000000000               0.002480657               0.010563105              -0.000000000              -0.000390141               0.003651047               0.003260906               0.000000000               0.000000000               0.000000000               0.000000000               0.002081331               0.008985661               0.000000000              -0.000342708               0.003109426               0.002766719               0.000000000               0.000000000               0.000000000               0.000000000               0.001645905               0.007876230               0.000000000              -0.000367314               0.002747822               0.002380508               0.000000000               0.000000000               0.000000000               0.000000000               0.001244713               0.007021677               0.000000000              -0.000410941               0.002477516               0.002066575               0.000000000               0.000000000               0.000000000               0.000000000               0.000898532               0.006298178              -0.000000000              -0.000450322               0.002249479               0.001799157               0.000000000               0.000000000               0.000000000               0.000000000               0.000610194               0.005640525              -0.000000000              -0.000476242               0.002038903               0.001562662               0.000000000               0.000000000               0.000000000               0.000000000               0.000378937               0.005015846               0.000000000              -0.000484878               0.001833558               0.001348680               0.000000000               0.000000000               0.000000000               0.000000000               0.000191396               0.004401538               0.000000000              -0.000478418               0.001626637               0.001148220               0.000000000               0.000000000               0.000000000               0.000000000               0.000036916               0.003782021              -0.000000000              -0.000458908               0.001413630               0.000954722               0.000000000               0.000000000               0.000000000               0.000000000              -0.000072887               0.003140114              -0.000000000              -0.000419846               0.001186643               0.000766797               0.000000000               0.000000000               0.000000000               0.000000000              -0.000130771               0.002451235              -0.000000000              -0.000355443               0.000935551               0.000580108               0.000000000               0.000000000               0.000000000               0.000000000              -0.000135521               0.001693427              -0.000000000              -0.000262498               0.000651969               0.000389471               0.000000000               0.000000000               0.000000000               0.000000000              -0.000082896               0.000843169              -0.000000000              -0.000136482               0.000326547               0.000190065               0.000000000               0.000000000               0.000000000               0.000000000              -0.000111758               0.000195279               0.000000000              -0.000066319               0.000087199               0.000020879               0.000000000               0.000000000               0.000000000               0.000000000               0.002234540               0.022325299              -0.001485438              -0.001952706               0.008092594               0.006139888               0.000000000               0.000000000               0.000000000               0.000000000               0.002008423               0.017109342              -0.000635003              -0.001385506               0.006164892               0.004779386               0.000000000               0.000000000               0.000000000               0.000000000               0.002458937               0.012922346               0.000194870              -0.000693190               0.004538469               0.003845279               0.000000000               0.000000000               0.000000000               0.000000000               0.002215033               0.010547163               0.000525013              -0.000487757               0.003678272               0.003190515               0.000000000               0.000000000               0.000000000               0.000000000               0.001806910               0.009025269               0.000647033              -0.000450567               0.003158582               0.002708015               0.000000000               0.000000000               0.000000000               0.000000000               0.001388853               0.007942602               0.000680092              -0.000472004               0.002804842               0.002332838               0.000000000               0.000000000               0.000000000               0.000000000               0.001013817               0.007098176               0.000669407              -0.000507090               0.002535065               0.002027975               0.000000000               0.000000000               0.000000000               0.000000000               0.000696091               0.006378079               0.000637574              -0.000536225               0.002304747               0.001768522               0.000000000               0.000000000               0.000000000               0.000000000               0.000438790               0.005722008               0.000601618              -0.000550704               0.002090885               0.001540181               0.000000000               0.000000000               0.000000000               0.000000000               0.000234491               0.005098741               0.000566550              -0.000549407               0.001882699               0.001333292               0.000000000               0.000000000               0.000000000               0.000000000               0.000072119               0.004486803               0.000533787              -0.000533805               0.001673521               0.001139716               0.000000000               0.000000000               0.000000000               0.000000000              -0.000051851               0.003875433               0.000498296              -0.000503872               0.001459755               0.000955883               0.000000000               0.000000000               0.000000000               0.000000000              -0.000133288               0.003246612               0.000448359              -0.000455809               0.001234129               0.000778321               0.000000000               0.000000000               0.000000000               0.000000000              -0.000168853               0.002580287               0.000379877              -0.000385855               0.000988705               0.000602850               0.000000000               0.000000000               0.000000000               0.000000000              -0.000156000               0.001863662               0.000288387              -0.000291457               0.000718367               0.000426910               0.000000000               0.000000000               0.000000000               0.000000000              -0.000092579               0.001084708               0.000163188              -0.000170305               0.000418334               0.000248029               0.000000000               0.000000000               0.000000000               0.000000000              -0.000110985               0.000504271               0.000102830              -0.000104653               0.000202973               0.000098320               0.000000000               0.000000000               0.000000000               0.000000000               0.002353290               0.020887150              -0.002738739              -0.001728407               0.007538449               0.005810042               0.000000000               0.000000000               0.000000000               0.000000000               0.001771795               0.016215551              -0.001166036              -0.001362518               0.005859302               0.004496784               0.000000000               0.000000000               0.000000000               0.000000000               0.001845020               0.012585725               0.000357179              -0.000881331               0.004488977               0.003607646               0.000000000               0.000000000               0.000000000               0.000000000               0.001474484               0.010495580               0.000941826              -0.000759014               0.003751496               0.002992482               0.000000000               0.000000000               0.000000000               0.000000000               0.001057191               0.009120286               0.001145715              -0.000743588               0.003287927               0.002544340               0.000000000               0.000000000               0.000000000               0.000000000               0.000684526               0.008106829               0.001191434              -0.000756655               0.002954467               0.002197812               0.000000000               0.000000000               0.000000000               0.000000000               0.000381018               0.007285736               0.001163045              -0.000767834               0.002684499               0.001916665               0.000000000               0.000000000               0.000000000               0.000000000               0.000150320               0.006570474               0.001102377              -0.000764938               0.002445115               0.001680177               0.000000000               0.000000000               0.000000000               0.000000000              -0.000018042               0.005917880               0.001035298              -0.000746499               0.002221440               0.001474941               0.000000000               0.000000000               0.000000000               0.000000000              -0.000141733               0.005298510               0.000969122              -0.000715462               0.002004639               0.001289177               0.000000000               0.000000000               0.000000000               0.000000000              -0.000228157               0.004699628               0.000906778              -0.000673011               0.001790864               0.001117853               0.000000000               0.000000000               0.000000000               0.000000000              -0.000277734               0.004109184               0.000839045              -0.000617797               0.001575647               0.000957849               0.000000000               0.000000000               0.000000000               0.000000000              -0.000286821               0.003517726               0.000745885              -0.000547273               0.001354988               0.000807715               0.000000000               0.000000000               0.000000000               0.000000000              -0.000258429               0.002920195               0.000622567              -0.000461934               0.001127367               0.000665432               0.000000000               0.000000000               0.000000000               0.000000000              -0.000195981               0.002318038               0.000465595              -0.000363247               0.000893754               0.000530507               0.000000000               0.000000000               0.000000000               0.000000000              -0.000105145               0.001716523               0.000259111              -0.000253994               0.000656833               0.000402839               0.000000000               0.000000000               0.000000000               0.000000000              -0.000097615               0.001302676               0.000156844              -0.000199440               0.000500701               0.000301261               0.000000000               0.000000000               0.000000000               0.000000000               0.002415501               0.018722332              -0.003581352              -0.001434477               0.006718874               0.005284396               0.000000000               0.000000000               0.000000000               0.000000000               0.001348722               0.014891465              -0.001515914              -0.001355660               0.005415658               0.004059998               0.000000000               0.000000000               0.000000000               0.000000000               0.000910858               0.012090433               0.000455423              -0.001169730               0.004420014               0.003250284               0.000000000               0.000000000               0.000000000               0.000000000               0.000400179               0.010394353               0.001163533              -0.001149225               0.003847824               0.002698600               0.000000000               0.000000000               0.000000000               0.000000000               0.000002725               0.009209260               0.001388078              -0.001150133               0.003453100               0.002302967               0.000000000               0.000000000               0.000000000               0.000000000              -0.000277767               0.008286439               0.001422507              -0.001139965               0.003142107               0.002002142               0.000000000               0.000000000               0.000000000               0.000000000              -0.000460493               0.007499887               0.001373868              -0.001110169               0.002869993               0.001759825               0.000000000               0.000000000               0.000000000               0.000000000              -0.000562825               0.006794150               0.001294049              -0.001060326               0.002618136               0.001557810               0.000000000               0.000000000               0.000000000               0.000000000              -0.000608875               0.006145493               0.001206095              -0.000996513               0.002380648               0.001384135               0.000000000               0.000000000               0.000000000               0.000000000              -0.000616226               0.005536513               0.001120128              -0.000923147               0.002153202               0.001230054               0.000000000               0.000000000               0.000000000               0.000000000              -0.000589220               0.004958814               0.001038241              -0.000840808               0.001933190               0.001092383               0.000000000               0.000000000               0.000000000               0.000000000              -0.000529499               0.004402836               0.000948120              -0.000748915               0.001717236               0.000968320               0.000000000               0.000000000               0.000000000               0.000000000              -0.000442987               0.003872676               0.000830175              -0.000650204               0.001507614               0.000857410               0.000000000               0.000000000               0.000000000               0.000000000              -0.000337318               0.003376381               0.000678418              -0.000548541               0.001308296               0.000759755               0.000000000               0.000000000               0.000000000               0.000000000              -0.000221589               0.002924673               0.000491600              -0.000448679               0.001124441               0.000675762               0.000000000               0.000000000               0.000000000               0.000000000              -0.000109975               0.002540892               0.000265121              -0.000358851               0.000966573               0.000607721               0.000000000               0.000000000               0.000000000               0.000000000              -0.000076262               0.002322108               0.000151869              -0.000318861               0.000880315               0.000561454               0.000000000               0.000000000               0.000000000               0.000000000               0.002279543               0.016081725              -0.003928788              -0.001155387               0.005745650               0.004590263               0.000000000               0.000000000               0.000000000               0.000000000               0.000718249               0.013310469              -0.001669787              -0.001394463               0.004901599               0.003507137               0.000000000               0.000000000               0.000000000               0.000000000              -0.000240608               0.011496500               0.000444934              -0.001527287               0.004341224               0.002813937               0.000000000               0.000000000               0.000000000               0.000000000              -0.000821276               0.010229892               0.001142295              -0.001586711               0.003938834               0.002352122               0.000000000               0.000000000               0.000000000               0.000000000              -0.001126828               0.009239693               0.001339782              -0.001577519               0.003605706               0.002028188               0.000000000               0.000000000               0.000000000               0.000000000              -0.001259654               0.008399852               0.001353171              -0.001522348               0.003307372               0.001785023               0.000000000               0.000000000               0.000000000               0.000000000              -0.001282896               0.007645508               0.001291637              -0.001436771               0.003027401               0.001590630               0.000000000               0.000000000               0.000000000               0.000000000              -0.001235442               0.006960660               0.001202192              -0.001333370               0.002764653               0.001431283               0.000000000               0.000000000               0.000000000               0.000000000              -0.001142598               0.006328474               0.001109365              -0.001219531               0.002515980               0.001296449               0.000000000               0.000000000               0.000000000               0.000000000              -0.001013667               0.005741564               0.001021079              -0.001097818               0.002279775               0.001181957               0.000000000               0.000000000               0.000000000               0.000000000              -0.000858540               0.005194213               0.000933229              -0.000971227               0.002055129               0.001083902               0.000000000               0.000000000               0.000000000               0.000000000              -0.000688147               0.004684622               0.000836345              -0.000843631               0.001842735               0.000999104               0.000000000               0.000000000               0.000000000               0.000000000              -0.000515099               0.004227556               0.000715220              -0.000721605               0.001649706               0.000928101               0.000000000               0.000000000               0.000000000               0.000000000              -0.000347358               0.003841154               0.000560163              -0.000610402               0.001483839               0.000873437               0.000000000               0.000000000               0.000000000               0.000000000              -0.000199262               0.003538059               0.000382522              -0.000516979               0.001351667               0.000834688               0.000000000               0.000000000               0.000000000               0.000000000              -0.000084281               0.003342800               0.000195497              -0.000449454               0.001264074               0.000814619               0.000000000               0.000000000               0.000000000               0.000000000              -0.000036744               0.003273240               0.000101404              -0.000422933               0.001232047               0.000809114               0.000000000               0.000000000               0.000000000               0.000000000               0.001829134               0.013237167              -0.003804765              -0.000968721               0.004735251               0.003766530               0.000000000               0.000000000               0.000000000               0.000000000              -0.000096046               0.011642930              -0.001672279              -0.001491381               0.004378065               0.002886684               0.000000000               0.000000000               0.000000000               0.000000000              -0.001457525               0.010846668               0.000293739              -0.001902401               0.004249653               0.002347253               0.000000000               0.000000000               0.000000000               0.000000000              -0.001995860               0.009981206               0.000889570              -0.001996093               0.003992400               0.001996306               0.000000000               0.000000000               0.000000000               0.000000000              -0.002133672               0.009157930               0.001039324              -0.001944864               0.003700901               0.001756037               0.000000000               0.000000000               0.000000000               0.000000000              -0.002078685               0.008382725               0.001037035              -0.001827343               0.003403328               0.001575985               0.000000000               0.000000000               0.000000000               0.000000000              -0.001924102               0.007663201               0.000980636              -0.001679434               0.003114186               0.001434752               0.000000000               0.000000000               0.000000000               0.000000000              -0.001714316               0.007011251               0.000903921              -0.001519271               0.002843484               0.001324213               0.000000000               0.000000000               0.000000000               0.000000000              -0.001475902               0.006411082               0.000822805              -0.001354845               0.002588621               0.001233776               0.000000000               0.000000000               0.000000000               0.000000000              -0.001220145               0.005858180               0.000744971              -0.001189824               0.002349315               0.001159491               0.000000000               0.000000000               0.000000000               0.000000000              -0.000960616               0.005353105               0.000662471              -0.001029367               0.002127472               0.001098106               0.000000000               0.000000000               0.000000000               0.000000000              -0.000706103               0.004901386               0.000569955              -0.000877460               0.001926265               0.001048806               0.000000000               0.000000000               0.000000000               0.000000000              -0.000475986               0.004519116               0.000466561              -0.000743382               0.001754151               0.001010769               0.000000000               0.000000000               0.000000000               0.000000000              -0.000281734               0.004228526               0.000340362              -0.000634214               0.001620899               0.000986685               0.000000000               0.000000000               0.000000000               0.000000000              -0.000133845               0.004038107               0.000206567              -0.000554954               0.001531007               0.000976053               0.000000000               0.000000000               0.000000000               0.000000000              -0.000042510               0.003948997               0.000092353              -0.000509565               0.001486174               0.000976609               0.000000000               0.000000000               0.000000000               0.000000000              -0.000007454               0.003939855               0.000040130              -0.000495276               0.001478364               0.000983088               0.000000000               0.000000000               0.000000000               0.000000000               0.001012273               0.010448431              -0.003305764              -0.000926452               0.003791592               0.002865140               0.000000000               0.000000000               0.000000000               0.000000000              -0.001045350               0.010031054              -0.001581102              -0.001645885               0.003892279               0.002246394               0.000000000               0.000000000               0.000000000               0.000000000              -0.002600857               0.010162304               0.000005004              -0.002245604               0.004135935               0.001890332               0.000000000               0.000000000               0.000000000               0.000000000              -0.002973149               0.009621349               0.000458393              -0.002317594               0.003979615               0.001662022               0.000000000               0.000000000               0.000000000               0.000000000              -0.002889696               0.008928874               0.000572192              -0.002199740               0.003709508               0.001509768               0.000000000               0.000000000               0.000000000               0.000000000              -0.002627857               0.008222667               0.000578221              -0.002013275               0.003411953               0.001398678               0.000000000               0.000000000               0.000000000               0.000000000              -0.002294878               0.007557589               0.000550630              -0.001805274               0.003120929               0.001315655               0.000000000               0.000000000               0.000000000               0.000000000              -0.001934598               0.006949663               0.000505378              -0.001594178               0.002847924               0.001253746               0.000000000               0.000000000               0.000000000               0.000000000              -0.001569526               0.006388524               0.000448526              -0.001387134               0.002591865               0.001204731               0.000000000               0.000000000               0.000000000               0.000000000              -0.001215202               0.005877958               0.000391156              -0.001190443               0.002356114               0.001165671               0.000000000               0.000000000               0.000000000               0.000000000              -0.000890355               0.005419724               0.000328618              -0.001011346               0.002143672               0.001132326               0.000000000               0.000000000               0.000000000               0.000000000              -0.000600162               0.005030792               0.000261594              -0.000853908               0.001961550               0.001107642               0.000000000               0.000000000               0.000000000               0.000000000              -0.000358080               0.004726264               0.000197838              -0.000725061               0.001817093               0.001092031               0.000000000               0.000000000               0.000000000               0.000000000              -0.000178950               0.004513895               0.000128427              -0.000631342               0.001715064               0.001083722               0.000000000               0.000000000               0.000000000               0.000000000              -0.000065658               0.004393270               0.000062765              -0.000573779               0.001655668               0.001081889               0.000000000               0.000000000               0.000000000               0.000000000              -0.000012047               0.004350672               0.000022510              -0.000548350               0.001632993               0.001084643               0.000000000               0.000000000               0.000000000               0.000000000               0.000001408               0.004349505               0.000010194              -0.000543159               0.001630873               0.001087714               0.000000000               0.000000000               0.000000000               0.000000000              -0.000114928               0.007906635              -0.002547287              -0.001031427               0.002979327               0.001947900               0.000000000               0.000000000               0.000000000               0.000000000              -0.002070438               0.008568278              -0.001443635              -0.001847445               0.003471879               0.001624434               0.000000000               0.000000000               0.000000000               0.000000000              -0.003567229               0.009439368              -0.000399839              -0.002517626               0.003985633               0.001468007               0.000000000               0.000000000               0.000000000               0.000000000              -0.003666874               0.009142352              -0.000075379              -0.002517865               0.003886709               0.001368843               0.000000000               0.000000000               0.000000000               0.000000000              -0.003332244               0.008566760               0.000041131              -0.002320431               0.003629035               0.001308604               0.000000000               0.000000000               0.000000000               0.000000000              -0.002871388               0.007943236               0.000083048              -0.002069670               0.003337609               0.001267939               0.000000000               0.000000000               0.000000000               0.000000000              -0.002379963               0.007344356               0.000098903              -0.001810526               0.003051603               0.001241077               0.000000000               0.000000000               0.000000000               0.000000000              -0.001900684               0.006783285               0.000095187              -0.001560663               0.002781293               0.001220630               0.000000000               0.000000000               0.000000000               0.000000000              -0.001446623               0.006265628               0.000073798              -0.001325684               0.002530416               0.001204732               0.000000000               0.000000000               0.000000000               0.000000000              -0.001033078               0.005799706               0.000051563              -0.001112365               0.002304004               0.001191640               0.000000000               0.000000000               0.000000000               0.000000000              -0.000678201               0.005395436               0.000029732              -0.000928753               0.002108045               0.001179292               0.000000000               0.000000000               0.000000000               0.000000000              -0.000392532               0.005073068               0.000013090              -0.000781331               0.001951450               0.001170119               0.000000000               0.000000000               0.000000000               0.000000000              -0.000184023               0.004842502               0.000006240              -0.000674320               0.001838924               0.001164605               0.000000000               0.000000000               0.000000000               0.000000000              -0.000054996               0.004699241               0.000000780              -0.000608027               0.001769074               0.001161047               0.000000000               0.000000000               0.000000000               0.000000000               0.000000988               0.004637361              -0.000003005              -0.000579298               0.001738871               0.001159573               0.000000000               0.000000000               0.000000000               0.000000000               0.000009175               0.004633896               0.000000271              -0.000575795               0.001736548               0.001160753               0.000000000               0.000000000               0.000000000               0.000000000               0.000006409               0.004648825               0.000001689              -0.000578698               0.001742492               0.001163794               0.000000000               0.000000000               0.000000000               0.000000000              -0.001426629               0.005787840              -0.001648820              -0.001258463               0.002348748               0.001090285               0.000000000               0.000000000               0.000000000               0.000000000              -0.003071311               0.007263576              -0.001299286              -0.002059684               0.003107729               0.001048045               0.000000000               0.000000000               0.000000000               0.000000000              -0.004327270               0.008697116              -0.000880515              -0.002709859               0.003802296               0.001092437               0.000000000               0.000000000               0.000000000               0.000000000              -0.004141758               0.008650178              -0.000636302              -0.002634425               0.003761505               0.001127080               0.000000000               0.000000000               0.000000000               0.000000000              -0.003595170               0.008220081              -0.000485355              -0.002375693               0.003531897               0.001156204               0.000000000               0.000000000               0.000000000               0.000000000              -0.002974051               0.007695957              -0.000389005              -0.002077259               0.003257713               0.001180454               0.000000000               0.000000000               0.000000000               0.000000000              -0.002358154               0.007174136              -0.000326345              -0.001781070               0.002985045               0.001203975               0.000000000               0.000000000               0.000000000               0.000000000              -0.001783728               0.006669522              -0.000282079              -0.001502584               0.002724013               0.001221429               0.000000000               0.000000000               0.000000000               0.000000000              -0.001267316               0.006195621              -0.000254197              -0.001249693               0.002481751               0.001232058               0.000000000               0.000000000               0.000000000               0.000000000              -0.000816871               0.005768994              -0.000231228              -0.001027448               0.002265462               0.001238013               0.000000000               0.000000000               0.000000000               0.000000000              -0.000445790               0.005404401              -0.000204271              -0.000842719               0.002082355               0.001239636               0.000000000               0.000000000               0.000000000               0.000000000              -0.000166751               0.005124708              -0.000165407              -0.000703119               0.001942592               0.001239473               0.000000000               0.000000000               0.000000000               0.000000000               0.000008569               0.004934602              -0.000114784              -0.000613610               0.001849388               0.001235777               0.000000000               0.000000000               0.000000000               0.000000000               0.000087351               0.004829726              -0.000064020              -0.000570958               0.001800212               0.001229254               0.000000000               0.000000000               0.000000000               0.000000000               0.000093123               0.004804489              -0.000022855              -0.000565639               0.001790026               0.001224388               0.000000000               0.000000000               0.000000000               0.000000000               0.000065193               0.004833587               0.000001816              -0.000579750               0.001804429               0.001224680               0.000000000               0.000000000               0.000000000               0.000000000               0.000047430               0.004862559               0.000008158              -0.000590032               0.001817514               0.001227482               0.000000000               0.000000000               0.000000000               0.000000000              -0.002937057               0.003842870              -0.000717624              -0.001581752               0.001808194               0.000226442               0.000000000               0.000000000               0.000000000               0.000000000              -0.003921461               0.005756207              -0.001145443              -0.002190069               0.002648739               0.000458670               0.000000000               0.000000000               0.000000000               0.000000000              -0.004800725               0.007585663              -0.001381758              -0.002748473               0.003444686               0.000696213               0.000000000               0.000000000               0.000000000               0.000000000              -0.004463679               0.007920448              -0.001224902              -0.002663929               0.003528099               0.000864170               0.000000000               0.000000000               0.000000000               0.000000000              -0.003829555               0.007762104              -0.001039482              -0.002406340               0.003389455               0.000983115               0.000000000               0.000000000               0.000000000               0.000000000              -0.003143905               0.007436439              -0.000886558              -0.002108514               0.003181626               0.001073112               0.000000000               0.000000000               0.000000000               0.000000000              -0.002480018               0.007068359              -0.000767487              -0.001813547               0.002960612               0.001147064               0.000000000               0.000000000               0.000000000               0.000000000              -0.001866284               0.006692431              -0.000666778              -0.001536407               0.002742923               0.001206517               0.000000000               0.000000000               0.000000000               0.000000000              -0.001321385               0.006314862              -0.000582644              -0.001284874               0.002533224               0.001248350               0.000000000               0.000000000               0.000000000               0.000000000              -0.000848254               0.005942424              -0.000513682              -0.001060896               0.002334420               0.001273524               0.000000000               0.000000000               0.000000000               0.000000000              -0.000448837               0.005595087              -0.000444581              -0.000867698               0.002154243               0.001286545               0.000000000               0.000000000               0.000000000               0.000000000              -0.000134895               0.005303146              -0.000359029              -0.000713477               0.002005523               0.001292046               0.000000000               0.000000000               0.000000000               0.000000000               0.000081168               0.005086158              -0.000260370              -0.000605330               0.001897146               0.001291816               0.000000000               0.000000000               0.000000000               0.000000000               0.000195224               0.004951711              -0.000160362              -0.000545754               0.001832472               0.001286718               0.000000000               0.000000000               0.000000000               0.000000000               0.000226585               0.004907094              -0.000075886              -0.000528416               0.001811820               0.001283404               0.000000000               0.000000000               0.000000000               0.000000000               0.000204758               0.004933364              -0.000022149              -0.000539885               0.001824400               0.001284515               0.000000000               0.000000000               0.000000000               0.000000000               0.000169081               0.004949004               0.000001316              -0.000555219               0.001834724               0.001279506               0.000000000               0.000000000               0.000000000               0.000000000              -0.004844815               0.002100595               0.000170825              -0.002079376               0.001393315              -0.000686062               0.000000000               0.000000000               0.000000000               0.000000000              -0.004884663               0.004237904              -0.000937144              -0.002361482               0.002199780              -0.000161702               0.000000000               0.000000000               0.000000000               0.000000000              -0.005199270               0.006263715              -0.001784928              -0.002732684               0.002998778               0.000266094               0.000000000               0.000000000               0.000000000               0.000000000              -0.004729989               0.006959178              -0.001784149              -0.002643637               0.003200915               0.000557278               0.000000000               0.000000000               0.000000000               0.000000000              -0.004047897               0.007107461              -0.001603830              -0.002406388               0.003171259               0.000764871               0.000000000               0.000000000               0.000000000               0.000000000              -0.003337719               0.007020573              -0.001409272              -0.002129211               0.003049904               0.000920693               0.000000000               0.000000000               0.000000000               0.000000000              -0.002655756               0.006842280              -0.001234945              -0.001851189               0.002897800               0.001046611               0.000000000               0.000000000               0.000000000               0.000000000              -0.002021037               0.006621535              -0.001078754              -0.001585577               0.002735682               0.001150105               0.000000000               0.000000000               0.000000000               0.000000000              -0.001445801               0.006367865              -0.000944483              -0.001338155               0.002568652               0.001230497               0.000000000               0.000000000               0.000000000               0.000000000              -0.000935534               0.006085141              -0.000834438              -0.001111465               0.002398848               0.001287383               0.000000000               0.000000000               0.000000000               0.000000000              -0.000490832               0.005786790              -0.000731803              -0.000907409               0.002231380               0.001323972               0.000000000               0.000000000               0.000000000               0.000000000              -0.000111948               0.005505172              -0.000617170              -0.000730125               0.002078414               0.001348289               0.000000000               0.000000000               0.000000000               0.000000000               0.000187942               0.005268106              -0.000483672              -0.000588034               0.001952029               0.001363995               0.000000000               0.000000000               0.000000000               0.000000000               0.000388714               0.005093161              -0.000337734              -0.000490876               0.001861329               0.001370453               0.000000000               0.000000000               0.000000000               0.000000000               0.000485906               0.004995484              -0.000201026              -0.000442220               0.001812551               0.001370332               0.000000000               0.000000000               0.000000000               0.000000000               0.000488401               0.004971400              -0.000087998              -0.000438274               0.001803208               0.001364934               0.000000000               0.000000000               0.000000000               0.000000000               0.000438910               0.004957500              -0.000027879              -0.000455095               0.001804182               0.001349087               0.000000000               0.000000000               0.000000000               0.000000000              -0.007014500               0.000702246               0.000924362              -0.002718215               0.001140146              -0.001578070               0.000000000               0.000000000               0.000000000               0.000000000              -0.005998323               0.002809283              -0.000668703              -0.002600527               0.001803258              -0.000797269               0.000000000               0.000000000               0.000000000               0.000000000              -0.005544959               0.004754158              -0.001989371              -0.002673624               0.002475910              -0.000197714               0.000000000               0.000000000               0.000000000               0.000000000              -0.004856668               0.005694206              -0.002180580              -0.002533020               0.002742389               0.000209369               0.000000000               0.000000000               0.000000000               0.000000000              -0.004118614               0.006126019              -0.002055622              -0.002310228               0.002812061               0.000501834               0.000000000               0.000000000               0.000000000               0.000000000              -0.003395580               0.006294554              -0.001856210              -0.002060157               0.002784882               0.000724725               0.000000000               0.000000000               0.000000000               0.000000000              -0.002709880               0.006328743              -0.001653515              -0.001807294               0.002711991               0.000904697               0.000000000               0.000000000               0.000000000               0.000000000              -0.002066276               0.006283818              -0.001462351              -0.001560327               0.002614694               0.001054367               0.000000000               0.000000000               0.000000000               0.000000000              -0.001470857               0.006177622              -0.001294107              -0.001323771               0.002500443               0.001176672               0.000000000               0.000000000               0.000000000               0.000000000              -0.000929133               0.006021146              -0.001151811              -0.001101066               0.002374050               0.001272985               0.000000000               0.000000000               0.000000000               0.000000000              -0.000440785               0.005824131              -0.001023115              -0.000893309               0.002239127               0.001345818               0.000000000               0.000000000               0.000000000               0.000000000              -0.000003704               0.005605479              -0.000888266              -0.000702072               0.002102498               0.001400426               0.000000000               0.000000000               0.000000000               0.000000000               0.000372123               0.005389775              -0.000730236              -0.000534174               0.001974632               0.001440457               0.000000000               0.000000000               0.000000000               0.000000000               0.000669305               0.005208436              -0.000549001              -0.000400064               0.001869483               0.001469418               0.000000000               0.000000000               0.000000000               0.000000000               0.000869652               0.005084829              -0.000362417              -0.000309483               0.001798087               0.001488604               0.000000000               0.000000000               0.000000000               0.000000000               0.000955607               0.005023217              -0.000180959              -0.000269549               0.001764239               0.001494690               0.000000000               0.000000000               0.000000000               0.000000000               0.000944530               0.004992489              -0.000084198              -0.000269862               0.001754100               0.001484239               0.000000000               0.000000000               0.000000000               0.000000000              -0.009286999              -0.000283843               0.001428923              -0.003447142               0.001054425              -0.002392717               0.000000000               0.000000000               0.000000000               0.000000000              -0.007188805               0.001548915              -0.000384516              -0.002889413               0.001479432              -0.001409980               0.000000000               0.000000000               0.000000000               0.000000000              -0.005855132               0.003186722              -0.001965748              -0.002594010               0.001926897              -0.000667113               0.000000000               0.000000000               0.000000000               0.000000000              -0.004865286               0.004238121              -0.002322745              -0.002354243               0.002197439              -0.000156804               0.000000000               0.000000000               0.000000000               0.000000000              -0.004040293               0.004894019              -0.002279041              -0.002126858               0.002340275               0.000213418               0.000000000               0.000000000               0.000000000               0.000000000              -0.003297101               0.005295630              -0.002112423              -0.001898363               0.002397979               0.000499616               0.000000000               0.000000000               0.000000000               0.000000000              -0.002616013               0.005537743              -0.001916517              -0.001673219               0.002403635               0.000730416               0.000000000               0.000000000               0.000000000               0.000000000              -0.001973348               0.005677393              -0.001721867              -0.001449677               0.002375671               0.000925994               0.000000000               0.000000000               0.000000000               0.000000000              -0.001371560               0.005736323              -0.001543215              -0.001231373               0.002322546               0.001091173               0.000000000               0.000000000               0.000000000               0.000000000              -0.000808238               0.005729310              -0.001388817              -0.001019251               0.002249501               0.001230250               0.000000000               0.000000000               0.000000000               0.000000000              -0.000281268               0.005662534              -0.001249304              -0.000813291               0.002158589               0.001345298               0.000000000               0.000000000               0.000000000               0.000000000               0.000208477               0.005545210              -0.001104350              -0.000614971               0.002053375               0.001438404               0.000000000               0.000000000               0.000000000               0.000000000               0.000659609               0.005402069              -0.000934491              -0.000427904               0.001943306               0.001515402               0.000000000               0.000000000               0.000000000               0.000000000               0.001061621               0.005259173              -0.000735558              -0.000259289               0.001839470               0.001580181               0.000000000               0.000000000               0.000000000               0.000000000               0.001394637               0.005139987              -0.000516279              -0.000119510               0.001753148               0.001633639               0.000000000               0.000000000               0.000000000               0.000000000               0.001627981               0.005057812              -0.000273430              -0.000021734               0.001693165               0.001671431               0.000000000               0.000000000               0.000000000               0.000000000               0.001722661               0.005028211              -0.000147980               0.000017471               0.001670230               0.001687701               0.000000000               0.000000000               0.000000000               0.000000000              -0.011449506              -0.000883392               0.001584543              -0.004183138               0.001099907              -0.003083231               0.000000000               0.000000000               0.000000000               0.000000000              -0.008352915               0.000529840              -0.000144201              -0.003198570               0.001242795              -0.001955775               0.000000000               0.000000000               0.000000000               0.000000000              -0.006132732               0.001726823              -0.001707460              -0.002515624               0.001414139              -0.001101485               0.000000000               0.000000000               0.000000000               0.000000000              -0.004795102               0.002764946              -0.002148339              -0.002143778               0.001636229              -0.000507549               0.000000000               0.000000000               0.000000000               0.000000000              -0.003844375               0.003558475              -0.002182363              -0.001886446               0.001814961              -0.000071486               0.000000000               0.000000000               0.000000000               0.000000000              -0.003069740               0.004144427              -0.002068143              -0.001669202               0.001937862               0.000268659               0.000000000               0.000000000               0.000000000               0.000000000              -0.002386634               0.004571993              -0.001908457              -0.001466484               0.002012810               0.000546326               0.000000000               0.000000000               0.000000000               0.000000000              -0.001751334               0.004886962              -0.001739627              -0.001267618               0.002051510               0.000783892               0.000000000               0.000000000               0.000000000               0.000000000              -0.001146400               0.005104307              -0.001578550              -0.001067936               0.002057397               0.000989461               0.000000000               0.000000000               0.000000000               0.000000000              -0.000568864               0.005237416              -0.001437117              -0.000868000               0.002035121               0.001167121               0.000000000               0.000000000               0.000000000               0.000000000              -0.000015267               0.005303430              -0.001306396              -0.000668653               0.001990676               0.001322023               0.000000000               0.000000000               0.000000000               0.000000000               0.000519141               0.005310894              -0.001170779              -0.000469183               0.001926674               0.001457491               0.000000000               0.000000000               0.000000000               0.000000000               0.001043121               0.005272620              -0.001013478              -0.000267907               0.001846825               0.001578917               0.000000000               0.000000000               0.000000000               0.000000000               0.001556968               0.005206162              -0.000822928              -0.000066908               0.001757672               0.001690765               0.000000000               0.000000000               0.000000000               0.000000000               0.002039171               0.005129377              -0.000596377               0.000123516               0.001668603               0.001792119               0.000000000               0.000000000               0.000000000               0.000000000               0.002464821               0.005059175              -0.000323756               0.000291908               0.001589072               0.001880980               0.000000000               0.000000000               0.000000000               0.000000000               0.002719131               0.005052039              -0.000187194               0.000388165               0.001554608               0.001942773               0.000000000               0.000000000               0.000000000               0.000000000              -0.013246599              -0.001176966               0.001351228              -0.004820351               0.001214453              -0.003605898               0.000000000               0.000000000               0.000000000               0.000000000              -0.009352814              -0.000199919               0.000002961              -0.003482313               0.001094124              -0.002388189               0.000000000               0.000000000               0.000000000               0.000000000              -0.006375897               0.000541732              -0.001248468              -0.002458675               0.001000129              -0.001458547               0.000000000               0.000000000               0.000000000               0.000000000              -0.004703653               0.001489157              -0.001649760              -0.001950012               0.001146381              -0.000803631               0.000000000               0.000000000               0.000000000               0.000000000              -0.003609060               0.002341759              -0.001722773              -0.001646115               0.001329281              -0.000316833               0.000000000               0.000000000               0.000000000               0.000000000              -0.002786316               0.003047369              -0.001663428              -0.001425787               0.001491041               0.000065254               0.000000000               0.000000000               0.000000000               0.000000000              -0.002092293               0.003613948              -0.001554839              -0.001236351               0.001616754               0.000380403               0.000000000               0.000000000               0.000000000               0.000000000              -0.001461105               0.004061404              -0.001433480              -0.001055588               0.001705650               0.000650062               0.000000000               0.000000000               0.000000000               0.000000000              -0.000858473               0.004403304              -0.001313844              -0.000872339               0.001758533               0.000886194               0.000000000               0.000000000               0.000000000               0.000000000              -0.000274498               0.004659524              -0.001204579              -0.000685376               0.001781618               0.001096241               0.000000000               0.000000000               0.000000000               0.000000000               0.000296101               0.004849509              -0.001102338              -0.000495150               0.001781537               0.001286387               0.000000000               0.000000000               0.000000000               0.000000000               0.000865492               0.004975201              -0.001001661              -0.000297340               0.001757497               0.001460157               0.000000000               0.000000000               0.000000000               0.000000000               0.001450382               0.005040532              -0.000888182              -0.000086174               0.001708885               0.001622711               0.000000000               0.000000000               0.000000000               0.000000000               0.002057303               0.005067093              -0.000738160               0.000138100               0.001642981               0.001781081               0.000000000               0.000000000               0.000000000               0.000000000               0.002681273               0.005065007              -0.000544129               0.000372348               0.001564203               0.001936551               0.000000000               0.000000000               0.000000000               0.000000000               0.003318836               0.005038271              -0.000299191               0.000614774               0.001474482               0.002089256               0.000000000               0.000000000               0.000000000               0.000000000               0.003762552               0.005066398              -0.000179270               0.000777649               0.001429566               0.002207216               0.000000000               0.000000000               0.000000000               0.000000000              -0.014435083              -0.001284109               0.000775414              -0.005252639               0.001322835              -0.003929805               0.000000000               0.000000000               0.000000000               0.000000000              -0.010032296              -0.000628408               0.000040840              -0.003683557               0.001018376              -0.002665181               0.000000000               0.000000000               0.000000000               0.000000000              -0.006550718              -0.000226120              -0.000652939              -0.002428253               0.000734039              -0.001694214               0.000000000               0.000000000               0.000000000               0.000000000              -0.004632649               0.000623506              -0.000892529              -0.001815180               0.000812889              -0.001002290               0.000000000               0.000000000               0.000000000               0.000000000              -0.003417680               0.001487519              -0.000949184              -0.001467568               0.000985022              -0.000482546               0.000000000               0.000000000               0.000000000               0.000000000              -0.002543642               0.002250795              -0.000928453              -0.001235212               0.001161994              -0.000073218               0.000000000               0.000000000               0.000000000               0.000000000              -0.001836834               0.002894729              -0.000875908              -0.001050651               0.001315117               0.000264465               0.000000000               0.000000000               0.000000000               0.000000000              -0.001210382               0.003423409              -0.000812722              -0.000881818               0.001435064               0.000553246               0.000000000               0.000000000               0.000000000               0.000000000              -0.000619616               0.003852114              -0.000747651              -0.000713869               0.001521981               0.000808112               0.000000000               0.000000000               0.000000000               0.000000000              -0.000038076               0.004202189              -0.000687159              -0.000539551               0.001580566               0.001041015               0.000000000               0.000000000               0.000000000               0.000000000               0.000545414               0.004480766              -0.000631749              -0.000355565               0.001612095               0.001256531               0.000000000               0.000000000               0.000000000               0.000000000               0.001141418               0.004693299              -0.000583765              -0.000158631               0.001617294               0.001458664               0.000000000               0.000000000               0.000000000               0.000000000               0.001759971               0.004842152              -0.000528783               0.000054719               0.001595795               0.001650514               0.000000000               0.000000000               0.000000000               0.000000000               0.002422646               0.004940477              -0.000444628               0.000290930               0.001549833               0.001840762               0.000000000               0.000000000               0.000000000               0.000000000               0.003154315               0.004996501              -0.000332887               0.000558300               0.001479384               0.002037684               0.000000000               0.000000000               0.000000000               0.000000000               0.003971329               0.005009599              -0.000188377               0.000863040               0.001382170               0.002245210               0.000000000               0.000000000               0.000000000               0.000000000               0.004583622               0.005070427              -0.000117608               0.001085044               0.001328444               0.002413488               0.000000000               0.000000000               0.000000000               0.000000000              -0.014850879              -0.001310595               0.000000000              -0.005405252               0.001364877              -0.004040375               0.000000000               0.000000000               0.000000000               0.000000000              -0.010273315              -0.000771287              -0.000000000              -0.003756080               0.000994924              -0.002761156               0.000000000               0.000000000               0.000000000               0.000000000              -0.006614394              -0.000489726               0.000000000              -0.002419180               0.000643147              -0.001776033               0.000000000               0.000000000               0.000000000               0.000000000              -0.004604619               0.000319038               0.000000000              -0.001766610               0.000695211              -0.001071399               0.000000000               0.000000000               0.000000000               0.000000000              -0.003341360               0.001180754              -0.000000000              -0.001400602               0.000860446              -0.000540156               0.000000000               0.000000000               0.000000000               0.000000000              -0.002445061               0.001962979              -0.000000000              -0.001162268               0.001041742              -0.000120526               0.000000000               0.000000000               0.000000000               0.000000000              -0.001731419               0.002628011               0.000000000              -0.000977781               0.001201922               0.000224141               0.000000000               0.000000000               0.000000000               0.000000000              -0.001112340               0.003177661              -0.000000000              -0.000814333               0.001330654               0.000516321               0.000000000               0.000000000               0.000000000               0.000000000              -0.000528054               0.003640858              -0.000000000              -0.000653126               0.001431316               0.000778190               0.000000000               0.000000000               0.000000000               0.000000000               0.000052463               0.004030877              -0.000000000              -0.000484185               0.001505007               0.001020822               0.000000000               0.000000000               0.000000000               0.000000000               0.000643134               0.004342698              -0.000000000              -0.000301662               0.001548105               0.001246444               0.000000000               0.000000000               0.000000000               0.000000000               0.001249123               0.004587528              -0.000000000              -0.000105020               0.001564167               0.001459147               0.000000000               0.000000000               0.000000000               0.000000000               0.001873615               0.004768623               0.000000000               0.000106527               0.001554016               0.001660543               0.000000000               0.000000000               0.000000000               0.000000000               0.002555881               0.004896697              -0.000000000               0.000346365               0.001516761               0.001863126               0.000000000               0.000000000               0.000000000               0.000000000               0.003334163               0.004976921               0.000000000               0.000628190               0.001449560               0.002077750               0.000000000               0.000000000               0.000000000               0.000000000               0.004224363               0.005001365               0.000000000               0.000958956               0.001347453               0.002306409               0.000000000               0.000000000               0.000000000               0.000000000               0.004905900               0.005071945               0.000000000               0.001205707               0.001288729               0.002494436               0.000000000               0.000000000               0.000000000               0.000000000               0.000000000               0.000000000               0.000000000               0.000000000               0.000000000               0.000000000               0.000000000               0.000000000               0.000000000               0.000000000               0.000000000               0.000000000               0.000000000               0.000000000               0.000000000               0.000000000               0.000000000               0.000000000               0.000000000               0.000000000               0.000000000               0.000000000               0.000000000               0.000000000               0.000000000               0.000000000               0.000000000               0.000000000               0.000000000               0.000000000               0.000000000               0.000000000               0.000000000               0.000000000               0.000000000               0.000000000               0.000000000               0.000000000               0.000000000               0.000000000               0.000000000               0.000000000               0.000000000               0.000000000               0.000000000               0.000000000               0.000000000               0.000000000               0.000000000               0.000000000               0.000000000               0.000000000               0.000000000               0.000000000               0.000000000               0.000000000               0.000000000               0.000000000               0.000000000               0.000000000               0.000000000               0.000000000               0.000000000               0.000000000               0.000000000               0.000000000               0.000000000               0.000000000               0.000000000               0.000000000               0.000000000               0.000000000               0.000000000               0.000000000               0.000000000               0.000000000               0.000000000               0.000000000               0.000000000               0.000000000               0.000000000               0.000000000               0.000000000               0.000000000               0.000000000               0.000000000               0.000000000               0.000000000               0.000000000               0.000000000               0.000000000               0.000000000               0.000000000               0.000000000               0.000000000               0.000000000               0.000000000               0.000000000               0.000000000               0.000000000               0.000000000               0.000000000               0.000000000               0.000000000               0.000000000               0.000000000               0.000000000               0.000000000               0.000000000               0.000000000               0.000000000               0.000000000               0.000000000               0.000000000               0.000000000               0.000000000               0.000000000               0.000000000               0.000000000               0.000000000               0.000000000               0.000000000               0.000000000               0.000000000               0.000000000               0.000000000               0.000000000               0.000000000               0.000000000               0.000000000               0.000000000               0.000000000               0.000000000               0.000000000               0.000000000               0.000000000               0.000000000               0.000000000               0.000000000               0.000000000               0.000000000               0.000000000               0.000000000               0.000000000               0.000000000               0.000000000               0.000000000               0.000000000               0.000000000               0.000000000               0.000000000               0.000000000               0.000000000               0.000000000               0.000000000               0.000000000               0.000000000               0.000000000               0.000000000               0.000000000               0.000000000               0.000000000               0.000000000               0.000000000               0.000000000               0.000000000               0.000000000               0.000000000               0.000000000               0.000000000               0.002234540               0.022325299               0.001485438              -0.001952706               0.008092594               0.006139888               0.000000000               0.000000000               0.000000000               0.000000000               0.002008423               0.017109342               0.000635003              -0.001385506               0.006164892               0.004779386               0.000000000               0.000000000               0.000000000               0.000000000               0.002458937               0.012922346              -0.000194870              -0.000693190               0.004538469               0.003845279               0.000000000               0.000000000               0.000000000               0.000000000               0.002215033               0.010547163              -0.000525013              -0.000487757               0.003678272               0.003190515               0.000000000               0.000000000               0.000000000               0.000000000               0.001806910               0.009025269              -0.000647033              -0.000450567               0.003158582               0.002708015               0.000000000               0.000000000               0.000000000               0.000000000               0.001388853               0.007942602              -0.000680092              -0.000472004               0.002804842               0.002332838               0.000000000               0.000000000               0.000000000               0.000000000               0.001013817               0.007098176              -0.000669407              -0.000507090               0.002535065               0.002027975               0.000000000               0.000000000               0.000000000               0.000000000               0.000696091               0.006378079              -0.000637574              -0.000536225               0.002304747               0.001768522               0.000000000               0.000000000               0.000000000               0.000000000               0.000438790               0.005722008              -0.000601618              -0.000550704               0.002090885               0.001540181               0.000000000               0.000000000               0.000000000               0.000000000               0.000234491               0.005098741              -0.000566550              -0.000549407               0.001882699               0.001333292               0.000000000               0.000000000               0.000000000               0.000000000               0.000072119               0.004486803              -0.000533787              -0.000533805               0.001673521               0.001139716               0.000000000               0.000000000               0.000000000               0.000000000              -0.000051851               0.003875433              -0.000498296              -0.000503872               0.001459755               0.000955883               0.000000000               0.000000000               0.000000000               0.000000000              -0.000133288               0.003246612              -0.000448359              -0.000455809               0.001234129               0.000778321               0.000000000               0.000000000               0.000000000               0.000000000              -0.000168853               0.002580287              -0.000379877              -0.000385855               0.000988705               0.000602850               0.000000000               0.000000000               0.000000000               0.000000000              -0.000156000               0.001863662              -0.000288387              -0.000291457               0.000718367               0.000426910               0.000000000               0.000000000               0.000000000               0.000000000              -0.000092579               0.001084708              -0.000163188              -0.000170305               0.000418334               0.000248029               0.000000000               0.000000000               0.000000000               0.000000000              -0.000110985               0.000504271              -0.000102830              -0.000104653               0.000202973               0.000098320               0.000000000               0.000000000               0.000000000               0.000000000               0.002353290               0.020887150               0.002738739              -0.001728407               0.007538449               0.005810042               0.000000000               0.000000000               0.000000000               0.000000000               0.001771795               0.016215551               0.001166036              -0.001362518               0.005859302               0.004496784               0.000000000               0.000000000               0.000000000               0.000000000               0.001845020               0.012585725              -0.000357179              -0.000881331               0.004488977               0.003607646               0.000000000               0.000000000               0.000000000               0.000000000               0.001474484               0.010495580              -0.000941826              -0.000759014               0.003751496               0.002992482               0.000000000               0.000000000               0.000000000               0.000000000               0.001057191               0.009120286              -0.001145715              -0.000743588               0.003287927               0.002544340               0.000000000               0.000000000               0.000000000               0.000000000               0.000684526               0.008106829              -0.001191434              -0.000756655               0.002954467               0.002197812               0.000000000               0.000000000               0.000000000               0.000000000               0.000381018               0.007285736              -0.001163045              -0.000767834               0.002684499               0.001916665               0.000000000               0.000000000               0.000000000               0.000000000               0.000150320               0.006570474              -0.001102377              -0.000764938               0.002445115               0.001680177               0.000000000               0.000000000               0.000000000               0.000000000              -0.000018042               0.005917880              -0.001035298              -0.000746499               0.002221440               0.001474941               0.000000000               0.000000000               0.000000000               0.000000000              -0.000141733               0.005298510              -0.000969122              -0.000715462               0.002004639               0.001289177               0.000000000               0.000000000               0.000000000               0.000000000              -0.000228157               0.004699628              -0.000906778              -0.000673011               0.001790864               0.001117853               0.000000000               0.000000000               0.000000000               0.000000000              -0.000277734               0.004109184              -0.000839045              -0.000617797               0.001575647               0.000957849               0.000000000               0.000000000               0.000000000               0.000000000              -0.000286821               0.003517726              -0.000745885              -0.000547273               0.001354988               0.000807715               0.000000000               0.000000000               0.000000000               0.000000000              -0.000258429               0.002920195              -0.000622567              -0.000461934               0.001127367               0.000665432               0.000000000               0.000000000               0.000000000               0.000000000              -0.000195981               0.002318038              -0.000465595              -0.000363247               0.000893754               0.000530507               0.000000000               0.000000000               0.000000000               0.000000000              -0.000105145               0.001716523              -0.000259111              -0.000253994               0.000656833               0.000402839               0.000000000               0.000000000               0.000000000               0.000000000              -0.000097615               0.001302676              -0.000156844              -0.000199440               0.000500701               0.000301261               0.000000000               0.000000000               0.000000000               0.000000000               0.002415501               0.018722332               0.003581352              -0.001434477               0.006718874               0.005284396               0.000000000               0.000000000               0.000000000               0.000000000               0.001348722               0.014891465               0.001515914              -0.001355660               0.005415658               0.004059998               0.000000000               0.000000000               0.000000000               0.000000000               0.000910858               0.012090433              -0.000455423              -0.001169730               0.004420014               0.003250284               0.000000000               0.000000000               0.000000000               0.000000000               0.000400179               0.010394353              -0.001163533              -0.001149225               0.003847824               0.002698600               0.000000000               0.000000000               0.000000000               0.000000000               0.000002725               0.009209260              -0.001388078              -0.001150133               0.003453100               0.002302967               0.000000000               0.000000000               0.000000000               0.000000000              -0.000277767               0.008286439              -0.001422507              -0.001139965               0.003142107               0.002002142               0.000000000               0.000000000               0.000000000               0.000000000              -0.000460493               0.007499887              -0.001373868              -0.001110169               0.002869993               0.001759825               0.000000000               0.000000000               0.000000000               0.000000000              -0.000562825               0.006794150              -0.001294049              -0.001060326               0.002618136               0.001557810               0.000000000               0.000000000               0.000000000               0.000000000              -0.000608875               0.006145493              -0.001206095              -0.000996513               0.002380648               0.001384135               0.000000000               0.000000000               0.000000000               0.000000000              -0.000616226               0.005536513              -0.001120128              -0.000923147               0.002153202               0.001230054               0.000000000               0.000000000               0.000000000               0.000000000              -0.000589220               0.004958814              -0.001038241              -0.000840808               0.001933190               0.001092383               0.000000000               0.000000000               0.000000000               0.000000000              -0.000529499               0.004402836              -0.000948120              -0.000748915               0.001717236               0.000968320               0.000000000               0.000000000               0.000000000               0.000000000              -0.000442987               0.003872676              -0.000830175              -0.000650204               0.001507614               0.000857410               0.000000000               0.000000000               0.000000000               0.000000000              -0.000337318               0.003376381              -0.000678418              -0.000548541               0.001308296               0.000759755               0.000000000               0.000000000               0.000000000               0.000000000              -0.000221589               0.002924673              -0.000491600              -0.000448679               0.001124441               0.000675762               0.000000000               0.000000000               0.000000000               0.000000000              -0.000109975               0.002540892              -0.000265121              -0.000358851               0.000966573               0.000607721               0.000000000               0.000000000               0.000000000               0.000000000              -0.000076262               0.002322108              -0.000151869              -0.000318861               0.000880315               0.000561454               0.000000000               0.000000000               0.000000000               0.000000000               0.002279543               0.016081725               0.003928788              -0.001155387               0.005745650               0.004590263               0.000000000               0.000000000               0.000000000               0.000000000               0.000718249               0.013310469               0.001669787              -0.001394463               0.004901599               0.003507137               0.000000000               0.000000000               0.000000000               0.000000000              -0.000240608               0.011496500              -0.000444934              -0.001527287               0.004341224               0.002813937               0.000000000               0.000000000               0.000000000               0.000000000              -0.000821276               0.010229892              -0.001142295              -0.001586711               0.003938834               0.002352122               0.000000000               0.000000000               0.000000000               0.000000000              -0.001126828               0.009239693              -0.001339782              -0.001577519               0.003605706               0.002028188               0.000000000               0.000000000               0.000000000               0.000000000              -0.001259654               0.008399852              -0.001353171              -0.001522348               0.003307372               0.001785023               0.000000000               0.000000000               0.000000000               0.000000000              -0.001282896               0.007645508              -0.001291637              -0.001436771               0.003027401               0.001590630               0.000000000               0.000000000               0.000000000               0.000000000              -0.001235442               0.006960660              -0.001202192              -0.001333370               0.002764653               0.001431283               0.000000000               0.000000000               0.000000000               0.000000000              -0.001142598               0.006328474              -0.001109365              -0.001219531               0.002515980               0.001296449               0.000000000               0.000000000               0.000000000               0.000000000              -0.001013667               0.005741564              -0.001021079              -0.001097818               0.002279775               0.001181957               0.000000000               0.000000000               0.000000000               0.000000000              -0.000858540               0.005194213              -0.000933229              -0.000971227               0.002055129               0.001083902               0.000000000               0.000000000               0.000000000               0.000000000              -0.000688147               0.004684622              -0.000836345              -0.000843631               0.001842735               0.000999104               0.000000000               0.000000000               0.000000000               0.000000000              -0.000515099               0.004227556              -0.000715220              -0.000721605               0.001649706               0.000928101               0.000000000               0.000000000               0.000000000               0.000000000              -0.000347358               0.003841154              -0.000560163              -0.000610402               0.001483839               0.000873437               0.000000000               0.000000000               0.000000000               0.000000000              -0.000199262               0.003538059              -0.000382522              -0.000516979               0.001351667               0.000834688               0.000000000               0.000000000               0.000000000               0.000000000              -0.000084281               0.003342800              -0.000195497              -0.000449454               0.001264074               0.000814619               0.000000000               0.000000000               0.000000000               0.000000000              -0.000036744               0.003273240              -0.000101404              -0.000422933               0.001232047               0.000809114               0.000000000               0.000000000               0.000000000               0.000000000               0.001829134               0.013237167               0.003804765              -0.000968721               0.004735251               0.003766530               0.000000000               0.000000000               0.000000000               0.000000000              -0.000096046               0.011642930               0.001672279              -0.001491381               0.004378065               0.002886684               0.000000000               0.000000000               0.000000000               0.000000000              -0.001457525               0.010846668              -0.000293739              -0.001902401               0.004249653               0.002347253               0.000000000               0.000000000               0.000000000               0.000000000              -0.001995860               0.009981206              -0.000889570              -0.001996093               0.003992400               0.001996306               0.000000000               0.000000000               0.000000000               0.000000000              -0.002133672               0.009157930              -0.001039324              -0.001944864               0.003700901               0.001756037               0.000000000               0.000000000               0.000000000               0.000000000              -0.002078685               0.008382725              -0.001037035              -0.001827343               0.003403328               0.001575985               0.000000000               0.000000000               0.000000000               0.000000000              -0.001924102               0.007663201              -0.000980636              -0.001679434               0.003114186               0.001434752               0.000000000               0.000000000               0.000000000               0.000000000              -0.001714316               0.007011251              -0.000903921              -0.001519271               0.002843484               0.001324213               0.000000000               0.000000000               0.000000000               0.000000000              -0.001475902               0.006411082              -0.000822805              -0.001354845               0.002588621               0.001233776               0.000000000               0.000000000               0.000000000               0.000000000              -0.001220145               0.005858180              -0.000744971              -0.001189824               0.002349315               0.001159491               0.000000000               0.000000000               0.000000000               0.000000000              -0.000960616               0.005353105              -0.000662471              -0.001029367               0.002127472               0.001098106               0.000000000               0.000000000               0.000000000               0.000000000              -0.000706103               0.004901386              -0.000569955              -0.000877460               0.001926265               0.001048806               0.000000000               0.000000000               0.000000000               0.000000000              -0.000475986               0.004519116              -0.000466561              -0.000743382               0.001754151               0.001010769               0.000000000               0.000000000               0.000000000               0.000000000              -0.000281734               0.004228526              -0.000340362              -0.000634214               0.001620899               0.000986685               0.000000000               0.000000000               0.000000000               0.000000000              -0.000133845               0.004038107              -0.000206567              -0.000554954               0.001531007               0.000976053               0.000000000               0.000000000               0.000000000               0.000000000              -0.000042510               0.003948997              -0.000092353              -0.000509565               0.001486174               0.000976609               0.000000000               0.000000000               0.000000000               0.000000000              -0.000007454               0.003939855              -0.000040130              -0.000495276               0.001478364               0.000983088               0.000000000               0.000000000               0.000000000               0.000000000               0.001012273               0.010448431               0.003305764              -0.000926452               0.003791592               0.002865140               0.000000000               0.000000000               0.000000000               0.000000000              -0.001045350               0.010031054               0.001581102              -0.001645885               0.003892279               0.002246394               0.000000000               0.000000000               0.000000000               0.000000000              -0.002600857               0.010162304              -0.000005004              -0.002245604               0.004135935               0.001890332               0.000000000               0.000000000               0.000000000               0.000000000              -0.002973149               0.009621349              -0.000458393              -0.002317594               0.003979615               0.001662022               0.000000000               0.000000000               0.000000000               0.000000000              -0.002889696               0.008928874              -0.000572192              -0.002199740               0.003709508               0.001509768               0.000000000               0.000000000               0.000000000               0.000000000              -0.002627857               0.008222667              -0.000578221              -0.002013275               0.003411953               0.001398678               0.000000000               0.000000000               0.000000000               0.000000000              -0.002294878               0.007557589              -0.000550630              -0.001805274               0.003120929               0.001315655               0.000000000               0.000000000               0.000000000               0.000000000              -0.001934598               0.006949663              -0.000505378              -0.001594178               0.002847924               0.001253746               0.000000000               0.000000000               0.000000000               0.000000000              -0.001569526               0.006388524              -0.000448526              -0.001387134               0.002591865               0.001204731               0.000000000               0.000000000               0.000000000               0.000000000              -0.001215202               0.005877958              -0.000391156              -0.001190443               0.002356114               0.001165671               0.000000000               0.000000000               0.000000000               0.000000000              -0.000890355               0.005419724              -0.000328618              -0.001011346               0.002143672               0.001132326               0.000000000               0.000000000               0.000000000               0.000000000              -0.000600162               0.005030792              -0.000261594              -0.000853908               0.001961550               0.001107642               0.000000000               0.000000000               0.000000000               0.000000000              -0.000358080               0.004726264              -0.000197838              -0.000725061               0.001817093               0.001092031               0.000000000               0.000000000               0.000000000               0.000000000              -0.000178950               0.004513895              -0.000128427              -0.000631342               0.001715064               0.001083722               0.000000000               0.000000000               0.000000000               0.000000000              -0.000065658               0.004393270              -0.000062765              -0.000573779               0.001655668               0.001081889               0.000000000               0.000000000               0.000000000               0.000000000              -0.000012047               0.004350672              -0.000022510              -0.000548350               0.001632993               0.001084643               0.000000000               0.000000000               0.000000000               0.000000000               0.000001408               0.004349505              -0.000010194              -0.000543159               0.001630873               0.001087714               0.000000000               0.000000000               0.000000000               0.000000000              -0.000114928               0.007906635               0.002547287              -0.001031427               0.002979327               0.001947900               0.000000000               0.000000000               0.000000000               0.000000000              -0.002070438               0.008568278               0.001443635              -0.001847445               0.003471879               0.001624434               0.000000000               0.000000000               0.000000000               0.000000000              -0.003567229               0.009439368               0.000399839              -0.002517626               0.003985633               0.001468007               0.000000000               0.000000000               0.000000000               0.000000000              -0.003666874               0.009142352               0.000075379              -0.002517865               0.003886709               0.001368843               0.000000000               0.000000000               0.000000000               0.000000000              -0.003332244               0.008566760              -0.000041131              -0.002320431               0.003629035               0.001308604               0.000000000               0.000000000               0.000000000               0.000000000              -0.002871388               0.007943236              -0.000083048              -0.002069670               0.003337609               0.001267939               0.000000000               0.000000000               0.000000000               0.000000000              -0.002379963               0.007344356              -0.000098903              -0.001810526               0.003051603               0.001241077               0.000000000               0.000000000               0.000000000               0.000000000              -0.001900684               0.006783285              -0.000095187              -0.001560663               0.002781293               0.001220630               0.000000000               0.000000000               0.000000000               0.000000000              -0.001446623               0.006265628              -0.000073798              -0.001325684               0.002530416               0.001204732               0.000000000               0.000000000               0.000000000               0.000000000              -0.001033078               0.005799706              -0.000051563              -0.001112365               0.002304004               0.001191640               0.000000000               0.000000000               0.000000000               0.000000000              -0.000678201               0.005395436              -0.000029732              -0.000928753               0.002108045               0.001179292               0.000000000               0.000000000               0.000000000               0.000000000              -0.000392532               0.005073068              -0.000013090              -0.000781331               0.001951450               0.001170119               0.000000000               0.000000000               0.000000000               0.000000000              -0.000184023               0.004842502              -0.000006240              -0.000674320               0.001838924               0.001164605               0.000000000               0.000000000               0.000000000               0.000000000              -0.000054996               0.004699241              -0.000000780              -0.000608027               0.001769074               0.001161047               0.000000000               0.000000000               0.000000000               0.000000000               0.000000988               0.004637361               0.000003005              -0.000579298               0.001738871               0.001159573               0.000000000               0.000000000               0.000000000               0.000000000               0.000009175               0.004633896              -0.000000271              -0.000575795               0.001736548               0.001160753               0.000000000               0.000000000               0.000000000               0.000000000               0.000006409               0.004648825              -0.000001689              -0.000578698               0.001742492               0.001163794               0.000000000               0.000000000               0.000000000               0.000000000              -0.001426629               0.005787840               0.001648820              -0.001258463               0.002348748               0.001090285               0.000000000               0.000000000               0.000000000               0.000000000              -0.003071311               0.007263576               0.001299286              -0.002059684               0.003107729               0.001048045               0.000000000               0.000000000               0.000000000               0.000000000              -0.004327270               0.008697116               0.000880515              -0.002709859               0.003802296               0.001092437               0.000000000               0.000000000               0.000000000               0.000000000              -0.004141758               0.008650178               0.000636302              -0.002634425               0.003761505               0.001127080               0.000000000               0.000000000               0.000000000               0.000000000              -0.003595170               0.008220081               0.000485355              -0.002375693               0.003531897               0.001156204               0.000000000               0.000000000               0.000000000               0.000000000              -0.002974051               0.007695957               0.000389005              -0.002077259               0.003257713               0.001180454               0.000000000               0.000000000               0.000000000               0.000000000              -0.002358154               0.007174136               0.000326345              -0.001781070               0.002985045               0.001203975               0.000000000               0.000000000               0.000000000               0.000000000              -0.001783728               0.006669522               0.000282079              -0.001502584               0.002724013               0.001221429               0.000000000               0.000000000               0.000000000               0.000000000              -0.001267316               0.006195621               0.000254197              -0.001249693               0.002481751               0.001232058               0.000000000               0.000000000               0.000000000               0.000000000              -0.000816871               0.005768994               0.000231228              -0.001027448               0.002265462               0.001238013               0.000000000               0.000000000               0.000000000               0.000000000              -0.000445790               0.005404401               0.000204271              -0.000842719               0.002082355               0.001239636               0.000000000               0.000000000               0.000000000               0.000000000              -0.000166751               0.005124708               0.000165407              -0.000703119               0.001942592               0.001239473               0.000000000               0.000000000               0.000000000               0.000000000               0.000008569               0.004934602               0.000114784              -0.000613610               0.001849388               0.001235777               0.000000000               0.000000000               0.000000000               0.000000000               0.000087351               0.004829726               0.000064020              -0.000570958               0.001800212               0.001229254               0.000000000               0.000000000               0.000000000               0.000000000               0.000093123               0.004804489               0.000022855              -0.000565639               0.001790026               0.001224388               0.000000000               0.000000000               0.000000000               0.000000000               0.000065193               0.004833587              -0.000001816              -0.000579750               0.001804429               0.001224680               0.000000000               0.000000000               0.000000000               0.000000000               0.000047430               0.004862559              -0.000008158              -0.000590032               0.001817514               0.001227482               0.000000000               0.000000000               0.000000000               0.000000000              -0.002937057               0.003842870               0.000717624              -0.001581752               0.001808194               0.000226442               0.000000000               0.000000000               0.000000000               0.000000000              -0.003921461               0.005756207               0.001145443              -0.002190069               0.002648739               0.000458670               0.000000000               0.000000000               0.000000000               0.000000000              -0.004800725               0.007585663               0.001381758              -0.002748473               0.003444686               0.000696213               0.000000000               0.000000000               0.000000000               0.000000000              -0.004463679               0.007920448               0.001224902              -0.002663929               0.003528099               0.000864170               0.000000000               0.000000000               0.000000000               0.000000000              -0.003829555               0.007762104               0.001039482              -0.002406340               0.003389455               0.000983115               0.000000000               0.000000000               0.000000000               0.000000000              -0.003143905               0.007436439               0.000886558              -0.002108514               0.003181626               0.001073112               0.000000000               0.000000000               0.000000000               0.000000000              -0.002480018               0.007068359               0.000767487              -0.001813547               0.002960612               0.001147064               0.000000000               0.000000000               0.000000000               0.000000000              -0.001866284               0.006692431               0.000666778              -0.001536407               0.002742923               0.001206517               0.000000000               0.000000000               0.000000000               0.000000000              -0.001321385               0.006314862               0.000582644              -0.001284874               0.002533224               0.001248350               0.000000000               0.000000000               0.000000000               0.000000000              -0.000848254               0.005942424               0.000513682              -0.001060896               0.002334420               0.001273524               0.000000000               0.000000000               0.000000000               0.000000000              -0.000448837               0.005595087               0.000444581              -0.000867698               0.002154243               0.001286545               0.000000000               0.000000000               0.000000000               0.000000000              -0.000134895               0.005303146               0.000359029              -0.000713477               0.002005523               0.001292046               0.000000000               0.000000000               0.000000000               0.000000000               0.000081168               0.005086158               0.000260370              -0.000605330               0.001897146               0.001291816               0.000000000               0.000000000               0.000000000               0.000000000               0.000195224               0.004951711               0.000160362              -0.000545754               0.001832472               0.001286718               0.000000000               0.000000000               0.000000000               0.000000000               0.000226585               0.004907094               0.000075886              -0.000528416               0.001811820               0.001283404               0.000000000               0.000000000               0.000000000               0.000000000               0.000204758               0.004933364               0.000022149              -0.000539885               0.001824400               0.001284515               0.000000000               0.000000000               0.000000000               0.000000000               0.000169081               0.004949004              -0.000001316              -0.000555219               0.001834724               0.001279506               0.000000000               0.000000000               0.000000000               0.000000000              -0.004844815               0.002100595              -0.000170825              -0.002079376               0.001393315              -0.000686062               0.000000000               0.000000000               0.000000000               0.000000000              -0.004884663               0.004237904               0.000937144              -0.002361482               0.002199780              -0.000161702               0.000000000               0.000000000               0.000000000               0.000000000              -0.005199270               0.006263715               0.001784928              -0.002732684               0.002998778               0.000266094               0.000000000               0.000000000               0.000000000               0.000000000              -0.004729989               0.006959178               0.001784149              -0.002643637               0.003200915               0.000557278               0.000000000               0.000000000               0.000000000               0.000000000              -0.004047897               0.007107461               0.001603830              -0.002406388               0.003171259               0.000764871               0.000000000               0.000000000               0.000000000               0.000000000              -0.003337719               0.007020573               0.001409272              -0.002129211               0.003049904               0.000920693               0.000000000               0.000000000               0.000000000               0.000000000              -0.002655756               0.006842280               0.001234945              -0.001851189               0.002897800               0.001046611               0.000000000               0.000000000               0.000000000               0.000000000              -0.002021037               0.006621535               0.001078754              -0.001585577               0.002735682               0.001150105               0.000000000               0.000000000               0.000000000               0.000000000              -0.001445801               0.006367865               0.000944483              -0.001338155               0.002568652               0.001230497               0.000000000               0.000000000               0.000000000               0.000000000              -0.000935534               0.006085141               0.000834438              -0.001111465               0.002398848               0.001287383               0.000000000               0.000000000               0.000000000               0.000000000              -0.000490832               0.005786790               0.000731803              -0.000907409               0.002231380               0.001323972               0.000000000               0.000000000               0.000000000               0.000000000              -0.000111948               0.005505172               0.000617170              -0.000730125               0.002078414               0.001348289               0.000000000               0.000000000               0.000000000               0.000000000               0.000187942               0.005268106               0.000483672              -0.000588034               0.001952029               0.001363995               0.000000000               0.000000000               0.000000000               0.000000000               0.000388714               0.005093161               0.000337734              -0.000490876               0.001861329               0.001370453               0.000000000               0.000000000               0.000000000               0.000000000               0.000485906               0.004995484               0.000201026              -0.000442220               0.001812551               0.001370332               0.000000000               0.000000000               0.000000000               0.000000000               0.000488401               0.004971400               0.000087998              -0.000438274               0.001803208               0.001364934               0.000000000               0.000000000               0.000000000               0.000000000               0.000438910               0.004957500               0.000027879              -0.000455095               0.001804182               0.001349087               0.000000000               0.000000000               0.000000000               0.000000000              -0.007014500               0.000702246              -0.000924362              -0.002718215               0.001140146              -0.001578070               0.000000000               0.000000000               0.000000000               0.000000000              -0.005998323               0.002809283               0.000668703              -0.002600527               0.001803258              -0.000797269               0.000000000               0.000000000               0.000000000               0.000000000              -0.005544959               0.004754158               0.001989371              -0.002673624               0.002475910              -0.000197714               0.000000000               0.000000000               0.000000000               0.000000000              -0.004856668               0.005694206               0.002180580              -0.002533020               0.002742389               0.000209369               0.000000000               0.000000000               0.000000000               0.000000000              -0.004118614               0.006126019               0.002055622              -0.002310228               0.002812061               0.000501834               0.000000000               0.000000000               0.000000000               0.000000000              -0.003395580               0.006294554               0.001856210              -0.002060157               0.002784882               0.000724725               0.000000000               0.000000000               0.000000000               0.000000000              -0.002709880               0.006328743               0.001653515              -0.001807294               0.002711991               0.000904697               0.000000000               0.000000000               0.000000000               0.000000000              -0.002066276               0.006283818               0.001462351              -0.001560327               0.002614694               0.001054367               0.000000000               0.000000000               0.000000000               0.000000000              -0.001470857               0.006177622               0.001294107              -0.001323771               0.002500443               0.001176672               0.000000000               0.000000000               0.000000000               0.000000000              -0.000929133               0.006021146               0.001151811              -0.001101066               0.002374050               0.001272985               0.000000000               0.000000000               0.000000000               0.000000000              -0.000440785               0.005824131               0.001023115              -0.000893309               0.002239127               0.001345818               0.000000000               0.000000000               0.000000000               0.000000000              -0.000003704               0.005605479               0.000888266              -0.000702072               0.002102498               0.001400426               0.000000000               0.000000000               0.000000000               0.000000000               0.000372123               0.005389775               0.000730236              -0.000534174               0.001974632               0.001440457               0.000000000               0.000000000               0.000000000               0.000000000               0.000669305               0.005208436               0.000549001              -0.000400064               0.001869483               0.001469418               0.000000000               0.000000000               0.000000000               0.000000000               0.000869652               0.005084829               0.000362417              -0.000309483               0.001798087               0.001488604               0.000000000               0.000000000               0.000000000               0.000000000               0.000955607               0.005023217               0.000180959              -0.000269549               0.001764239               0.001494690               0.000000000               0.000000000               0.000000000               0.000000000               0.000944530               0.004992489               0.000084198              -0.000269862               0.001754100               0.001484239               0.000000000               0.000000000               0.000000000               0.000000000              -0.009286999              -0.000283843              -0.001428923              -0.003447142               0.001054425              -0.002392717               0.000000000               0.000000000               0.000000000               0.000000000              -0.007188805               0.001548915               0.000384516              -0.002889413               0.001479432              -0.001409980               0.000000000               0.000000000               0.000000000               0.000000000              -0.005855132               0.003186722               0.001965748              -0.002594010               0.001926897              -0.000667113               0.000000000               0.000000000               0.000000000               0.000000000              -0.004865286               0.004238121               0.002322745              -0.002354243               0.002197439              -0.000156804               0.000000000               0.000000000               0.000000000               0.000000000              -0.004040293               0.004894019               0.002279041              -0.002126858               0.002340275               0.000213418               0.000000000               0.000000000               0.000000000               0.000000000              -0.003297101               0.005295630               0.002112423              -0.001898363               0.002397979               0.000499616               0.000000000               0.000000000               0.000000000               0.000000000              -0.002616013               0.005537743               0.001916517              -0.001673219               0.002403635               0.000730416               0.000000000               0.000000000               0.000000000               0.000000000              -0.001973348               0.005677393               0.001721867              -0.001449677               0.002375671               0.000925994               0.000000000               0.000000000               0.000000000               0.000000000              -0.001371560               0.005736323               0.001543215              -0.001231373               0.002322546               0.001091173               0.000000000               0.000000000               0.000000000               0.000000000              -0.000808238               0.005729310               0.001388817              -0.001019251               0.002249501               0.001230250               0.000000000               0.000000000               0.000000000               0.000000000              -0.000281268               0.005662534               0.001249304              -0.000813291               0.002158589               0.001345298               0.000000000               0.000000000               0.000000000               0.000000000               0.000208477               0.005545210               0.001104350              -0.000614971               0.002053375               0.001438404               0.000000000               0.000000000               0.000000000               0.000000000               0.000659609               0.005402069               0.000934491              -0.000427904               0.001943306               0.001515402               0.000000000               0.000000000               0.000000000               0.000000000               0.001061621               0.005259173               0.000735558              -0.000259289               0.001839470               0.001580181               0.000000000               0.000000000               0.000000000               0.000000000               0.001394637               0.005139987               0.000516279              -0.000119510               0.001753148               0.001633639               0.000000000               0.000000000               0.000000000               0.000000000               0.001627981               0.005057812               0.000273430              -0.000021734               0.001693165               0.001671431               0.000000000               0.000000000               0.000000000               0.000000000               0.001722661               0.005028211               0.000147980               0.000017471               0.001670230               0.001687701               0.000000000               0.000000000               0.000000000               0.000000000              -0.011449506              -0.000883392              -0.001584543              -0.004183138               0.001099907              -0.003083231               0.000000000               0.000000000               0.000000000               0.000000000              -0.008352915               0.000529840               0.000144201              -0.003198570               0.001242795              -0.001955775               0.000000000               0.000000000               0.000000000               0.000000000              -0.006132732               0.001726823               0.001707460              -0.002515624               0.001414139              -0.001101485               0.000000000               0.000000000               0.000000000               0.000000000              -0.004795102               0.002764946               0.002148339              -0.002143778               0.001636229              -0.000507549               0.000000000               0.000000000               0.000000000               0.000000000              -0.003844375               0.003558475               0.002182363              -0.001886446               0.001814961              -0.000071486               0.000000000               0.000000000               0.000000000               0.000000000              -0.003069740               0.004144427               0.002068143              -0.001669202               0.001937862               0.000268659               0.000000000               0.000000000               0.000000000               0.000000000              -0.002386634               0.004571993               0.001908457              -0.001466484               0.002012810               0.000546326               0.000000000               0.000000000               0.000000000               0.000000000              -0.001751334               0.004886962               0.001739627              -0.001267618               0.002051510               0.000783892               0.000000000               0.000000000               0.000000000               0.000000000              -0.001146400               0.005104307               0.001578550              -0.001067936               0.002057397               0.000989461               0.000000000               0.000000000               0.000000000               0.000000000              -0.000568864               0.005237416               0.001437117              -0.000868000               0.002035121               0.001167121               0.000000000               0.000000000               0.000000000               0.000000000              -0.000015267               0.005303430               0.001306396              -0.000668653               0.001990676               0.001322023               0.000000000               0.000000000               0.000000000               0.000000000               0.000519141               0.005310894               0.001170779              -0.000469183               0.001926674               0.001457491               0.000000000               0.000000000               0.000000000               0.000000000               0.001043121               0.005272620               0.001013478              -0.000267907               0.001846825               0.001578917               0.000000000               0.000000000               0.000000000               0.000000000               0.001556968               0.005206162               0.000822928              -0.000066908               0.001757672               0.001690765               0.000000000               0.000000000               0.000000000               0.000000000               0.002039171               0.005129377               0.000596377               0.000123516               0.001668603               0.001792119               0.000000000               0.000000000               0.000000000               0.000000000               0.002464821               0.005059175               0.000323756               0.000291908               0.001589072               0.001880980               0.000000000               0.000000000               0.000000000               0.000000000               0.002719131               0.005052039               0.000187194               0.000388165               0.001554608               0.001942773               0.000000000               0.000000000               0.000000000               0.000000000              -0.013246599              -0.001176966              -0.001351228              -0.004820351               0.001214453              -0.003605898               0.000000000               0.000000000               0.000000000               0.000000000              -0.009352814              -0.000199919              -0.000002961              -0.003482313               0.001094124              -0.002388189               0.000000000               0.000000000               0.000000000               0.000000000              -0.006375897               0.000541732               0.001248468              -0.002458675               0.001000129              -0.001458547               0.000000000               0.000000000               0.000000000               0.000000000              -0.004703653               0.001489157               0.001649760              -0.001950012               0.001146381              -0.000803631               0.000000000               0.000000000               0.000000000               0.000000000              -0.003609060               0.002341759               0.001722773              -0.001646115               0.001329281              -0.000316833               0.000000000               0.000000000               0.000000000               0.000000000              -0.002786316               0.003047369               0.001663428              -0.001425787               0.001491041               0.000065254               0.000000000               0.000000000               0.000000000               0.000000000              -0.002092293               0.003613948               0.001554839              -0.001236351               0.001616754               0.000380403               0.000000000               0.000000000               0.000000000               0.000000000              -0.001461105               0.004061404               0.001433480              -0.001055588               0.001705650               0.000650062               0.000000000               0.000000000               0.000000000               0.000000000              -0.000858473               0.004403304               0.001313844              -0.000872339               0.001758533               0.000886194               0.000000000               0.000000000               0.000000000               0.000000000              -0.000274498               0.004659524               0.001204579              -0.000685376               0.001781618               0.001096241               0.000000000               0.000000000               0.000000000               0.000000000               0.000296101               0.004849509               0.001102338              -0.000495150               0.001781537               0.001286387               0.000000000               0.000000000               0.000000000               0.000000000               0.000865492               0.004975201               0.001001661              -0.000297340               0.001757497               0.001460157               0.000000000               0.000000000               0.000000000               0.000000000               0.001450382               0.005040532               0.000888182              -0.000086174               0.001708885               0.001622711               0.000000000               0.000000000               0.000000000               0.000000000               0.002057303               0.005067093               0.000738160               0.000138100               0.001642981               0.001781081               0.000000000               0.000000000               0.000000000               0.000000000               0.002681273               0.005065007               0.000544129               0.000372348               0.001564203               0.001936551               0.000000000               0.000000000               0.000000000               0.000000000               0.003318836               0.005038271               0.000299191               0.000614774               0.001474482               0.002089256               0.000000000               0.000000000               0.000000000               0.000000000               0.003762552               0.005066398               0.000179270               0.000777649               0.001429566               0.002207216               0.000000000               0.000000000               0.000000000               0.000000000              -0.014435083              -0.001284109              -0.000775414              -0.005252639               0.001322835              -0.003929805               0.000000000               0.000000000               0.000000000               0.000000000              -0.010032296              -0.000628408              -0.000040840              -0.003683557               0.001018376              -0.002665181               0.000000000               0.000000000               0.000000000               0.000000000              -0.006550718              -0.000226120               0.000652939              -0.002428253               0.000734039              -0.001694214               0.000000000               0.000000000               0.000000000               0.000000000              -0.004632649               0.000623506               0.000892529              -0.001815180               0.000812889              -0.001002290               0.000000000               0.000000000               0.000000000               0.000000000              -0.003417680               0.001487519               0.000949184              -0.001467568               0.000985022              -0.000482546               0.000000000               0.000000000               0.000000000               0.000000000              -0.002543642               0.002250795               0.000928453              -0.001235212               0.001161994              -0.000073218               0.000000000               0.000000000               0.000000000               0.000000000              -0.001836834               0.002894729               0.000875908              -0.001050651               0.001315117               0.000264465               0.000000000               0.000000000               0.000000000               0.000000000              -0.001210382               0.003423409               0.000812722              -0.000881818               0.001435064               0.000553246               0.000000000               0.000000000               0.000000000               0.000000000              -0.000619616               0.003852114               0.000747651              -0.000713869               0.001521981               0.000808112               0.000000000               0.000000000               0.000000000               0.000000000              -0.000038076               0.004202189               0.000687159              -0.000539551               0.001580566               0.001041015               0.000000000               0.000000000               0.000000000               0.000000000               0.000545414               0.004480766               0.000631749              -0.000355565               0.001612095               0.001256531               0.000000000               0.000000000               0.000000000               0.000000000               0.001141418               0.004693299               0.000583765              -0.000158631               0.001617294               0.001458664               0.000000000               0.000000000               0.000000000               0.000000000               0.001759971               0.004842152               0.000528783               0.000054719               0.001595795               0.001650514               0.000000000               0.000000000               0.000000000               0.000000000               0.002422646               0.004940477               0.000444628               0.000290930               0.001549833               0.001840762               0.000000000               0.000000000               0.000000000               0.000000000               0.003154315               0.004996501               0.000332887               0.000558300               0.001479384               0.002037684               0.000000000               0.000000000               0.000000000               0.000000000               0.003971329               0.005009599               0.000188377               0.000863040               0.001382170               0.002245210               0.000000000               0.000000000               0.000000000               0.000000000               0.004583622               0.005070427               0.000117608               0.001085044               0.001328444               0.002413488               0.000000000               0.000000000               0.000000000               0.000000000              -0.014850879              -0.001310595               0.000000000              -0.005405252               0.001364877              -0.004040375               0.000000000               0.000000000               0.000000000               0.000000000              -0.010273315              -0.000771287               0.000000000              -0.003756080               0.000994924              -0.002761156               0.000000000               0.000000000               0.000000000               0.000000000              -0.006614394              -0.000489726              -0.000000000              -0.002419180               0.000643147              -0.001776033               0.000000000               0.000000000               0.000000000               0.000000000              -0.004604619               0.000319038              -0.000000000              -0.001766610               0.000695211              -0.001071399               0.000000000               0.000000000               0.000000000               0.000000000              -0.003341360               0.001180754               0.000000000              -0.001400602               0.000860446              -0.000540156               0.000000000               0.000000000               0.000000000               0.000000000              -0.002445061               0.001962979               0.000000000              -0.001162268               0.001041742              -0.000120526               0.000000000               0.000000000               0.000000000               0.000000000              -0.001731419               0.002628011               0.000000000              -0.000977781               0.001201922               0.000224141               0.000000000               0.000000000               0.000000000               0.000000000              -0.001112340               0.003177661               0.000000000              -0.000814333               0.001330654               0.000516321               0.000000000               0.000000000               0.000000000               0.000000000              -0.000528054               0.003640858               0.000000000              -0.000653126               0.001431316               0.000778190               0.000000000               0.000000000               0.000000000               0.000000000               0.000052463               0.004030877               0.000000000              -0.000484185               0.001505007               0.001020822               0.000000000               0.000000000               0.000000000               0.000000000               0.000643134               0.004342698              -0.000000000              -0.000301662               0.001548105               0.001246444               0.000000000               0.000000000               0.000000000               0.000000000               0.001249123               0.004587528               0.000000000              -0.000105020               0.001564167               0.001459147               0.000000000               0.000000000               0.000000000               0.000000000               0.001873615               0.004768623              -0.000000000               0.000106527               0.001554016               0.001660543               0.000000000               0.000000000               0.000000000               0.000000000               0.002555881               0.004896697               0.000000000               0.000346365               0.001516761               0.001863126               0.000000000               0.000000000               0.000000000               0.000000000               0.003334163               0.004976921               0.000000000               0.000628190               0.001449560               0.002077750               0.000000000               0.000000000               0.000000000               0.000000000               0.004224363               0.005001365               0.000000000               0.000958956               0.001347453               0.002306409               0.000000000               0.000000000               0.000000000               0.000000000               0.004905900               0.005071945               0.000000000               0.001205707               0.001288729               0.002494436               0.000000000               0.000000000               0.000000000               0.000000000               0.002180713               0.022832336              -0.000000000              -0.002036270               0.008289459               0.006253190               0.000000000               0.000000000               0.000000000               0.000000000               0.002084640               0.017426184              -0.000000000              -0.001396530               0.006274180               0.004877650               0.000000000               0.000000000               0.000000000               0.000000000               0.002672882               0.013041702              -0.000000000              -0.000627881               0.004556484               0.003928604               0.000000000               0.000000000               0.000000000               0.000000000               0.002480657               0.010563105              -0.000000000              -0.000390141               0.003651047               0.003260906               0.000000000               0.000000000               0.000000000               0.000000000               0.002081331               0.008985661              -0.000000000              -0.000342708               0.003109426               0.002766719               0.000000000               0.000000000               0.000000000               0.000000000               0.001645905               0.007876230               0.000000000              -0.000367314               0.002747822               0.002380508               0.000000000               0.000000000               0.000000000               0.000000000               0.001244713               0.007021677              -0.000000000              -0.000410941               0.002477516               0.002066575               0.000000000               0.000000000               0.000000000               0.000000000               0.000898532               0.006298178               0.000000000              -0.000450322               0.002249479               0.001799157               0.000000000               0.000000000               0.000000000               0.000000000               0.000610194               0.005640525               0.000000000              -0.000476242               0.002038903               0.001562662               0.000000000               0.000000000               0.000000000               0.000000000               0.000378937               0.005015846               0.000000000              -0.000484878               0.001833558               0.001348680               0.000000000               0.000000000               0.000000000               0.000000000               0.000191396               0.004401538               0.000000000              -0.000478418               0.001626637               0.001148220               0.000000000               0.000000000               0.000000000               0.000000000               0.000036916               0.003782021               0.000000000              -0.000458908               0.001413630               0.000954722               0.000000000               0.000000000               0.000000000               0.000000000              -0.000072887               0.003140114              -0.000000000              -0.000419846               0.001186643               0.000766797               0.000000000               0.000000000               0.000000000               0.000000000              -0.000130771               0.002451235              -0.000000000              -0.000355443               0.000935551               0.000580108               0.000000000               0.000000000               0.000000000               0.000000000              -0.000135521               0.001693427               0.000000000              -0.000262498               0.000651969               0.000389471               0.000000000               0.000000000               0.000000000               0.000000000              -0.000082896               0.000843169              -0.000000000              -0.000136482               0.000326547               0.000190065               0.000000000               0.000000000               0.000000000               0.000000000              -0.000111758               0.000195279              -0.000000000              -0.000066319               0.000087199               0.000020879               0.000000000               0.000000000               0.000000000               0.000000000               0.002234540               0.022325299              -0.001485438              -0.001952706               0.008092594               0.006139888               0.000000000               0.000000000               0.000000000               0.000000000               0.002008423               0.017109342              -0.000635003              -0.001385506               0.006164892               0.004779386               0.000000000               0.000000000               0.000000000               0.000000000               0.002458937               0.012922346               0.000194870              -0.000693190               0.004538469               0.003845279               0.000000000               0.000000000               0.000000000               0.000000000               0.002215033               0.010547163               0.000525013              -0.000487757               0.003678272               0.003190515               0.000000000               0.000000000               0.000000000               0.000000000               0.001806910               0.009025269               0.000647033              -0.000450567               0.003158582               0.002708015               0.000000000               0.000000000               0.000000000               0.000000000               0.001388853               0.007942602               0.000680092              -0.000472004               0.002804842               0.002332838               0.000000000               0.000000000               0.000000000               0.000000000               0.001013817               0.007098176               0.000669407              -0.000507090               0.002535065               0.002027975               0.000000000               0.000000000               0.000000000               0.000000000               0.000696091               0.006378079               0.000637574              -0.000536225               0.002304747               0.001768522               0.000000000               0.000000000               0.000000000               0.000000000               0.000438790               0.005722008               0.000601618              -0.000550704               0.002090885               0.001540181               0.000000000               0.000000000               0.000000000               0.000000000               0.000234491               0.005098741               0.000566550              -0.000549407               0.001882699               0.001333292               0.000000000               0.000000000               0.000000000               0.000000000               0.000072119               0.004486803               0.000533787              -0.000533805               0.001673521               0.001139716               0.000000000               0.000000000               0.000000000               0.000000000              -0.000051851               0.003875433               0.000498296              -0.000503872               0.001459755               0.000955883               0.000000000               0.000000000               0.000000000               0.000000000              -0.000133288               0.003246612               0.000448359              -0.000455809               0.001234129               0.000778321               0.000000000               0.000000000               0.000000000               0.000000000              -0.000168853               0.002580287               0.000379877              -0.000385855               0.000988705               0.000602850               0.000000000               0.000000000               0.000000000               0.000000000              -0.000156000               0.001863662               0.000288387              -0.000291457               0.000718367               0.000426910               0.000000000               0.000000000               0.000000000               0.000000000              -0.000092579               0.001084708               0.000163188              -0.000170305               0.000418334               0.000248029               0.000000000               0.000000000               0.000000000               0.000000000              -0.000110985               0.000504271               0.000102830              -0.000104653               0.000202973               0.000098320               0.000000000               0.000000000               0.000000000               0.000000000               0.002353290               0.020887150              -0.002738739              -0.001728407               0.007538449               0.005810042               0.000000000               0.000000000               0.000000000               0.000000000               0.001771795               0.016215551              -0.001166036              -0.001362518               0.005859302               0.004496784               0.000000000               0.000000000               0.000000000               0.000000000               0.001845020               0.012585725               0.000357179              -0.000881331               0.004488977               0.003607646               0.000000000               0.000000000               0.000000000               0.000000000               0.001474484               0.010495580               0.000941826              -0.000759014               0.003751496               0.002992482               0.000000000               0.000000000               0.000000000               0.000000000               0.001057191               0.009120286               0.001145715              -0.000743588               0.003287927               0.002544340               0.000000000               0.000000000               0.000000000               0.000000000               0.000684526               0.008106829               0.001191434              -0.000756655               0.002954467               0.002197812               0.000000000               0.000000000               0.000000000               0.000000000               0.000381018               0.007285736               0.001163045              -0.000767834               0.002684499               0.001916665               0.000000000               0.000000000               0.000000000               0.000000000               0.000150320               0.006570474               0.001102377              -0.000764938               0.002445115               0.001680177               0.000000000               0.000000000               0.000000000               0.000000000              -0.000018042               0.005917880               0.001035298              -0.000746499               0.002221440               0.001474941               0.000000000               0.000000000               0.000000000               0.000000000              -0.000141733               0.005298510               0.000969122              -0.000715462               0.002004639               0.001289177               0.000000000               0.000000000               0.000000000               0.000000000              -0.000228157               0.004699628               0.000906778              -0.000673011               0.001790864               0.001117853               0.000000000               0.000000000               0.000000000               0.000000000              -0.000277734               0.004109184               0.000839045              -0.000617797               0.001575647               0.000957849               0.000000000               0.000000000               0.000000000               0.000000000              -0.000286821               0.003517726               0.000745885              -0.000547273               0.001354988               0.000807715               0.000000000               0.000000000               0.000000000               0.000000000              -0.000258429               0.002920195               0.000622567              -0.000461934               0.001127367               0.000665432               0.000000000               0.000000000               0.000000000               0.000000000              -0.000195981               0.002318038               0.000465595              -0.000363247               0.000893754               0.000530507               0.000000000               0.000000000               0.000000000               0.000000000              -0.000105145               0.001716523               0.000259111              -0.000253994               0.000656833               0.000402839               0.000000000               0.000000000               0.000000000               0.000000000              -0.000097615               0.001302676               0.000156844              -0.000199440               0.000500701               0.000301261               0.000000000               0.000000000               0.000000000               0.000000000               0.002415501               0.018722332              -0.003581352              -0.001434477               0.006718874               0.005284396               0.000000000               0.000000000               0.000000000               0.000000000               0.001348722               0.014891465              -0.001515914              -0.001355660               0.005415658               0.004059998               0.000000000               0.000000000               0.000000000               0.000000000               0.000910858               0.012090433               0.000455423              -0.001169730               0.004420014               0.003250284               0.000000000               0.000000000               0.000000000               0.000000000               0.000400179               0.010394353               0.001163533              -0.001149225               0.003847824               0.002698600               0.000000000               0.000000000               0.000000000               0.000000000               0.000002725               0.009209260               0.001388078              -0.001150133               0.003453100               0.002302967               0.000000000               0.000000000               0.000000000               0.000000000              -0.000277767               0.008286439               0.001422507              -0.001139965               0.003142107               0.002002142               0.000000000               0.000000000               0.000000000               0.000000000              -0.000460493               0.007499887               0.001373868              -0.001110169               0.002869993               0.001759825               0.000000000               0.000000000               0.000000000               0.000000000              -0.000562825               0.006794150               0.001294049              -0.001060326               0.002618136               0.001557810               0.000000000               0.000000000               0.000000000               0.000000000              -0.000608875               0.006145493               0.001206095              -0.000996513               0.002380648               0.001384135               0.000000000               0.000000000               0.000000000               0.000000000              -0.000616226               0.005536513               0.001120128              -0.000923147               0.002153202               0.001230054               0.000000000               0.000000000               0.000000000               0.000000000              -0.000589220               0.004958814               0.001038241              -0.000840808               0.001933190               0.001092383               0.000000000               0.000000000               0.000000000               0.000000000              -0.000529499               0.004402836               0.000948120              -0.000748915               0.001717236               0.000968320               0.000000000               0.000000000               0.000000000               0.000000000              -0.000442987               0.003872676               0.000830175              -0.000650204               0.001507614               0.000857410               0.000000000               0.000000000               0.000000000               0.000000000              -0.000337318               0.003376381               0.000678418              -0.000548541               0.001308296               0.000759755               0.000000000               0.000000000               0.000000000               0.000000000              -0.000221589               0.002924673               0.000491600              -0.000448679               0.001124441               0.000675762               0.000000000               0.000000000               0.000000000               0.000000000              -0.000109975               0.002540892               0.000265121              -0.000358851               0.000966573               0.000607721               0.000000000               0.000000000               0.000000000               0.000000000              -0.000076262               0.002322108               0.000151869              -0.000318861               0.000880315               0.000561454               0.000000000               0.000000000               0.000000000               0.000000000               0.002279543               0.016081725              -0.003928788              -0.001155387               0.005745650               0.004590263               0.000000000               0.000000000               0.000000000               0.000000000               0.000718249               0.013310469              -0.001669787              -0.001394463               0.004901599               0.003507137               0.000000000               0.000000000               0.000000000               0.000000000              -0.000240608               0.011496500               0.000444934              -0.001527287               0.004341224               0.002813937               0.000000000               0.000000000               0.000000000               0.000000000              -0.000821276               0.010229892               0.001142295              -0.001586711               0.003938834               0.002352122               0.000000000               0.000000000               0.000000000               0.000000000              -0.001126828               0.009239693               0.001339782              -0.001577519               0.003605706               0.002028188               0.000000000               0.000000000               0.000000000               0.000000000              -0.001259654               0.008399852               0.001353171              -0.001522348               0.003307372               0.001785023               0.000000000               0.000000000               0.000000000               0.000000000              -0.001282896               0.007645508               0.001291637              -0.001436771               0.003027401               0.001590630               0.000000000               0.000000000               0.000000000               0.000000000              -0.001235442               0.006960660               0.001202192              -0.001333370               0.002764653               0.001431283               0.000000000               0.000000000               0.000000000               0.000000000              -0.001142598               0.006328474               0.001109365              -0.001219531               0.002515980               0.001296449               0.000000000               0.000000000               0.000000000               0.000000000              -0.001013667               0.005741564               0.001021079              -0.001097818               0.002279775               0.001181957               0.000000000               0.000000000               0.000000000               0.000000000              -0.000858540               0.005194213               0.000933229              -0.000971227               0.002055129               0.001083902               0.000000000               0.000000000               0.000000000               0.000000000              -0.000688147               0.004684622               0.000836345              -0.000843631               0.001842735               0.000999104               0.000000000               0.000000000               0.000000000               0.000000000              -0.000515099               0.004227556               0.000715220              -0.000721605               0.001649706               0.000928101               0.000000000               0.000000000               0.000000000               0.000000000              -0.000347358               0.003841154               0.000560163              -0.000610402               0.001483839               0.000873437               0.000000000               0.000000000               0.000000000               0.000000000              -0.000199262               0.003538059               0.000382522              -0.000516979               0.001351667               0.000834688               0.000000000               0.000000000               0.000000000               0.000000000              -0.000084281               0.003342800               0.000195497              -0.000449454               0.001264074               0.000814619               0.000000000               0.000000000               0.000000000               0.000000000              -0.000036744               0.003273240               0.000101404              -0.000422933               0.001232047               0.000809114               0.000000000               0.000000000               0.000000000               0.000000000               0.001829134               0.013237167              -0.003804765              -0.000968721               0.004735251               0.003766530               0.000000000               0.000000000               0.000000000               0.000000000              -0.000096046               0.011642930              -0.001672279              -0.001491381               0.004378065               0.002886684               0.000000000               0.000000000               0.000000000               0.000000000              -0.001457525               0.010846668               0.000293739              -0.001902401               0.004249653               0.002347253               0.000000000               0.000000000               0.000000000               0.000000000              -0.001995860               0.009981206               0.000889570              -0.001996093               0.003992400               0.001996306               0.000000000               0.000000000               0.000000000               0.000000000              -0.002133672               0.009157930               0.001039324              -0.001944864               0.003700901               0.001756037               0.000000000               0.000000000               0.000000000               0.000000000              -0.002078685               0.008382725               0.001037035              -0.001827343               0.003403328               0.001575985               0.000000000               0.000000000               0.000000000               0.000000000              -0.001924102               0.007663201               0.000980636              -0.001679434               0.003114186               0.001434752               0.000000000               0.000000000               0.000000000               0.000000000              -0.001714316               0.007011251               0.000903921              -0.001519271               0.002843484               0.001324213               0.000000000               0.000000000               0.000000000               0.000000000              -0.001475902               0.006411082               0.000822805              -0.001354845               0.002588621               0.001233776               0.000000000               0.000000000               0.000000000               0.000000000              -0.001220145               0.005858180               0.000744971              -0.001189824               0.002349315               0.001159491               0.000000000               0.000000000               0.000000000               0.000000000              -0.000960616               0.005353105               0.000662471              -0.001029367               0.002127472               0.001098106               0.000000000               0.000000000               0.000000000               0.000000000              -0.000706103               0.004901386               0.000569955              -0.000877460               0.001926265               0.001048806               0.000000000               0.000000000               0.000000000               0.000000000              -0.000475986               0.004519116               0.000466561              -0.000743382               0.001754151               0.001010769               0.000000000               0.000000000               0.000000000               0.000000000              -0.000281734               0.004228526               0.000340362              -0.000634214               0.001620899               0.000986685               0.000000000               0.000000000               0.000000000               0.000000000              -0.000133845               0.004038107               0.000206567              -0.000554954               0.001531007               0.000976053               0.000000000               0.000000000               0.000000000               0.000000000              -0.000042510               0.003948997               0.000092353              -0.000509565               0.001486174               0.000976609               0.000000000               0.000000000               0.000000000               0.000000000              -0.000007454               0.003939855               0.000040130              -0.000495276               0.001478364               0.000983088               0.000000000               0.000000000               0.000000000               0.000000000               0.001012273               0.010448431              -0.003305764              -0.000926452               0.003791592               0.002865140               0.000000000               0.000000000               0.000000000               0.000000000              -0.001045350               0.010031054              -0.001581102              -0.001645885               0.003892279               0.002246394               0.000000000               0.000000000               0.000000000               0.000000000              -0.002600857               0.010162304               0.000005004              -0.002245604               0.004135935               0.001890332               0.000000000               0.000000000               0.000000000               0.000000000              -0.002973149               0.009621349               0.000458393              -0.002317594               0.003979615               0.001662022               0.000000000               0.000000000               0.000000000               0.000000000              -0.002889696               0.008928874               0.000572192              -0.002199740               0.003709508               0.001509768               0.000000000               0.000000000               0.000000000               0.000000000              -0.002627857               0.008222667               0.000578221              -0.002013275               0.003411953               0.001398678               0.000000000               0.000000000               0.000000000               0.000000000              -0.002294878               0.007557589               0.000550630              -0.001805274               0.003120929               0.001315655               0.000000000               0.000000000               0.000000000               0.000000000              -0.001934598               0.006949663               0.000505378              -0.001594178               0.002847924               0.001253746               0.000000000               0.000000000               0.000000000               0.000000000              -0.001569526               0.006388524               0.000448526              -0.001387134               0.002591865               0.001204731               0.000000000               0.000000000               0.000000000               0.000000000              -0.001215202               0.005877958               0.000391156              -0.001190443               0.002356114               0.001165671               0.000000000               0.000000000               0.000000000               0.000000000              -0.000890355               0.005419724               0.000328618              -0.001011346               0.002143672               0.001132326               0.000000000               0.000000000               0.000000000               0.000000000              -0.000600162               0.005030792               0.000261594              -0.000853908               0.001961550               0.001107642               0.000000000               0.000000000               0.000000000               0.000000000              -0.000358080               0.004726264               0.000197838              -0.000725061               0.001817093               0.001092031               0.000000000               0.000000000               0.000000000               0.000000000              -0.000178950               0.004513895               0.000128427              -0.000631342               0.001715064               0.001083722               0.000000000               0.000000000               0.000000000               0.000000000              -0.000065658               0.004393270               0.000062765              -0.000573779               0.001655668               0.001081889               0.000000000               0.000000000               0.000000000               0.000000000              -0.000012047               0.004350672               0.000022510              -0.000548350               0.001632993               0.001084643               0.000000000               0.000000000               0.000000000               0.000000000               0.000001408               0.004349505               0.000010194              -0.000543159               0.001630873               0.001087714               0.000000000               0.000000000               0.000000000               0.000000000              -0.000114928               0.007906635              -0.002547287              -0.001031427               0.002979327               0.001947900               0.000000000               0.000000000               0.000000000               0.000000000              -0.002070438               0.008568278              -0.001443635              -0.001847445               0.003471879               0.001624434               0.000000000               0.000000000               0.000000000               0.000000000              -0.003567229               0.009439368              -0.000399839              -0.002517626               0.003985633               0.001468007               0.000000000               0.000000000               0.000000000               0.000000000              -0.003666874               0.009142352              -0.000075379              -0.002517865               0.003886709               0.001368843               0.000000000               0.000000000               0.000000000               0.000000000              -0.003332244               0.008566760               0.000041131              -0.002320431               0.003629035               0.001308604               0.000000000               0.000000000               0.000000000               0.000000000              -0.002871388               0.007943236               0.000083048              -0.002069670               0.003337609               0.001267939               0.000000000               0.000000000               0.000000000               0.000000000              -0.002379963               0.007344356               0.000098903              -0.001810526               0.003051603               0.001241077               0.000000000               0.000000000               0.000000000               0.000000000              -0.001900684               0.006783285               0.000095187              -0.001560663               0.002781293               0.001220630               0.000000000               0.000000000               0.000000000               0.000000000              -0.001446623               0.006265628               0.000073798              -0.001325684               0.002530416               0.001204732               0.000000000               0.000000000               0.000000000               0.000000000              -0.001033078               0.005799706               0.000051563              -0.001112365               0.002304004               0.001191640               0.000000000               0.000000000               0.000000000               0.000000000              -0.000678201               0.005395436               0.000029732              -0.000928753               0.002108045               0.001179292               0.000000000               0.000000000               0.000000000               0.000000000              -0.000392532               0.005073068               0.000013090              -0.000781331               0.001951450               0.001170119               0.000000000               0.000000000               0.000000000               0.000000000              -0.000184023               0.004842502               0.000006240              -0.000674320               0.001838924               0.001164605               0.000000000               0.000000000               0.000000000               0.000000000              -0.000054996               0.004699241               0.000000780              -0.000608027               0.001769074               0.001161047               0.000000000               0.000000000               0.000000000               0.000000000               0.000000988               0.004637361              -0.000003005              -0.000579298               0.001738871               0.001159573               0.000000000               0.000000000               0.000000000               0.000000000               0.000009175               0.004633896               0.000000271              -0.000575795               0.001736548               0.001160753               0.000000000               0.000000000               0.000000000               0.000000000               0.000006409               0.004648825               0.000001689              -0.000578698               0.001742492               0.001163794               0.000000000               0.000000000               0.000000000               0.000000000              -0.001426629               0.005787840              -0.001648820              -0.001258463               0.002348748               0.001090285               0.000000000               0.000000000               0.000000000               0.000000000              -0.003071311               0.007263576              -0.001299286              -0.002059684               0.003107729               0.001048045               0.000000000               0.000000000               0.000000000               0.000000000              -0.004327270               0.008697116              -0.000880515              -0.002709859               0.003802296               0.001092437               0.000000000               0.000000000               0.000000000               0.000000000              -0.004141758               0.008650178              -0.000636302              -0.002634425               0.003761505               0.001127080               0.000000000               0.000000000               0.000000000               0.000000000              -0.003595170               0.008220081              -0.000485355              -0.002375693               0.003531897               0.001156204               0.000000000               0.000000000               0.000000000               0.000000000              -0.002974051               0.007695957              -0.000389005              -0.002077259               0.003257713               0.001180454               0.000000000               0.000000000               0.000000000               0.000000000              -0.002358154               0.007174136              -0.000326345              -0.001781070               0.002985045               0.001203975               0.000000000               0.000000000               0.000000000               0.000000000              -0.001783728               0.006669522              -0.000282079              -0.001502584               0.002724013               0.001221429               0.000000000               0.000000000               0.000000000               0.000000000              -0.001267316               0.006195621              -0.000254197              -0.001249693               0.002481751               0.001232058               0.000000000               0.000000000               0.000000000               0.000000000              -0.000816871               0.005768994              -0.000231228              -0.001027448               0.002265462               0.001238013               0.000000000               0.000000000               0.000000000               0.000000000              -0.000445790               0.005404401              -0.000204271              -0.000842719               0.002082355               0.001239636               0.000000000               0.000000000               0.000000000               0.000000000              -0.000166751               0.005124708              -0.000165407              -0.000703119               0.001942592               0.001239473               0.000000000               0.000000000               0.000000000               0.000000000               0.000008569               0.004934602              -0.000114784              -0.000613610               0.001849388               0.001235777               0.000000000               0.000000000               0.000000000               0.000000000               0.000087351               0.004829726              -0.000064020              -0.000570958               0.001800212               0.001229254               0.000000000               0.000000000               0.000000000               0.000000000               0.000093123               0.004804489              -0.000022855              -0.000565639               0.001790026               0.001224388               0.000000000               0.000000000               0.000000000               0.000000000               0.000065193               0.004833587               0.000001816              -0.000579750               0.001804429               0.001224680               0.000000000               0.000000000               0.000000000               0.000000000               0.000047430               0.004862559               0.000008158              -0.000590032               0.001817514               0.001227482               0.000000000               0.000000000               0.000000000               0.000000000              -0.002937057               0.003842870              -0.000717624              -0.001581752               0.001808194               0.000226442               0.000000000               0.000000000               0.000000000               0.000000000              -0.003921461               0.005756207              -0.001145443              -0.002190069               0.002648739               0.000458670               0.000000000               0.000000000               0.000000000               0.000000000              -0.004800725               0.007585663              -0.001381758              -0.002748473               0.003444686               0.000696213               0.000000000               0.000000000               0.000000000               0.000000000              -0.004463679               0.007920448              -0.001224902              -0.002663929               0.003528099               0.000864170               0.000000000               0.000000000               0.000000000               0.000000000              -0.003829555               0.007762104              -0.001039482              -0.002406340               0.003389455               0.000983115               0.000000000               0.000000000               0.000000000               0.000000000              -0.003143905               0.007436439              -0.000886558              -0.002108514               0.003181626               0.001073112               0.000000000               0.000000000               0.000000000               0.000000000              -0.002480018               0.007068359              -0.000767487              -0.001813547               0.002960612               0.001147064               0.000000000               0.000000000               0.000000000               0.000000000              -0.001866284               0.006692431              -0.000666778              -0.001536407               0.002742923               0.001206517               0.000000000               0.000000000               0.000000000               0.000000000              -0.001321385               0.006314862              -0.000582644              -0.001284874               0.002533224               0.001248350               0.000000000               0.000000000               0.000000000               0.000000000              -0.000848254               0.005942424              -0.000513682              -0.001060896               0.002334420               0.001273524               0.000000000               0.000000000               0.000000000               0.000000000              -0.000448837               0.005595087              -0.000444581              -0.000867698               0.002154243               0.001286545               0.000000000               0.000000000               0.000000000               0.000000000              -0.000134895               0.005303146              -0.000359029              -0.000713477               0.002005523               0.001292046               0.000000000               0.000000000               0.000000000               0.000000000               0.000081168               0.005086158              -0.000260370              -0.000605330               0.001897146               0.001291816               0.000000000               0.000000000               0.000000000               0.000000000               0.000195224               0.004951711              -0.000160362              -0.000545754               0.001832472               0.001286718               0.000000000               0.000000000               0.000000000               0.000000000               0.000226585               0.004907094              -0.000075886              -0.000528416               0.001811820               0.001283404               0.000000000               0.000000000               0.000000000               0.000000000               0.000204758               0.004933364              -0.000022149              -0.000539885               0.001824400               0.001284515               0.000000000               0.000000000               0.000000000               0.000000000               0.000169081               0.004949004               0.000001316              -0.000555219               0.001834724               0.001279506               0.000000000               0.000000000               0.000000000               0.000000000              -0.004844815               0.002100595               0.000170825              -0.002079376               0.001393315              -0.000686062               0.000000000               0.000000000               0.000000000               0.000000000              -0.004884663               0.004237904              -0.000937144              -0.002361482               0.002199780              -0.000161702               0.000000000               0.000000000               0.000000000               0.000000000              -0.005199270               0.006263715              -0.001784928              -0.002732684               0.002998778               0.000266094               0.000000000               0.000000000               0.000000000               0.000000000              -0.004729989               0.006959178              -0.001784149              -0.002643637               0.003200915               0.000557278               0.000000000               0.000000000               0.000000000               0.000000000              -0.004047897               0.007107461              -0.001603830              -0.002406388               0.003171259               0.000764871               0.000000000               0.000000000               0.000000000               0.000000000              -0.003337719               0.007020573              -0.001409272              -0.002129211               0.003049904               0.000920693               0.000000000               0.000000000               0.000000000               0.000000000              -0.002655756               0.006842280              -0.001234945              -0.001851189               0.002897800               0.001046611               0.000000000               0.000000000               0.000000000               0.000000000              -0.002021037               0.006621535              -0.001078754              -0.001585577               0.002735682               0.001150105               0.000000000               0.000000000               0.000000000               0.000000000              -0.001445801               0.006367865              -0.000944483              -0.001338155               0.002568652               0.001230497               0.000000000               0.000000000               0.000000000               0.000000000              -0.000935534               0.006085141              -0.000834438              -0.001111465               0.002398848               0.001287383               0.000000000               0.000000000               0.000000000               0.000000000              -0.000490832               0.005786790              -0.000731803              -0.000907409               0.002231380               0.001323972               0.000000000               0.000000000               0.000000000               0.000000000              -0.000111948               0.005505172              -0.000617170              -0.000730125               0.002078414               0.001348289               0.000000000               0.000000000               0.000000000               0.000000000               0.000187942               0.005268106              -0.000483672              -0.000588034               0.001952029               0.001363995               0.000000000               0.000000000               0.000000000               0.000000000               0.000388714               0.005093161              -0.000337734              -0.000490876               0.001861329               0.001370453               0.000000000               0.000000000               0.000000000               0.000000000               0.000485906               0.004995484              -0.000201026              -0.000442220               0.001812551               0.001370332               0.000000000               0.000000000               0.000000000               0.000000000               0.000488401               0.004971400              -0.000087998              -0.000438274               0.001803208               0.001364934               0.000000000               0.000000000               0.000000000               0.000000000               0.000438910               0.004957500              -0.000027879              -0.000455095               0.001804182               0.001349087               0.000000000               0.000000000               0.000000000               0.000000000              -0.007014500               0.000702246               0.000924362              -0.002718215               0.001140146              -0.001578070               0.000000000               0.000000000               0.000000000               0.000000000              -0.005998323               0.002809283              -0.000668703              -0.002600527               0.001803258              -0.000797269               0.000000000               0.000000000               0.000000000               0.000000000              -0.005544959               0.004754158              -0.001989371              -0.002673624               0.002475910              -0.000197714               0.000000000               0.000000000               0.000000000               0.000000000              -0.004856668               0.005694206              -0.002180580              -0.002533020               0.002742389               0.000209369               0.000000000               0.000000000               0.000000000               0.000000000              -0.004118614               0.006126019              -0.002055622              -0.002310228               0.002812061               0.000501834               0.000000000               0.000000000               0.000000000               0.000000000              -0.003395580               0.006294554              -0.001856210              -0.002060157               0.002784882               0.000724725               0.000000000               0.000000000               0.000000000               0.000000000              -0.002709880               0.006328743              -0.001653515              -0.001807294               0.002711991               0.000904697               0.000000000               0.000000000               0.000000000               0.000000000              -0.002066276               0.006283818              -0.001462351              -0.001560327               0.002614694               0.001054367               0.000000000               0.000000000               0.000000000               0.000000000              -0.001470857               0.006177622              -0.001294107              -0.001323771               0.002500443               0.001176672               0.000000000               0.000000000               0.000000000               0.000000000              -0.000929133               0.006021146              -0.001151811              -0.001101066               0.002374050               0.001272985               0.000000000               0.000000000               0.000000000               0.000000000              -0.000440785               0.005824131              -0.001023115              -0.000893309               0.002239127               0.001345818               0.000000000               0.000000000               0.000000000               0.000000000              -0.000003704               0.005605479              -0.000888266              -0.000702072               0.002102498               0.001400426               0.000000000               0.000000000               0.000000000               0.000000000               0.000372123               0.005389775              -0.000730236              -0.000534174               0.001974632               0.001440457               0.000000000               0.000000000               0.000000000               0.000000000               0.000669305               0.005208436              -0.000549001              -0.000400064               0.001869483               0.001469418               0.000000000               0.000000000               0.000000000               0.000000000               0.000869652               0.005084829              -0.000362417              -0.000309483               0.001798087               0.001488604               0.000000000               0.000000000               0.000000000               0.000000000               0.000955607               0.005023217              -0.000180959              -0.000269549               0.001764239               0.001494690               0.000000000               0.000000000               0.000000000               0.000000000               0.000944530               0.004992489              -0.000084198              -0.000269862               0.001754100               0.001484239               0.000000000               0.000000000               0.000000000               0.000000000              -0.009286999              -0.000283843               0.001428923              -0.003447142               0.001054425              -0.002392717               0.000000000               0.000000000               0.000000000               0.000000000              -0.007188805               0.001548915              -0.000384516              -0.002889413               0.001479432              -0.001409980               0.000000000               0.000000000               0.000000000               0.000000000              -0.005855132               0.003186722              -0.001965748              -0.002594010               0.001926897              -0.000667113               0.000000000               0.000000000               0.000000000               0.000000000              -0.004865286               0.004238121              -0.002322745              -0.002354243               0.002197439              -0.000156804               0.000000000               0.000000000               0.000000000               0.000000000              -0.004040293               0.004894019              -0.002279041              -0.002126858               0.002340275               0.000213418               0.000000000               0.000000000               0.000000000               0.000000000              -0.003297101               0.005295630              -0.002112423              -0.001898363               0.002397979               0.000499616               0.000000000               0.000000000               0.000000000               0.000000000              -0.002616013               0.005537743              -0.001916517              -0.001673219               0.002403635               0.000730416               0.000000000               0.000000000               0.000000000               0.000000000              -0.001973348               0.005677393              -0.001721867              -0.001449677               0.002375671               0.000925994               0.000000000               0.000000000               0.000000000               0.000000000              -0.001371560               0.005736323              -0.001543215              -0.001231373               0.002322546               0.001091173               0.000000000               0.000000000               0.000000000               0.000000000              -0.000808238               0.005729310              -0.001388817              -0.001019251               0.002249501               0.001230250               0.000000000               0.000000000               0.000000000               0.000000000              -0.000281268               0.005662534              -0.001249304              -0.000813291               0.002158589               0.001345298               0.000000000               0.000000000               0.000000000               0.000000000               0.000208477               0.005545210              -0.001104350              -0.000614971               0.002053375               0.001438404               0.000000000               0.000000000               0.000000000               0.000000000               0.000659609               0.005402069              -0.000934491              -0.000427904               0.001943306               0.001515402               0.000000000               0.000000000               0.000000000               0.000000000               0.001061621               0.005259173              -0.000735558              -0.000259289               0.001839470               0.001580181               0.000000000               0.000000000               0.000000000               0.000000000               0.001394637               0.005139987              -0.000516279              -0.000119510               0.001753148               0.001633639               0.000000000               0.000000000               0.000000000               0.000000000               0.001627981               0.005057812              -0.000273430              -0.000021734               0.001693165               0.001671431               0.000000000               0.000000000               0.000000000               0.000000000               0.001722661               0.005028211              -0.000147980               0.000017471               0.001670230               0.001687701               0.000000000               0.000000000               0.000000000               0.000000000              -0.011449506              -0.000883392               0.001584543              -0.004183138               0.001099907              -0.003083231               0.000000000               0.000000000               0.000000000               0.000000000              -0.008352915               0.000529840              -0.000144201              -0.003198570               0.001242795              -0.001955775               0.000000000               0.000000000               0.000000000               0.000000000              -0.006132732               0.001726823              -0.001707460              -0.002515624               0.001414139              -0.001101485               0.000000000               0.000000000               0.000000000               0.000000000              -0.004795102               0.002764946              -0.002148339              -0.002143778               0.001636229              -0.000507549               0.000000000               0.000000000               0.000000000               0.000000000              -0.003844375               0.003558475              -0.002182363              -0.001886446               0.001814961              -0.000071486               0.000000000               0.000000000               0.000000000               0.000000000              -0.003069740               0.004144427              -0.002068143              -0.001669202               0.001937862               0.000268659               0.000000000               0.000000000               0.000000000               0.000000000              -0.002386634               0.004571993              -0.001908457              -0.001466484               0.002012810               0.000546326               0.000000000               0.000000000               0.000000000               0.000000000              -0.001751334               0.004886962              -0.001739627              -0.001267618               0.002051510               0.000783892               0.000000000               0.000000000               0.000000000               0.000000000              -0.001146400               0.005104307              -0.001578550              -0.001067936               0.002057397               0.000989461               0.000000000               0.000000000               0.000000000               0.000000000              -0.000568864               0.005237416              -0.001437117              -0.000868000               0.002035121               0.001167121               0.000000000               0.000000000               0.000000000               0.000000000              -0.000015267               0.005303430              -0.001306396              -0.000668653               0.001990676               0.001322023               0.000000000               0.000000000               0.000000000               0.000000000               0.000519141               0.005310894              -0.001170779              -0.000469183               0.001926674               0.001457491               0.000000000               0.000000000               0.000000000               0.000000000               0.001043121               0.005272620              -0.001013478              -0.000267907               0.001846825               0.001578917               0.000000000               0.000000000               0.000000000               0.000000000               0.001556968               0.005206162              -0.000822928              -0.000066908               0.001757672               0.001690765               0.000000000               0.000000000               0.000000000               0.000000000               0.002039171               0.005129377              -0.000596377               0.000123516               0.001668603               0.001792119               0.000000000               0.000000000               0.000000000               0.000000000               0.002464821               0.005059175              -0.000323756               0.000291908               0.001589072               0.001880980               0.000000000               0.000000000               0.000000000               0.000000000               0.002719131               0.005052039              -0.000187194               0.000388165               0.001554608               0.001942773               0.000000000               0.000000000               0.000000000               0.000000000              -0.013246599              -0.001176966               0.001351228              -0.004820351               0.001214453              -0.003605898               0.000000000               0.000000000               0.000000000               0.000000000              -0.009352814              -0.000199919               0.000002961              -0.003482313               0.001094124              -0.002388189               0.000000000               0.000000000               0.000000000               0.000000000              -0.006375897               0.000541732              -0.001248468              -0.002458675               0.001000129              -0.001458547               0.000000000               0.000000000               0.000000000               0.000000000              -0.004703653               0.001489157              -0.001649760              -0.001950012               0.001146381              -0.000803631               0.000000000               0.000000000               0.000000000               0.000000000              -0.003609060               0.002341759              -0.001722773              -0.001646115               0.001329281              -0.000316833               0.000000000               0.000000000               0.000000000               0.000000000              -0.002786316               0.003047369              -0.001663428              -0.001425787               0.001491041               0.000065254               0.000000000               0.000000000               0.000000000               0.000000000              -0.002092293               0.003613948              -0.001554839              -0.001236351               0.001616754               0.000380403               0.000000000               0.000000000               0.000000000               0.000000000              -0.001461105               0.004061404              -0.001433480              -0.001055588               0.001705650               0.000650062               0.000000000               0.000000000               0.000000000               0.000000000              -0.000858473               0.004403304              -0.001313844              -0.000872339               0.001758533               0.000886194               0.000000000               0.000000000               0.000000000               0.000000000              -0.000274498               0.004659524              -0.001204579              -0.000685376               0.001781618               0.001096241               0.000000000               0.000000000               0.000000000               0.000000000               0.000296101               0.004849509              -0.001102338              -0.000495150               0.001781537               0.001286387               0.000000000               0.000000000               0.000000000               0.000000000               0.000865492               0.004975201              -0.001001661              -0.000297340               0.001757497               0.001460157               0.000000000               0.000000000               0.000000000               0.000000000               0.001450382               0.005040532              -0.000888182              -0.000086174               0.001708885               0.001622711               0.000000000               0.000000000               0.000000000               0.000000000               0.002057303               0.005067093              -0.000738160               0.000138100               0.001642981               0.001781081               0.000000000               0.000000000               0.000000000               0.000000000               0.002681273               0.005065007              -0.000544129               0.000372348               0.001564203               0.001936551               0.000000000               0.000000000               0.000000000               0.000000000               0.003318836               0.005038271              -0.000299191               0.000614774               0.001474482               0.002089256               0.000000000               0.000000000               0.000000000               0.000000000               0.003762552               0.005066398              -0.000179270               0.000777649               0.001429566               0.002207216               0.000000000               0.000000000               0.000000000               0.000000000              -0.014435083              -0.001284109               0.000775414              -0.005252639               0.001322835              -0.003929805               0.000000000               0.000000000               0.000000000               0.000000000              -0.010032296              -0.000628408               0.000040840              -0.003683557               0.001018376              -0.002665181               0.000000000               0.000000000               0.000000000               0.000000000              -0.006550718              -0.000226120              -0.000652939              -0.002428253               0.000734039              -0.001694214               0.000000000               0.000000000               0.000000000               0.000000000              -0.004632649               0.000623506              -0.000892529              -0.001815180               0.000812889              -0.001002290               0.000000000               0.000000000               0.000000000               0.000000000              -0.003417680               0.001487519              -0.000949184              -0.001467568               0.000985022              -0.000482546               0.000000000               0.000000000               0.000000000               0.000000000              -0.002543642               0.002250795              -0.000928453              -0.001235212               0.001161994              -0.000073218               0.000000000               0.000000000               0.000000000               0.000000000              -0.001836834               0.002894729              -0.000875908              -0.001050651               0.001315117               0.000264465               0.000000000               0.000000000               0.000000000               0.000000000              -0.001210382               0.003423409              -0.000812722              -0.000881818               0.001435064               0.000553246               0.000000000               0.000000000               0.000000000               0.000000000              -0.000619616               0.003852114              -0.000747651              -0.000713869               0.001521981               0.000808112               0.000000000               0.000000000               0.000000000               0.000000000              -0.000038076               0.004202189              -0.000687159              -0.000539551               0.001580566               0.001041015               0.000000000               0.000000000               0.000000000               0.000000000               0.000545414               0.004480766              -0.000631749              -0.000355565               0.001612095               0.001256531               0.000000000               0.000000000               0.000000000               0.000000000               0.001141418               0.004693299              -0.000583765              -0.000158631               0.001617294               0.001458664               0.000000000               0.000000000               0.000000000               0.000000000               0.001759971               0.004842152              -0.000528783               0.000054719               0.001595795               0.001650514               0.000000000               0.000000000               0.000000000               0.000000000               0.002422646               0.004940477              -0.000444628               0.000290930               0.001549833               0.001840762               0.000000000               0.000000000               0.000000000               0.000000000               0.003154315               0.004996501              -0.000332887               0.000558300               0.001479384               0.002037684               0.000000000               0.000000000               0.000000000               0.000000000               0.003971329               0.005009599              -0.000188377               0.000863040               0.001382170               0.002245210               0.000000000               0.000000000               0.000000000               0.000000000               0.004583622               0.005070427              -0.000117608               0.001085044               0.001328444               0.002413488               0.000000000               0.000000000               0.000000000               0.000000000               0.000000000               0.000000000               0.000000000               0.000000000               0.000000000               0.000000000               0.000000000               0.000000000               0.000000000               0.000000000               0.000000000               0.000000000               0.000000000               0.000000000               0.000000000               0.000000000               0.000000000               0.000000000               0.000000000               0.000000000               0.000000000               0.000000000               0.000000000               0.000000000               0.000000000               0.000000000               0.000000000               0.000000000               0.000000000               0.000000000               0.000000000               0.000000000               0.000000000               0.000000000               0.000000000               0.000000000               0.000000000               0.000000000               0.000000000               0.000000000               0.000000000               0.000000000               0.000000000               0.000000000               0.000000000               0.000000000               0.000000000               0.000000000               0.000000000               0.000000000               0.000000000               0.000000000               0.000000000               0.000000000               0.000000000               0.000000000               0.000000000               0.000000000               0.000000000               0.000000000               0.000000000               0.000000000               0.000000000               0.000000000               0.000000000               0.000000000               0.000000000               0.000000000               0.000000000               0.000000000               0.000000000               0.000000000               0.000000000               0.000000000               0.000000000               0.000000000               0.000000000               0.000000000               0.000000000               0.000000000               0.000000000               0.000000000               0.000000000               0.000000000               0.000000000               0.000000000               0.000000000               0.000000000               0.000000000               0.000000000               0.000000000               0.000000000               0.000000000               0.000000000               0.000000000               0.000000000               0.000000000               0.000000000               0.000000000               0.000000000               0.000000000               0.000000000               0.000000000               0.000000000               0.000000000               0.000000000               0.000000000               0.000000000               0.000000000               0.000000000               0.000000000               0.000000000               0.000000000               0.000000000               0.000000000               0.000000000               0.000000000               0.000000000               0.000000000               0.000000000               0.000000000               0.000000000               0.000000000               0.000000000               0.000000000               0.000000000               0.000000000               0.000000000               0.000000000               0.000000000               0.000000000               0.000000000               0.000000000               0.000000000               0.000000000               0.000000000               0.000000000               0.000000000               0.000000000               0.000000000               0.000000000               0.000000000               0.000000000               0.000000000               0.000000000               0.000000000               0.000000000               0.000000000               0.000000000               0.000000000               0.000000000               0.000000000               0.000000000               0.000000000               0.000000000               0.000000000               0.000000000               0.000000000               0.000000000               0.000000000               0.000000000               0.000000000               0.000000000               0.000000000               0.000000000               0.000000000               0.000000000               0.000000000               0.000000000               0.000000000               0.000000000               0.000000000               0.000000000               0.000000000               0.000000000               0.000000000               0.000000000               0.000000000               0.000000000               0.000000000               0.000000000               0.000000000               0.000000000               0.000000000               0.000000000               0.000000000               0.000000000               0.000000000               0.000000000               0.000000000               0.000000000               0.000000000               0.000000000               0.000000000               0.000000000               0.000000000               0.000000000               0.000000000               0.000000000               0.000000000               0.000000000               0.000000000               0.000000000               0.000000000               0.000000000               0.000000000               0.000000000               0.000000000               0.000000000               0.000000000               0.000000000               0.000000000               0.000000000               0.000000000               0.000000000               0.000000000               0.000000000               0.000000000               0.000000000               0.000000000               0.000000000               0.000000000               0.000000000               0.000000000               0.000000000               0.000000000               0.000000000               0.000000000               0.000000000               0.000000000               0.000000000               0.000000000               0.000000000               0.000000000               0.000000000               0.000000000               0.000000000               0.000000000               0.000000000               0.000000000               0.000000000               0.000000000               0.000000000               0.000000000               0.000000000               0.000000000               0.000000000               0.000000000               0.000000000               0.000000000               0.000000000               0.000000000               0.000000000               0.000000000               0.000000000               0.000000000               0.000000000               0.000000000               0.000000000               0.000000000               0.000000000               0.000000000               0.000000000               0.000000000               0.000000000               0.000000000               0.000000000               0.000000000               0.000000000               0.000000000               0.000000000               0.000000000               0.000000000               0.000000000               0.000000000               0.000000000               0.000000000               0.000000000               0.000000000               0.000000000               0.000000000               0.000000000               0.000000000               0.000000000               0.000000000               0.000000000               0.000000000               0.000000000               0.000000000               0.000000000               0.000000000               0.000000000               0.000000000               0.000000000               0.000000000               0.000000000               0.000000000               0.000000000               0.000000000               0.000000000               0.000000000               0.000000000               0.000000000               0.000000000               0.000000000               0.000000000               0.000000000               0.000000000               0.000000000               0.000000000               0.000000000               0.000000000               0.000000000               0.000000000               0.000000000               0.000000000               0.000000000               0.000000000               0.000000000               0.000000000               0.000000000               0.000000000               0.000000000               0.000000000               0.000000000               0.000000000               0.000000000               0.000000000               0.000000000               0.000000000               0.000000000               0.000000000               0.000000000               0.000000000               0.000000000               0.000000000               0.000000000               0.000000000               0.000000000               0.000000000               0.002234540               0.022325299               0.001485438              -0.001952706               0.008092594               0.006139888               0.000000000               0.000000000               0.000000000               0.000000000               0.002008423               0.017109342               0.000635003              -0.001385506               0.006164892               0.004779386               0.000000000               0.000000000               0.000000000               0.000000000               0.002458937               0.012922346              -0.000194870              -0.000693190               0.004538469               0.003845279               0.000000000               0.000000000               0.000000000               0.000000000               0.002215033               0.010547163              -0.000525013              -0.000487757               0.003678272               0.003190515               0.000000000               0.000000000               0.000000000               0.000000000               0.001806910               0.009025269              -0.000647033              -0.000450567               0.003158582               0.002708015               0.000000000               0.000000000               0.000000000               0.000000000               0.001388853               0.007942602              -0.000680092              -0.000472004               0.002804842               0.002332838               0.000000000               0.000000000               0.000000000               0.000000000               0.001013817               0.007098176              -0.000669407              -0.000507090               0.002535065               0.002027975               0.000000000               0.000000000               0.000000000               0.000000000               0.000696091               0.006378079              -0.000637574              -0.000536225               0.002304747               0.001768522               0.000000000               0.000000000               0.000000000               0.000000000               0.000438790               0.005722008              -0.000601618              -0.000550704               0.002090885               0.001540181               0.000000000               0.000000000               0.000000000               0.000000000               0.000234491               0.005098741              -0.000566550              -0.000549407               0.001882699               0.001333292               0.000000000               0.000000000               0.000000000               0.000000000               0.000072119               0.004486803              -0.000533787              -0.000533805               0.001673521               0.001139716               0.000000000               0.000000000               0.000000000               0.000000000              -0.000051851               0.003875433              -0.000498296              -0.000503872               0.001459755               0.000955883               0.000000000               0.000000000               0.000000000               0.000000000              -0.000133288               0.003246612              -0.000448359              -0.000455809               0.001234129               0.000778321               0.000000000               0.000000000               0.000000000               0.000000000              -0.000168853               0.002580287              -0.000379877              -0.000385855               0.000988705               0.000602850               0.000000000               0.000000000               0.000000000               0.000000000              -0.000156000               0.001863662              -0.000288387              -0.000291457               0.000718367               0.000426910               0.000000000               0.000000000               0.000000000               0.000000000              -0.000092579               0.001084708              -0.000163188              -0.000170305               0.000418334               0.000248029               0.000000000               0.000000000               0.000000000               0.000000000              -0.000110985               0.000504271              -0.000102830              -0.000104653               0.000202973               0.000098320               0.000000000               0.000000000               0.000000000               0.000000000               0.002353290               0.020887150               0.002738739              -0.001728407               0.007538449               0.005810042               0.000000000               0.000000000               0.000000000               0.000000000               0.001771795               0.016215551               0.001166036              -0.001362518               0.005859302               0.004496784               0.000000000               0.000000000               0.000000000               0.000000000               0.001845020               0.012585725              -0.000357179              -0.000881331               0.004488977               0.003607646               0.000000000               0.000000000               0.000000000               0.000000000               0.001474484               0.010495580              -0.000941826              -0.000759014               0.003751496               0.002992482               0.000000000               0.000000000               0.000000000               0.000000000               0.001057191               0.009120286              -0.001145715              -0.000743588               0.003287927               0.002544340               0.000000000               0.000000000               0.000000000               0.000000000               0.000684526               0.008106829              -0.001191434              -0.000756655               0.002954467               0.002197812               0.000000000               0.000000000               0.000000000               0.000000000               0.000381018               0.007285736              -0.001163045              -0.000767834               0.002684499               0.001916665               0.000000000               0.000000000               0.000000000               0.000000000               0.000150320               0.006570474              -0.001102377              -0.000764938               0.002445115               0.001680177               0.000000000               0.000000000               0.000000000               0.000000000              -0.000018042               0.005917880              -0.001035298              -0.000746499               0.002221440               0.001474941               0.000000000               0.000000000               0.000000000               0.000000000              -0.000141733               0.005298510              -0.000969122              -0.000715462               0.002004639               0.001289177               0.000000000               0.000000000               0.000000000               0.000000000              -0.000228157               0.004699628              -0.000906778              -0.000673011               0.001790864               0.001117853               0.000000000               0.000000000               0.000000000               0.000000000              -0.000277734               0.004109184              -0.000839045              -0.000617797               0.001575647               0.000957849               0.000000000               0.000000000               0.000000000               0.000000000              -0.000286821               0.003517726              -0.000745885              -0.000547273               0.001354988               0.000807715               0.000000000               0.000000000               0.000000000               0.000000000              -0.000258429               0.002920195              -0.000622567              -0.000461934               0.001127367               0.000665432               0.000000000               0.000000000               0.000000000               0.000000000              -0.000195981               0.002318038              -0.000465595              -0.000363247               0.000893754               0.000530507               0.000000000               0.000000000               0.000000000               0.000000000              -0.000105145               0.001716523              -0.000259111              -0.000253994               0.000656833               0.000402839               0.000000000               0.000000000               0.000000000               0.000000000              -0.000097615               0.001302676              -0.000156844              -0.000199440               0.000500701               0.000301261               0.000000000               0.000000000               0.000000000               0.000000000               0.002415501               0.018722332               0.003581352              -0.001434477               0.006718874               0.005284396               0.000000000               0.000000000               0.000000000               0.000000000               0.001348722               0.014891465               0.001515914              -0.001355660               0.005415658               0.004059998               0.000000000               0.000000000               0.000000000               0.000000000               0.000910858               0.012090433              -0.000455423              -0.001169730               0.004420014               0.003250284               0.000000000               0.000000000               0.000000000               0.000000000               0.000400179               0.010394353              -0.001163533              -0.001149225               0.003847824               0.002698600               0.000000000               0.000000000               0.000000000               0.000000000               0.000002725               0.009209260              -0.001388078              -0.001150133               0.003453100               0.002302967               0.000000000               0.000000000               0.000000000               0.000000000              -0.000277767               0.008286439              -0.001422507              -0.001139965               0.003142107               0.002002142               0.000000000               0.000000000               0.000000000               0.000000000              -0.000460493               0.007499887              -0.001373868              -0.001110169               0.002869993               0.001759825               0.000000000               0.000000000               0.000000000               0.000000000              -0.000562825               0.006794150              -0.001294049              -0.001060326               0.002618136               0.001557810               0.000000000               0.000000000               0.000000000               0.000000000              -0.000608875               0.006145493              -0.001206095              -0.000996513               0.002380648               0.001384135               0.000000000               0.000000000               0.000000000               0.000000000              -0.000616226               0.005536513              -0.001120128              -0.000923147               0.002153202               0.001230054               0.000000000               0.000000000               0.000000000               0.000000000              -0.000589220               0.004958814              -0.001038241              -0.000840808               0.001933190               0.001092383               0.000000000               0.000000000               0.000000000               0.000000000              -0.000529499               0.004402836              -0.000948120              -0.000748915               0.001717236               0.000968320               0.000000000               0.000000000               0.000000000               0.000000000              -0.000442987               0.003872676              -0.000830175              -0.000650204               0.001507614               0.000857410               0.000000000               0.000000000               0.000000000               0.000000000              -0.000337318               0.003376381              -0.000678418              -0.000548541               0.001308296               0.000759755               0.000000000               0.000000000               0.000000000               0.000000000              -0.000221589               0.002924673              -0.000491600              -0.000448679               0.001124441               0.000675762               0.000000000               0.000000000               0.000000000               0.000000000              -0.000109975               0.002540892              -0.000265121              -0.000358851               0.000966573               0.000607721               0.000000000               0.000000000               0.000000000               0.000000000              -0.000076262               0.002322108              -0.000151869              -0.000318861               0.000880315               0.000561454               0.000000000               0.000000000               0.000000000               0.000000000               0.002279543               0.016081725               0.003928788              -0.001155387               0.005745650               0.004590263               0.000000000               0.000000000               0.000000000               0.000000000               0.000718249               0.013310469               0.001669787              -0.001394463               0.004901599               0.003507137               0.000000000               0.000000000               0.000000000               0.000000000              -0.000240608               0.011496500              -0.000444934              -0.001527287               0.004341224               0.002813937               0.000000000               0.000000000               0.000000000               0.000000000              -0.000821276               0.010229892              -0.001142295              -0.001586711               0.003938834               0.002352122               0.000000000               0.000000000               0.000000000               0.000000000              -0.001126828               0.009239693              -0.001339782              -0.001577519               0.003605706               0.002028188               0.000000000               0.000000000               0.000000000               0.000000000              -0.001259654               0.008399852              -0.001353171              -0.001522348               0.003307372               0.001785023               0.000000000               0.000000000               0.000000000               0.000000000              -0.001282896               0.007645508              -0.001291637              -0.001436771               0.003027401               0.001590630               0.000000000               0.000000000               0.000000000               0.000000000              -0.001235442               0.006960660              -0.001202192              -0.001333370               0.002764653               0.001431283               0.000000000               0.000000000               0.000000000               0.000000000              -0.001142598               0.006328474              -0.001109365              -0.001219531               0.002515980               0.001296449               0.000000000               0.000000000               0.000000000               0.000000000              -0.001013667               0.005741564              -0.001021079              -0.001097818               0.002279775               0.001181957               0.000000000               0.000000000               0.000000000               0.000000000              -0.000858540               0.005194213              -0.000933229              -0.000971227               0.002055129               0.001083902               0.000000000               0.000000000               0.000000000               0.000000000              -0.000688147               0.004684622              -0.000836345              -0.000843631               0.001842735               0.000999104               0.000000000               0.000000000               0.000000000               0.000000000              -0.000515099               0.004227556              -0.000715220              -0.000721605               0.001649706               0.000928101               0.000000000               0.000000000               0.000000000               0.000000000              -0.000347358               0.003841154              -0.000560163              -0.000610402               0.001483839               0.000873437               0.000000000               0.000000000               0.000000000               0.000000000              -0.000199262               0.003538059              -0.000382522              -0.000516979               0.001351667               0.000834688               0.000000000               0.000000000               0.000000000               0.000000000              -0.000084281               0.003342800              -0.000195497              -0.000449454               0.001264074               0.000814619               0.000000000               0.000000000               0.000000000               0.000000000              -0.000036744               0.003273240              -0.000101404              -0.000422933               0.001232047               0.000809114               0.000000000               0.000000000               0.000000000               0.000000000               0.001829134               0.013237167               0.003804765              -0.000968721               0.004735251               0.003766530               0.000000000               0.000000000               0.000000000               0.000000000              -0.000096046               0.011642930               0.001672279              -0.001491381               0.004378065               0.002886684               0.000000000               0.000000000               0.000000000               0.000000000              -0.001457525               0.010846668              -0.000293739              -0.001902401               0.004249653               0.002347253               0.000000000               0.000000000               0.000000000               0.000000000              -0.001995860               0.009981206              -0.000889570              -0.001996093               0.003992400               0.001996306               0.000000000               0.000000000               0.000000000               0.000000000              -0.002133672               0.009157930              -0.001039324              -0.001944864               0.003700901               0.001756037               0.000000000               0.000000000               0.000000000               0.000000000              -0.002078685               0.008382725              -0.001037035              -0.001827343               0.003403328               0.001575985               0.000000000               0.000000000               0.000000000               0.000000000              -0.001924102               0.007663201              -0.000980636              -0.001679434               0.003114186               0.001434752               0.000000000               0.000000000               0.000000000               0.000000000              -0.001714316               0.007011251              -0.000903921              -0.001519271               0.002843484               0.001324213               0.000000000               0.000000000               0.000000000               0.000000000              -0.001475902               0.006411082              -0.000822805              -0.001354845               0.002588621               0.001233776               0.000000000               0.000000000               0.000000000               0.000000000              -0.001220145               0.005858180              -0.000744971              -0.001189824               0.002349315               0.001159491               0.000000000               0.000000000               0.000000000               0.000000000              -0.000960616               0.005353105              -0.000662471              -0.001029367               0.002127472               0.001098106               0.000000000               0.000000000               0.000000000               0.000000000              -0.000706103               0.004901386              -0.000569955              -0.000877460               0.001926265               0.001048806               0.000000000               0.000000000               0.000000000               0.000000000              -0.000475986               0.004519116              -0.000466561              -0.000743382               0.001754151               0.001010769               0.000000000               0.000000000               0.000000000               0.000000000              -0.000281734               0.004228526              -0.000340362              -0.000634214               0.001620899               0.000986685               0.000000000               0.000000000               0.000000000               0.000000000              -0.000133845               0.004038107              -0.000206567              -0.000554954               0.001531007               0.000976053               0.000000000               0.000000000               0.000000000               0.000000000              -0.000042510               0.003948997              -0.000092353              -0.000509565               0.001486174               0.000976609               0.000000000               0.000000000               0.000000000               0.000000000              -0.000007454               0.003939855              -0.000040130              -0.000495276               0.001478364               0.000983088               0.000000000               0.000000000               0.000000000               0.000000000               0.001012273               0.010448431               0.003305764              -0.000926452               0.003791592               0.002865140               0.000000000               0.000000000               0.000000000               0.000000000              -0.001045350               0.010031054               0.001581102              -0.001645885               0.003892279               0.002246394               0.000000000               0.000000000               0.000000000               0.000000000              -0.002600857               0.010162304              -0.000005004              -0.002245604               0.004135935               0.001890332               0.000000000               0.000000000               0.000000000               0.000000000              -0.002973149               0.009621349              -0.000458393              -0.002317594               0.003979615               0.001662022               0.000000000               0.000000000               0.000000000               0.000000000              -0.002889696               0.008928874              -0.000572192              -0.002199740               0.003709508               0.001509768               0.000000000               0.000000000               0.000000000               0.000000000              -0.002627857               0.008222667              -0.000578221              -0.002013275               0.003411953               0.001398678               0.000000000               0.000000000               0.000000000               0.000000000              -0.002294878               0.007557589              -0.000550630              -0.001805274               0.003120929               0.001315655               0.000000000               0.000000000               0.000000000               0.000000000              -0.001934598               0.006949663              -0.000505378              -0.001594178               0.002847924               0.001253746               0.000000000               0.000000000               0.000000000               0.000000000              -0.001569526               0.006388524              -0.000448526              -0.001387134               0.002591865               0.001204731               0.000000000               0.000000000               0.000000000               0.000000000              -0.001215202               0.005877958              -0.000391156              -0.001190443               0.002356114               0.001165671               0.000000000               0.000000000               0.000000000               0.000000000              -0.000890355               0.005419724              -0.000328618              -0.001011346               0.002143672               0.001132326               0.000000000               0.000000000               0.000000000               0.000000000              -0.000600162               0.005030792              -0.000261594              -0.000853908               0.001961550               0.001107642               0.000000000               0.000000000               0.000000000               0.000000000              -0.000358080               0.004726264              -0.000197838              -0.000725061               0.001817093               0.001092031               0.000000000               0.000000000               0.000000000               0.000000000              -0.000178950               0.004513895              -0.000128427              -0.000631342               0.001715064               0.001083722               0.000000000               0.000000000               0.000000000               0.000000000              -0.000065658               0.004393270              -0.000062765              -0.000573779               0.001655668               0.001081889               0.000000000               0.000000000               0.000000000               0.000000000              -0.000012047               0.004350672              -0.000022510              -0.000548350               0.001632993               0.001084643               0.000000000               0.000000000               0.000000000               0.000000000               0.000001408               0.004349505              -0.000010194              -0.000543159               0.001630873               0.001087714               0.000000000               0.000000000               0.000000000               0.000000000              -0.000114928               0.007906635               0.002547287              -0.001031427               0.002979327               0.001947900               0.000000000               0.000000000               0.000000000               0.000000000              -0.002070438               0.008568278               0.001443635              -0.001847445               0.003471879               0.001624434               0.000000000               0.000000000               0.000000000               0.000000000              -0.003567229               0.009439368               0.000399839              -0.002517626               0.003985633               0.001468007               0.000000000               0.000000000               0.000000000               0.000000000              -0.003666874               0.009142352               0.000075379              -0.002517865               0.003886709               0.001368843               0.000000000               0.000000000               0.000000000               0.000000000              -0.003332244               0.008566760              -0.000041131              -0.002320431               0.003629035               0.001308604               0.000000000               0.000000000               0.000000000               0.000000000              -0.002871388               0.007943236              -0.000083048              -0.002069670               0.003337609               0.001267939               0.000000000               0.000000000               0.000000000               0.000000000              -0.002379963               0.007344356              -0.000098903              -0.001810526               0.003051603               0.001241077               0.000000000               0.000000000               0.000000000               0.000000000              -0.001900684               0.006783285              -0.000095187              -0.001560663               0.002781293               0.001220630               0.000000000               0.000000000               0.000000000               0.000000000              -0.001446623               0.006265628              -0.000073798              -0.001325684               0.002530416               0.001204732               0.000000000               0.000000000               0.000000000               0.000000000              -0.001033078               0.005799706              -0.000051563              -0.001112365               0.002304004               0.001191640               0.000000000               0.000000000               0.000000000               0.000000000              -0.000678201               0.005395436              -0.000029732              -0.000928753               0.002108045               0.001179292               0.000000000               0.000000000               0.000000000               0.000000000              -0.000392532               0.005073068              -0.000013090              -0.000781331               0.001951450               0.001170119               0.000000000               0.000000000               0.000000000               0.000000000              -0.000184023               0.004842502              -0.000006240              -0.000674320               0.001838924               0.001164605               0.000000000               0.000000000               0.000000000               0.000000000              -0.000054996               0.004699241              -0.000000780              -0.000608027               0.001769074               0.001161047               0.000000000               0.000000000               0.000000000               0.000000000               0.000000988               0.004637361               0.000003005              -0.000579298               0.001738871               0.001159573               0.000000000               0.000000000               0.000000000               0.000000000               0.000009175               0.004633896              -0.000000271              -0.000575795               0.001736548               0.001160753               0.000000000               0.000000000               0.000000000               0.000000000               0.000006409               0.004648825              -0.000001689              -0.000578698               0.001742492               0.001163794               0.000000000               0.000000000               0.000000000               0.000000000              -0.001426629               0.005787840               0.001648820              -0.001258463               0.002348748               0.001090285               0.000000000               0.000000000               0.000000000               0.000000000              -0.003071311               0.007263576               0.001299286              -0.002059684               0.003107729               0.001048045               0.000000000               0.000000000               0.000000000               0.000000000              -0.004327270               0.008697116               0.000880515              -0.002709859               0.003802296               0.001092437               0.000000000               0.000000000               0.000000000               0.000000000              -0.004141758               0.008650178               0.000636302              -0.002634425               0.003761505               0.001127080               0.000000000               0.000000000               0.000000000               0.000000000              -0.003595170               0.008220081               0.000485355              -0.002375693               0.003531897               0.001156204               0.000000000               0.000000000               0.000000000               0.000000000              -0.002974051               0.007695957               0.000389005              -0.002077259               0.003257713               0.001180454               0.000000000               0.000000000               0.000000000               0.000000000              -0.002358154               0.007174136               0.000326345              -0.001781070               0.002985045               0.001203975               0.000000000               0.000000000               0.000000000               0.000000000              -0.001783728               0.006669522               0.000282079              -0.001502584               0.002724013               0.001221429               0.000000000               0.000000000               0.000000000               0.000000000              -0.001267316               0.006195621               0.000254197              -0.001249693               0.002481751               0.001232058               0.000000000               0.000000000               0.000000000               0.000000000              -0.000816871               0.005768994               0.000231228              -0.001027448               0.002265462               0.001238013               0.000000000               0.000000000               0.000000000               0.000000000              -0.000445790               0.005404401               0.000204271              -0.000842719               0.002082355               0.001239636               0.000000000               0.000000000               0.000000000               0.000000000              -0.000166751               0.005124708               0.000165407              -0.000703119               0.001942592               0.001239473               0.000000000               0.000000000               0.000000000               0.000000000               0.000008569               0.004934602               0.000114784              -0.000613610               0.001849388               0.001235777               0.000000000               0.000000000               0.000000000               0.000000000               0.000087351               0.004829726               0.000064020              -0.000570958               0.001800212               0.001229254               0.000000000               0.000000000               0.000000000               0.000000000               0.000093123               0.004804489               0.000022855              -0.000565639               0.001790026               0.001224388               0.000000000               0.000000000               0.000000000               0.000000000               0.000065193               0.004833587              -0.000001816              -0.000579750               0.001804429               0.001224680               0.000000000               0.000000000               0.000000000               0.000000000               0.000047430               0.004862559              -0.000008158              -0.000590032               0.001817514               0.001227482               0.000000000               0.000000000               0.000000000               0.000000000              -0.002937057               0.003842870               0.000717624              -0.001581752               0.001808194               0.000226442               0.000000000               0.000000000               0.000000000               0.000000000              -0.003921461               0.005756207               0.001145443              -0.002190069               0.002648739               0.000458670               0.000000000               0.000000000               0.000000000               0.000000000              -0.004800725               0.007585663               0.001381758              -0.002748473               0.003444686               0.000696213               0.000000000               0.000000000               0.000000000               0.000000000              -0.004463679               0.007920448               0.001224902              -0.002663929               0.003528099               0.000864170               0.000000000               0.000000000               0.000000000               0.000000000              -0.003829555               0.007762104               0.001039482              -0.002406340               0.003389455               0.000983115               0.000000000               0.000000000               0.000000000               0.000000000              -0.003143905               0.007436439               0.000886558              -0.002108514               0.003181626               0.001073112               0.000000000               0.000000000               0.000000000               0.000000000              -0.002480018               0.007068359               0.000767487              -0.001813547               0.002960612               0.001147064               0.000000000               0.000000000               0.000000000               0.000000000              -0.001866284               0.006692431               0.000666778              -0.001536407               0.002742923               0.001206517               0.000000000               0.000000000               0.000000000               0.000000000              -0.001321385               0.006314862               0.000582644              -0.001284874               0.002533224               0.001248350               0.000000000               0.000000000               0.000000000               0.000000000              -0.000848254               0.005942424               0.000513682              -0.001060896               0.002334420               0.001273524               0.000000000               0.000000000               0.000000000               0.000000000              -0.000448837               0.005595087               0.000444581              -0.000867698               0.002154243               0.001286545               0.000000000               0.000000000               0.000000000               0.000000000              -0.000134895               0.005303146               0.000359029              -0.000713477               0.002005523               0.001292046               0.000000000               0.000000000               0.000000000               0.000000000               0.000081168               0.005086158               0.000260370              -0.000605330               0.001897146               0.001291816               0.000000000               0.000000000               0.000000000               0.000000000               0.000195224               0.004951711               0.000160362              -0.000545754               0.001832472               0.001286718               0.000000000               0.000000000               0.000000000               0.000000000               0.000226585               0.004907094               0.000075886              -0.000528416               0.001811820               0.001283404               0.000000000               0.000000000               0.000000000               0.000000000               0.000204758               0.004933364               0.000022149              -0.000539885               0.001824400               0.001284515               0.000000000               0.000000000               0.000000000               0.000000000               0.000169081               0.004949004              -0.000001316              -0.000555219               0.001834724               0.001279506               0.000000000               0.000000000               0.000000000               0.000000000              -0.004844815               0.002100595              -0.000170825              -0.002079376               0.001393315              -0.000686062               0.000000000               0.000000000               0.000000000               0.000000000              -0.004884663               0.004237904               0.000937144              -0.002361482               0.002199780              -0.000161702               0.000000000               0.000000000               0.000000000               0.000000000              -0.005199270               0.006263715               0.001784928              -0.002732684               0.002998778               0.000266094               0.000000000               0.000000000               0.000000000               0.000000000              -0.004729989               0.006959178               0.001784149              -0.002643637               0.003200915               0.000557278               0.000000000               0.000000000               0.000000000               0.000000000              -0.004047897               0.007107461               0.001603830              -0.002406388               0.003171259               0.000764871               0.000000000               0.000000000               0.000000000               0.000000000              -0.003337719               0.007020573               0.001409272              -0.002129211               0.003049904               0.000920693               0.000000000               0.000000000               0.000000000               0.000000000              -0.002655756               0.006842280               0.001234945              -0.001851189               0.002897800               0.001046611               0.000000000               0.000000000               0.000000000               0.000000000              -0.002021037               0.006621535               0.001078754              -0.001585577               0.002735682               0.001150105               0.000000000               0.000000000               0.000000000               0.000000000              -0.001445801               0.006367865               0.000944483              -0.001338155               0.002568652               0.001230497               0.000000000               0.000000000               0.000000000               0.000000000              -0.000935534               0.006085141               0.000834438              -0.001111465               0.002398848               0.001287383               0.000000000               0.000000000               0.000000000               0.000000000              -0.000490832               0.005786790               0.000731803              -0.000907409               0.002231380               0.001323972               0.000000000               0.000000000               0.000000000               0.000000000              -0.000111948               0.005505172               0.000617170              -0.000730125               0.002078414               0.001348289               0.000000000               0.000000000               0.000000000               0.000000000               0.000187942               0.005268106               0.000483672              -0.000588034               0.001952029               0.001363995               0.000000000               0.000000000               0.000000000               0.000000000               0.000388714               0.005093161               0.000337734              -0.000490876               0.001861329               0.001370453               0.000000000               0.000000000               0.000000000               0.000000000               0.000485906               0.004995484               0.000201026              -0.000442220               0.001812551               0.001370332               0.000000000               0.000000000               0.000000000               0.000000000               0.000488401               0.004971400               0.000087998              -0.000438274               0.001803208               0.001364934               0.000000000               0.000000000               0.000000000               0.000000000               0.000438910               0.004957500               0.000027879              -0.000455095               0.001804182               0.001349087               0.000000000               0.000000000               0.000000000               0.000000000              -0.007014500               0.000702246              -0.000924362              -0.002718215               0.001140146              -0.001578070               0.000000000               0.000000000               0.000000000               0.000000000              -0.005998323               0.002809283               0.000668703              -0.002600527               0.001803258              -0.000797269               0.000000000               0.000000000               0.000000000               0.000000000              -0.005544959               0.004754158               0.001989371              -0.002673624               0.002475910              -0.000197714               0.000000000               0.000000000               0.000000000               0.000000000              -0.004856668               0.005694206               0.002180580              -0.002533020               0.002742389               0.000209369               0.000000000               0.000000000               0.000000000               0.000000000              -0.004118614               0.006126019               0.002055622              -0.002310228               0.002812061               0.000501834               0.000000000               0.000000000               0.000000000               0.000000000              -0.003395580               0.006294554               0.001856210              -0.002060157               0.002784882               0.000724725               0.000000000               0.000000000               0.000000000               0.000000000              -0.002709880               0.006328743               0.001653515              -0.001807294               0.002711991               0.000904697               0.000000000               0.000000000               0.000000000               0.000000000              -0.002066276               0.006283818               0.001462351              -0.001560327               0.002614694               0.001054367               0.000000000               0.000000000               0.000000000               0.000000000              -0.001470857               0.006177622               0.001294107              -0.001323771               0.002500443               0.001176672               0.000000000               0.000000000               0.000000000               0.000000000              -0.000929133               0.006021146               0.001151811              -0.001101066               0.002374050               0.001272985               0.000000000               0.000000000               0.000000000               0.000000000              -0.000440785               0.005824131               0.001023115              -0.000893309               0.002239127               0.001345818               0.000000000               0.000000000               0.000000000               0.000000000              -0.000003704               0.005605479               0.000888266              -0.000702072               0.002102498               0.001400426               0.000000000               0.000000000               0.000000000               0.000000000               0.000372123               0.005389775               0.000730236              -0.000534174               0.001974632               0.001440457               0.000000000               0.000000000               0.000000000               0.000000000               0.000669305               0.005208436               0.000549001              -0.000400064               0.001869483               0.001469418               0.000000000               0.000000000               0.000000000               0.000000000               0.000869652               0.005084829               0.000362417              -0.000309483               0.001798087               0.001488604               0.000000000               0.000000000               0.000000000               0.000000000               0.000955607               0.005023217               0.000180959              -0.000269549               0.001764239               0.001494690               0.000000000               0.000000000               0.000000000               0.000000000               0.000944530               0.004992489               0.000084198              -0.000269862               0.001754100               0.001484239               0.000000000               0.000000000               0.000000000               0.000000000              -0.009286999              -0.000283843              -0.001428923              -0.003447142               0.001054425              -0.002392717               0.000000000               0.000000000               0.000000000               0.000000000              -0.007188805               0.001548915               0.000384516              -0.002889413               0.001479432              -0.001409980               0.000000000               0.000000000               0.000000000               0.000000000              -0.005855132               0.003186722               0.001965748              -0.002594010               0.001926897              -0.000667113               0.000000000               0.000000000               0.000000000               0.000000000              -0.004865286               0.004238121               0.002322745              -0.002354243               0.002197439              -0.000156804               0.000000000               0.000000000               0.000000000               0.000000000              -0.004040293               0.004894019               0.002279041              -0.002126858               0.002340275               0.000213418               0.000000000               0.000000000               0.000000000               0.000000000              -0.003297101               0.005295630               0.002112423              -0.001898363               0.002397979               0.000499616               0.000000000               0.000000000               0.000000000               0.000000000              -0.002616013               0.005537743               0.001916517              -0.001673219               0.002403635               0.000730416               0.000000000               0.000000000               0.000000000               0.000000000              -0.001973348               0.005677393               0.001721867              -0.001449677               0.002375671               0.000925994               0.000000000               0.000000000               0.000000000               0.000000000              -0.001371560               0.005736323               0.001543215              -0.001231373               0.002322546               0.001091173               0.000000000               0.000000000               0.000000000               0.000000000              -0.000808238               0.005729310               0.001388817              -0.001019251               0.002249501               0.001230250               0.000000000               0.000000000               0.000000000               0.000000000              -0.000281268               0.005662534               0.001249304              -0.000813291               0.002158589               0.001345298               0.000000000               0.000000000               0.000000000               0.000000000               0.000208477               0.005545210               0.001104350              -0.000614971               0.002053375               0.001438404               0.000000000               0.000000000               0.000000000               0.000000000               0.000659609               0.005402069               0.000934491              -0.000427904               0.001943306               0.001515402               0.000000000               0.000000000               0.000000000               0.000000000               0.001061621               0.005259173               0.000735558              -0.000259289               0.001839470               0.001580181               0.000000000               0.000000000               0.000000000               0.000000000               0.001394637               0.005139987               0.000516279              -0.000119510               0.001753148               0.001633639               0.000000000               0.000000000               0.000000000               0.000000000               0.001627981               0.005057812               0.000273430              -0.000021734               0.001693165               0.001671431               0.000000000               0.000000000               0.000000000               0.000000000               0.001722661               0.005028211               0.000147980               0.000017471               0.001670230               0.001687701               0.000000000               0.000000000               0.000000000               0.000000000              -0.011449506              -0.000883392              -0.001584543              -0.004183138               0.001099907              -0.003083231               0.000000000               0.000000000               0.000000000               0.000000000              -0.008352915               0.000529840               0.000144201              -0.003198570               0.001242795              -0.001955775               0.000000000               0.000000000               0.000000000               0.000000000              -0.006132732               0.001726823               0.001707460              -0.002515624               0.001414139              -0.001101485               0.000000000               0.000000000               0.000000000               0.000000000              -0.004795102               0.002764946               0.002148339              -0.002143778               0.001636229              -0.000507549               0.000000000               0.000000000               0.000000000               0.000000000              -0.003844375               0.003558475               0.002182363              -0.001886446               0.001814961              -0.000071486               0.000000000               0.000000000               0.000000000               0.000000000              -0.003069740               0.004144427               0.002068143              -0.001669202               0.001937862               0.000268659               0.000000000               0.000000000               0.000000000               0.000000000              -0.002386634               0.004571993               0.001908457              -0.001466484               0.002012810               0.000546326               0.000000000               0.000000000               0.000000000               0.000000000              -0.001751334               0.004886962               0.001739627              -0.001267618               0.002051510               0.000783892               0.000000000               0.000000000               0.000000000               0.000000000              -0.001146400               0.005104307               0.001578550              -0.001067936               0.002057397               0.000989461               0.000000000               0.000000000               0.000000000               0.000000000              -0.000568864               0.005237416               0.001437117              -0.000868000               0.002035121               0.001167121               0.000000000               0.000000000               0.000000000               0.000000000              -0.000015267               0.005303430               0.001306396              -0.000668653               0.001990676               0.001322023               0.000000000               0.000000000               0.000000000               0.000000000               0.000519141               0.005310894               0.001170779              -0.000469183               0.001926674               0.001457491               0.000000000               0.000000000               0.000000000               0.000000000               0.001043121               0.005272620               0.001013478              -0.000267907               0.001846825               0.001578917               0.000000000               0.000000000               0.000000000               0.000000000               0.001556968               0.005206162               0.000822928              -0.000066908               0.001757672               0.001690765               0.000000000               0.000000000               0.000000000               0.000000000               0.002039171               0.005129377               0.000596377               0.000123516               0.001668603               0.001792119               0.000000000               0.000000000               0.000000000               0.000000000               0.002464821               0.005059175               0.000323756               0.000291908               0.001589072               0.001880980               0.000000000               0.000000000               0.000000000               0.000000000               0.002719131               0.005052039               0.000187194               0.000388165               0.001554608               0.001942773               0.000000000               0.000000000               0.000000000               0.000000000              -0.013246599              -0.001176966              -0.001351228              -0.004820351               0.001214453              -0.003605898               0.000000000               0.000000000               0.000000000               0.000000000              -0.009352814              -0.000199919              -0.000002961              -0.003482313               0.001094124              -0.002388189               0.000000000               0.000000000               0.000000000               0.000000000              -0.006375897               0.000541732               0.001248468              -0.002458675               0.001000129              -0.001458547               0.000000000               0.000000000               0.000000000               0.000000000              -0.004703653               0.001489157               0.001649760              -0.001950012               0.001146381              -0.000803631               0.000000000               0.000000000               0.000000000               0.000000000              -0.003609060               0.002341759               0.001722773              -0.001646115               0.001329281              -0.000316833               0.000000000               0.000000000               0.000000000               0.000000000              -0.002786316               0.003047369               0.001663428              -0.001425787               0.001491041               0.000065254               0.000000000               0.000000000               0.000000000               0.000000000              -0.002092293               0.003613948               0.001554839              -0.001236351               0.001616754               0.000380403               0.000000000               0.000000000               0.000000000               0.000000000              -0.001461105               0.004061404               0.001433480              -0.001055588               0.001705650               0.000650062               0.000000000               0.000000000               0.000000000               0.000000000              -0.000858473               0.004403304               0.001313844              -0.000872339               0.001758533               0.000886194               0.000000000               0.000000000               0.000000000               0.000000000              -0.000274498               0.004659524               0.001204579              -0.000685376               0.001781618               0.001096241               0.000000000               0.000000000               0.000000000               0.000000000               0.000296101               0.004849509               0.001102338              -0.000495150               0.001781537               0.001286387               0.000000000               0.000000000               0.000000000               0.000000000               0.000865492               0.004975201               0.001001661              -0.000297340               0.001757497               0.001460157               0.000000000               0.000000000               0.000000000               0.000000000               0.001450382               0.005040532               0.000888182              -0.000086174               0.001708885               0.001622711               0.000000000               0.000000000               0.000000000               0.000000000               0.002057303               0.005067093               0.000738160               0.000138100               0.001642981               0.001781081               0.000000000               0.000000000               0.000000000               0.000000000               0.002681273               0.005065007               0.000544129               0.000372348               0.001564203               0.001936551               0.000000000               0.000000000               0.000000000               0.000000000               0.003318836               0.005038271               0.000299191               0.000614774               0.001474482               0.002089256               0.000000000               0.000000000               0.000000000               0.000000000               0.003762552               0.005066398               0.000179270               0.000777649               0.001429566               0.002207216               0.000000000               0.000000000               0.000000000               0.000000000              -0.014435083              -0.001284109              -0.000775414              -0.005252639               0.001322835              -0.003929805               0.000000000               0.000000000               0.000000000               0.000000000              -0.010032296              -0.000628408              -0.000040840              -0.003683557               0.001018376              -0.002665181               0.000000000               0.000000000               0.000000000               0.000000000              -0.006550718              -0.000226120               0.000652939              -0.002428253               0.000734039              -0.001694214               0.000000000               0.000000000               0.000000000               0.000000000              -0.004632649               0.000623506               0.000892529              -0.001815180               0.000812889              -0.001002290               0.000000000               0.000000000               0.000000000               0.000000000              -0.003417680               0.001487519               0.000949184              -0.001467568               0.000985022              -0.000482546               0.000000000               0.000000000               0.000000000               0.000000000              -0.002543642               0.002250795               0.000928453              -0.001235212               0.001161994              -0.000073218               0.000000000               0.000000000               0.000000000               0.000000000              -0.001836834               0.002894729               0.000875908              -0.001050651               0.001315117               0.000264465               0.000000000               0.000000000               0.000000000               0.000000000              -0.001210382               0.003423409               0.000812722              -0.000881818               0.001435064               0.000553246               0.000000000               0.000000000               0.000000000               0.000000000              -0.000619616               0.003852114               0.000747651              -0.000713869               0.001521981               0.000808112               0.000000000               0.000000000               0.000000000               0.000000000              -0.000038076               0.004202189               0.000687159              -0.000539551               0.001580566               0.001041015               0.000000000               0.000000000               0.000000000               0.000000000               0.000545414               0.004480766               0.000631749              -0.000355565               0.001612095               0.001256531               0.000000000               0.000000000               0.000000000               0.000000000               0.001141418               0.004693299               0.000583765              -0.000158631               0.001617294               0.001458664               0.000000000               0.000000000               0.000000000               0.000000000               0.001759971               0.004842152               0.000528783               0.000054719               0.001595795               0.001650514               0.000000000               0.000000000               0.000000000               0.000000000               0.002422646               0.004940477               0.000444628               0.000290930               0.001549833               0.001840762               0.000000000               0.000000000               0.000000000               0.000000000               0.003154315               0.004996501               0.000332887               0.000558300               0.001479384               0.002037684               0.000000000               0.000000000               0.000000000               0.000000000               0.003971329               0.005009599               0.000188377               0.000863040               0.001382170               0.002245210               0.000000000               0.000000000               0.000000000               0.000000000               0.004583622               0.005070427               0.000117608               0.001085044               0.001328444               0.002413488               0.000000000               0.000000000               0.000000000               0.000000000               0.000000000               0.000000000               0.000000000               0.000000000               0.000000000               0.000000000               0.000000000               0.000000000               0.000000000               0.000000000               0.000000000               0.000000000               0.000000000               0.000000000               0.000000000               0.000000000               0.000000000               0.000000000               0.000000000               0.000000000               0.000000000               0.000000000               0.000000000               0.000000000               0.000000000               0.000000000               0.000000000               0.000000000               0.000000000               0.000000000               0.000000000               0.000000000               0.000000000               0.000000000               0.000000000               0.000000000               0.000000000               0.000000000               0.000000000               0.000000000               0.000000000               0.000000000               0.000000000               0.000000000               0.000000000               0.000000000               0.000000000               0.000000000               0.000000000               0.000000000               0.000000000               0.000000000               0.000000000               0.000000000               0.000000000               0.000000000               0.000000000               0.000000000               0.000000000               0.000000000               0.000000000               0.000000000               0.000000000               0.000000000               0.000000000               0.000000000               0.000000000               0.000000000               0.000000000               0.000000000               0.000000000               0.000000000               0.000000000               0.000000000               0.000000000               0.000000000               0.000000000               0.000000000               0.000000000               0.000000000               0.000000000               0.000000000               0.000000000               0.000000000               0.000000000               0.000000000               0.000000000               0.000000000               0.000000000               0.000000000               0.000000000               0.000000000               0.000000000               0.000000000               0.000000000               0.000000000               0.000000000               0.000000000               0.000000000               0.000000000               0.000000000               0.000000000               0.000000000               0.000000000               0.000000000               0.000000000               0.000000000               0.000000000               0.000000000               0.000000000               0.000000000               0.000000000               0.000000000               0.000000000               0.000000000               0.000000000               0.000000000               0.000000000               0.000000000               0.000000000               0.000000000               0.000000000               0.000000000               0.000000000               0.000000000               0.000000000               0.000000000               0.000000000               0.000000000               0.000000000               0.000000000               0.000000000               0.000000000               0.000000000               0.000000000               0.000000000               0.000000000               0.000000000               0.000000000               0.000000000               0.000000000               0.000000000               0.000000000               0.000000000               0.000000000               0.000000000               0.000000000               0.000000000               0.000000000               0.000000000               0.000000000               0.000000000               0.000000000               0.000000000               0.000000000               0.000000000               0.000000000               0.000000000               0.000000000               0.000000000               0.000000000               0.000000000               0.000000000               0.000000000               0.000000000               0.000000000               0.000000000               0.000000000               0.000000000               0.000000000 </DataArray>
</PointData>
</Piece>
</UnstructuredGrid> </VTKFile>
