<?xml version="1.0"?>
<VTKFile type="UnstructuredGrid" version="0.1">
<UnstructuredGrid>
<Piece NumberOfPoints="      1156" NumberOfCells="      1024">
<Points>
<DataArray type="Float64"                                    Name="coordinates"                                                      NumberOfComponents=" 3" format="ascii">
              0.133000000               0.000000000               0.000000000               0.155937500               0.000000000               0.000000000               0.178875000               0.000000000               0.000000000               0.201812500               0.000000000               0.000000000               0.224750000               0.000000000               0.000000000               0.247687500               0.000000000               0.000000000               0.270625000               0.000000000               0.000000000               0.293562500               0.000000000               0.000000000               0.316500000               0.000000000               0.000000000               0.339437500               0.000000000               0.000000000               0.362375000               0.000000000               0.000000000               0.385312500               0.000000000               0.000000000               0.408250000               0.000000000               0.000000000               0.431187500               0.000000000               0.000000000               0.454125000               0.000000000               0.000000000               0.477062500               0.000000000               0.000000000               0.500000000               0.000000000               0.000000000               0.132359569               0.013036280               0.000000000               0.155337096               0.016127762               0.000000000               0.178314623               0.019219245               0.000000000               0.201292150               0.022310727               0.000000000               0.224269676               0.025402210               0.000000000               0.247247203               0.028493692               0.000000000               0.270224730               0.031585175               0.000000000               0.293202257               0.034676657               0.000000000               0.316179784               0.037768140               0.000000000               0.339157311               0.040859622               0.000000000               0.362134838               0.043951105               0.000000000               0.385112365               0.047042587               0.000000000               0.408089892               0.050134070               0.000000000               0.431067419               0.053225552               0.000000000               0.454044946               0.056317035               0.000000000               0.477022473               0.059408517               0.000000000               0.500000000               0.062500000               0.000000000               0.130444442               0.025947013               0.000000000               0.153541665               0.032137825               0.000000000               0.176638887               0.038328636               0.000000000               0.199736109               0.044519448               0.000000000               0.222833332               0.050710260               0.000000000               0.245930554               0.056901071               0.000000000               0.269027776               0.063091883               0.000000000               0.292124999               0.069282695               0.000000000               0.315222221               0.075473506               0.000000000               0.338319444               0.081664318               0.000000000               0.361416666               0.087855130               0.000000000               0.384513888               0.094045942               0.000000000               0.407611111               0.100236753               0.000000000               0.430708333               0.106427565               0.000000000               0.453805555               0.112618377               0.000000000               0.476902778               0.118809188               0.000000000               0.500000000               0.125000000               0.000000000               0.127273065               0.038607862               0.000000000               0.150568498               0.047913621               0.000000000               0.173863932               0.057219379               0.000000000               0.197159365               0.066525138               0.000000000               0.220454798               0.075830897               0.000000000               0.243750232               0.085136655               0.000000000               0.267045665               0.094442414               0.000000000               0.290341099               0.103748172               0.000000000               0.313636532               0.113053931               0.000000000               0.336931966               0.122359690               0.000000000               0.360227399               0.131665448               0.000000000               0.383522833               0.140971207               0.000000000               0.406818266               0.150276966               0.000000000               0.430113700               0.159582724               0.000000000               0.453409133               0.168888483               0.000000000               0.476704567               0.178194241               0.000000000               0.500000000               0.187500000               0.000000000               0.122875978               0.050896897               0.000000000               0.146446229               0.063340840               0.000000000               0.170016481               0.075784784               0.000000000               0.193586732               0.088228728               0.000000000               0.217156983               0.100672672               0.000000000               0.240727235               0.113116616               0.000000000               0.264297486               0.125560560               0.000000000               0.287867738               0.138004504               0.000000000               0.311437989               0.150448448               0.000000000               0.335008240               0.162892392               0.000000000               0.358578492               0.175336336               0.000000000               0.382148743               0.187780280               0.000000000               0.405718994               0.200224224               0.000000000               0.429289246               0.212668168               0.000000000               0.452859497               0.225112112               0.000000000               0.476429749               0.237556056               0.000000000               0.500000000               0.250000000               0.000000000               0.117295528               0.062695766               0.000000000               0.141214558               0.078308531               0.000000000               0.165133587               0.093921295               0.000000000               0.189052617               0.109534060               0.000000000               0.212971646               0.125146824               0.000000000               0.236890676               0.140759589               0.000000000               0.260809705               0.156372354               0.000000000               0.284728735               0.171985118               0.000000000               0.308647764               0.187597883               0.000000000               0.332566794               0.203210648               0.000000000               0.356485823               0.218823412               0.000000000               0.380404853               0.234436177               0.000000000               0.404323882               0.250048941               0.000000000               0.428242912               0.265661706               0.000000000               0.452161941               0.281274471               0.000000000               0.476080971               0.296887235               0.000000000               0.500000000               0.312500000               0.000000000               0.110585458               0.073890841               0.000000000               0.134923867               0.092710163               0.000000000               0.159262276               0.111529486               0.000000000               0.183600685               0.130348808               0.000000000               0.207939094               0.149168131               0.000000000               0.232277503               0.167987453               0.000000000               0.256615912               0.186806776               0.000000000               0.280954320               0.205626098               0.000000000               0.305292729               0.224445420               0.000000000               0.329631138               0.243264743               0.000000000               0.353969547               0.262084065               0.000000000               0.378307956               0.280903388               0.000000000               0.402646365               0.299722710               0.000000000               0.426984773               0.318542033               0.000000000               0.451323182               0.337361355               0.000000000               0.475661591               0.356180678               0.000000000               0.500000000               0.375000000               0.000000000               0.102810390               0.084374307               0.000000000               0.127634741               0.106444663               0.000000000               0.152459092               0.128515018               0.000000000               0.177283442               0.150585374               0.000000000               0.202107793               0.172655730               0.000000000               0.226932143               0.194726086               0.000000000               0.251756494               0.216796442               0.000000000               0.276580845               0.238866798               0.000000000               0.301405195               0.260937153               0.000000000               0.326229546               0.283007509               0.000000000               0.351053896               0.305077865               0.000000000               0.375878247               0.327148221               0.000000000               0.400702598               0.349218577               0.000000000               0.425526948               0.371288933               0.000000000               0.450351299               0.393359288               0.000000000               0.475175649               0.415429644               0.000000000               0.500000000               0.437500000               0.000000000               0.094045202               0.094045202               0.000000000               0.119417377               0.119417377               0.000000000               0.144789552               0.144789552               0.000000000               0.170161727               0.170161727               0.000000000               0.195533901               0.195533901               0.000000000               0.220906076               0.220906076               0.000000000               0.246278251               0.246278251               0.000000000               0.271650426               0.271650426               0.000000000               0.297022601               0.297022601               0.000000000               0.322394776               0.322394776               0.000000000               0.347766951               0.347766951               0.000000000               0.373139126               0.373139126               0.000000000               0.398511300               0.398511300               0.000000000               0.423883475               0.423883475               0.000000000               0.449255650               0.449255650               0.000000000               0.474627825               0.474627825               0.000000000               0.500000000               0.500000000               0.000000000               0.084374307               0.102810390               0.000000000               0.106444663               0.127634741               0.000000000               0.128515018               0.152459092               0.000000000               0.150585374               0.177283442               0.000000000               0.172655730               0.202107793               0.000000000               0.194726086               0.226932143               0.000000000               0.216796442               0.251756494               0.000000000               0.238866798               0.276580845               0.000000000               0.260937153               0.301405195               0.000000000               0.283007509               0.326229546               0.000000000               0.305077865               0.351053896               0.000000000               0.327148221               0.375878247               0.000000000               0.349218577               0.400702598               0.000000000               0.371288933               0.425526948               0.000000000               0.393359288               0.450351299               0.000000000               0.415429644               0.475175649               0.000000000               0.437500000               0.500000000               0.000000000               0.073890841               0.110585458               0.000000000               0.092710163               0.134923867               0.000000000               0.111529486               0.159262276               0.000000000               0.130348808               0.183600685               0.000000000               0.149168131               0.207939094               0.000000000               0.167987453               0.232277503               0.000000000               0.186806776               0.256615912               0.000000000               0.205626098               0.280954320               0.000000000               0.224445420               0.305292729               0.000000000               0.243264743               0.329631138               0.000000000               0.262084065               0.353969547               0.000000000               0.280903388               0.378307956               0.000000000               0.299722710               0.402646365               0.000000000               0.318542033               0.426984773               0.000000000               0.337361355               0.451323182               0.000000000               0.356180678               0.475661591               0.000000000               0.375000000               0.500000000               0.000000000               0.062695766               0.117295528               0.000000000               0.078308531               0.141214558               0.000000000               0.093921295               0.165133587               0.000000000               0.109534060               0.189052617               0.000000000               0.125146824               0.212971646               0.000000000               0.140759589               0.236890676               0.000000000               0.156372354               0.260809705               0.000000000               0.171985118               0.284728735               0.000000000               0.187597883               0.308647764               0.000000000               0.203210648               0.332566794               0.000000000               0.218823412               0.356485823               0.000000000               0.234436177               0.380404853               0.000000000               0.250048941               0.404323882               0.000000000               0.265661706               0.428242912               0.000000000               0.281274471               0.452161941               0.000000000               0.296887235               0.476080971               0.000000000               0.312500000               0.500000000               0.000000000               0.050896897               0.122875978               0.000000000               0.063340840               0.146446229               0.000000000               0.075784784               0.170016481               0.000000000               0.088228728               0.193586732               0.000000000               0.100672672               0.217156983               0.000000000               0.113116616               0.240727235               0.000000000               0.125560560               0.264297486               0.000000000               0.138004504               0.287867738               0.000000000               0.150448448               0.311437989               0.000000000               0.162892392               0.335008240               0.000000000               0.175336336               0.358578492               0.000000000               0.187780280               0.382148743               0.000000000               0.200224224               0.405718994               0.000000000               0.212668168               0.429289246               0.000000000               0.225112112               0.452859497               0.000000000               0.237556056               0.476429749               0.000000000               0.250000000               0.500000000               0.000000000               0.038607862               0.127273065               0.000000000               0.047913621               0.150568498               0.000000000               0.057219379               0.173863932               0.000000000               0.066525138               0.197159365               0.000000000               0.075830897               0.220454798               0.000000000               0.085136655               0.243750232               0.000000000               0.094442414               0.267045665               0.000000000               0.103748172               0.290341099               0.000000000               0.113053931               0.313636532               0.000000000               0.122359690               0.336931966               0.000000000               0.131665448               0.360227399               0.000000000               0.140971207               0.383522833               0.000000000               0.150276966               0.406818266               0.000000000               0.159582724               0.430113700               0.000000000               0.168888483               0.453409133               0.000000000               0.178194241               0.476704567               0.000000000               0.187500000               0.500000000               0.000000000               0.025947013               0.130444442               0.000000000               0.032137825               0.153541665               0.000000000               0.038328636               0.176638887               0.000000000               0.044519448               0.199736109               0.000000000               0.050710260               0.222833332               0.000000000               0.056901071               0.245930554               0.000000000               0.063091883               0.269027776               0.000000000               0.069282695               0.292124999               0.000000000               0.075473506               0.315222221               0.000000000               0.081664318               0.338319444               0.000000000               0.087855130               0.361416666               0.000000000               0.094045942               0.384513888               0.000000000               0.100236753               0.407611111               0.000000000               0.106427565               0.430708333               0.000000000               0.112618377               0.453805555               0.000000000               0.118809188               0.476902778               0.000000000               0.125000000               0.500000000               0.000000000               0.013036280               0.132359569               0.000000000               0.016127762               0.155337096               0.000000000               0.019219245               0.178314623               0.000000000               0.022310727               0.201292150               0.000000000               0.025402210               0.224269676               0.000000000               0.028493692               0.247247203               0.000000000               0.031585175               0.270224730               0.000000000               0.034676657               0.293202257               0.000000000               0.037768140               0.316179784               0.000000000               0.040859622               0.339157311               0.000000000               0.043951105               0.362134838               0.000000000               0.047042587               0.385112365               0.000000000               0.050134070               0.408089892               0.000000000               0.053225552               0.431067419               0.000000000               0.056317035               0.454044946               0.000000000               0.059408517               0.477022473               0.000000000               0.062500000               0.500000000               0.000000000               0.000000000               0.133000000               0.000000000               0.000000000               0.155937500               0.000000000               0.000000000               0.178875000               0.000000000               0.000000000               0.201812500               0.000000000               0.000000000               0.224750000               0.000000000               0.000000000               0.247687500               0.000000000               0.000000000               0.270625000               0.000000000               0.000000000               0.293562500               0.000000000               0.000000000               0.316500000               0.000000000               0.000000000               0.339437500               0.000000000               0.000000000               0.362375000               0.000000000               0.000000000               0.385312500               0.000000000               0.000000000               0.408250000               0.000000000               0.000000000               0.431187500               0.000000000               0.000000000               0.454125000               0.000000000               0.000000000               0.477062500               0.000000000               0.000000000               0.500000000               0.000000000               0.133000000               0.000000000               0.000000000               0.155937500               0.000000000               0.000000000               0.178875000               0.000000000               0.000000000               0.201812500               0.000000000               0.000000000               0.224750000               0.000000000               0.000000000               0.247687500               0.000000000               0.000000000               0.270625000               0.000000000               0.000000000               0.293562500               0.000000000               0.000000000               0.316500000               0.000000000               0.000000000               0.339437500               0.000000000               0.000000000               0.362375000               0.000000000               0.000000000               0.385312500               0.000000000               0.000000000               0.408250000               0.000000000               0.000000000               0.431187500               0.000000000               0.000000000               0.454125000               0.000000000               0.000000000               0.477062500               0.000000000               0.000000000               0.500000000               0.000000000               0.000000000               0.132359569              -0.013036280               0.000000000               0.155337096              -0.016127762               0.000000000               0.178314623              -0.019219245               0.000000000               0.201292150              -0.022310727               0.000000000               0.224269676              -0.025402210               0.000000000               0.247247203              -0.028493692               0.000000000               0.270224730              -0.031585175               0.000000000               0.293202257              -0.034676657               0.000000000               0.316179784              -0.037768140               0.000000000               0.339157311              -0.040859622               0.000000000               0.362134838              -0.043951105               0.000000000               0.385112365              -0.047042587               0.000000000               0.408089892              -0.050134070               0.000000000               0.431067419              -0.053225552               0.000000000               0.454044946              -0.056317035               0.000000000               0.477022473              -0.059408517               0.000000000               0.500000000              -0.062500000               0.000000000               0.130444442              -0.025947013               0.000000000               0.153541665              -0.032137825               0.000000000               0.176638887              -0.038328636               0.000000000               0.199736109              -0.044519448               0.000000000               0.222833332              -0.050710260               0.000000000               0.245930554              -0.056901071               0.000000000               0.269027776              -0.063091883               0.000000000               0.292124999              -0.069282695               0.000000000               0.315222221              -0.075473506               0.000000000               0.338319444              -0.081664318               0.000000000               0.361416666              -0.087855130               0.000000000               0.384513888              -0.094045942               0.000000000               0.407611111              -0.100236753               0.000000000               0.430708333              -0.106427565               0.000000000               0.453805555              -0.112618377               0.000000000               0.476902778              -0.118809188               0.000000000               0.500000000              -0.125000000               0.000000000               0.127273065              -0.038607862               0.000000000               0.150568498              -0.047913621               0.000000000               0.173863932              -0.057219379               0.000000000               0.197159365              -0.066525138               0.000000000               0.220454798              -0.075830897               0.000000000               0.243750232              -0.085136655               0.000000000               0.267045665              -0.094442414               0.000000000               0.290341099              -0.103748172               0.000000000               0.313636532              -0.113053931               0.000000000               0.336931966              -0.122359690               0.000000000               0.360227399              -0.131665448               0.000000000               0.383522833              -0.140971207               0.000000000               0.406818266              -0.150276966               0.000000000               0.430113700              -0.159582724               0.000000000               0.453409133              -0.168888483               0.000000000               0.476704567              -0.178194241               0.000000000               0.500000000              -0.187500000               0.000000000               0.122875978              -0.050896897               0.000000000               0.146446229              -0.063340840               0.000000000               0.170016481              -0.075784784               0.000000000               0.193586732              -0.088228728               0.000000000               0.217156983              -0.100672672               0.000000000               0.240727235              -0.113116616               0.000000000               0.264297486              -0.125560560               0.000000000               0.287867738              -0.138004504               0.000000000               0.311437989              -0.150448448               0.000000000               0.335008240              -0.162892392               0.000000000               0.358578492              -0.175336336               0.000000000               0.382148743              -0.187780280               0.000000000               0.405718994              -0.200224224               0.000000000               0.429289246              -0.212668168               0.000000000               0.452859497              -0.225112112               0.000000000               0.476429749              -0.237556056               0.000000000               0.500000000              -0.250000000               0.000000000               0.117295528              -0.062695766               0.000000000               0.141214558              -0.078308531               0.000000000               0.165133587              -0.093921295               0.000000000               0.189052617              -0.109534060               0.000000000               0.212971646              -0.125146824               0.000000000               0.236890676              -0.140759589               0.000000000               0.260809705              -0.156372354               0.000000000               0.284728735              -0.171985118               0.000000000               0.308647764              -0.187597883               0.000000000               0.332566794              -0.203210648               0.000000000               0.356485823              -0.218823412               0.000000000               0.380404853              -0.234436177               0.000000000               0.404323882              -0.250048941               0.000000000               0.428242912              -0.265661706               0.000000000               0.452161941              -0.281274471               0.000000000               0.476080971              -0.296887235               0.000000000               0.500000000              -0.312500000               0.000000000               0.110585458              -0.073890841               0.000000000               0.134923867              -0.092710163               0.000000000               0.159262276              -0.111529486               0.000000000               0.183600685              -0.130348808               0.000000000               0.207939094              -0.149168131               0.000000000               0.232277503              -0.167987453               0.000000000               0.256615912              -0.186806776               0.000000000               0.280954320              -0.205626098               0.000000000               0.305292729              -0.224445420               0.000000000               0.329631138              -0.243264743               0.000000000               0.353969547              -0.262084065               0.000000000               0.378307956              -0.280903388               0.000000000               0.402646365              -0.299722710               0.000000000               0.426984773              -0.318542033               0.000000000               0.451323182              -0.337361355               0.000000000               0.475661591              -0.356180678               0.000000000               0.500000000              -0.375000000               0.000000000               0.102810390              -0.084374307               0.000000000               0.127634741              -0.106444663               0.000000000               0.152459092              -0.128515018               0.000000000               0.177283442              -0.150585374               0.000000000               0.202107793              -0.172655730               0.000000000               0.226932143              -0.194726086               0.000000000               0.251756494              -0.216796442               0.000000000               0.276580845              -0.238866798               0.000000000               0.301405195              -0.260937153               0.000000000               0.326229546              -0.283007509               0.000000000               0.351053896              -0.305077865               0.000000000               0.375878247              -0.327148221               0.000000000               0.400702598              -0.349218577               0.000000000               0.425526948              -0.371288933               0.000000000               0.450351299              -0.393359288               0.000000000               0.475175649              -0.415429644               0.000000000               0.500000000              -0.437500000               0.000000000               0.094045202              -0.094045202               0.000000000               0.119417377              -0.119417377               0.000000000               0.144789552              -0.144789552               0.000000000               0.170161727              -0.170161727               0.000000000               0.195533901              -0.195533901               0.000000000               0.220906076              -0.220906076               0.000000000               0.246278251              -0.246278251               0.000000000               0.271650426              -0.271650426               0.000000000               0.297022601              -0.297022601               0.000000000               0.322394776              -0.322394776               0.000000000               0.347766951              -0.347766951               0.000000000               0.373139126              -0.373139126               0.000000000               0.398511300              -0.398511300               0.000000000               0.423883475              -0.423883475               0.000000000               0.449255650              -0.449255650               0.000000000               0.474627825              -0.474627825               0.000000000               0.500000000              -0.500000000               0.000000000               0.084374307              -0.102810390               0.000000000               0.106444663              -0.127634741               0.000000000               0.128515018              -0.152459092               0.000000000               0.150585374              -0.177283442               0.000000000               0.172655730              -0.202107793               0.000000000               0.194726086              -0.226932143               0.000000000               0.216796442              -0.251756494               0.000000000               0.238866798              -0.276580845               0.000000000               0.260937153              -0.301405195               0.000000000               0.283007509              -0.326229546               0.000000000               0.305077865              -0.351053896               0.000000000               0.327148221              -0.375878247               0.000000000               0.349218577              -0.400702598               0.000000000               0.371288933              -0.425526948               0.000000000               0.393359288              -0.450351299               0.000000000               0.415429644              -0.475175649               0.000000000               0.437500000              -0.500000000               0.000000000               0.073890841              -0.110585458               0.000000000               0.092710163              -0.134923867               0.000000000               0.111529486              -0.159262276               0.000000000               0.130348808              -0.183600685               0.000000000               0.149168131              -0.207939094               0.000000000               0.167987453              -0.232277503               0.000000000               0.186806776              -0.256615912               0.000000000               0.205626098              -0.280954320               0.000000000               0.224445420              -0.305292729               0.000000000               0.243264743              -0.329631138               0.000000000               0.262084065              -0.353969547               0.000000000               0.280903388              -0.378307956               0.000000000               0.299722710              -0.402646365               0.000000000               0.318542033              -0.426984773               0.000000000               0.337361355              -0.451323182               0.000000000               0.356180678              -0.475661591               0.000000000               0.375000000              -0.500000000               0.000000000               0.062695766              -0.117295528               0.000000000               0.078308531              -0.141214558               0.000000000               0.093921295              -0.165133587               0.000000000               0.109534060              -0.189052617               0.000000000               0.125146824              -0.212971646               0.000000000               0.140759589              -0.236890676               0.000000000               0.156372354              -0.260809705               0.000000000               0.171985118              -0.284728735               0.000000000               0.187597883              -0.308647764               0.000000000               0.203210648              -0.332566794               0.000000000               0.218823412              -0.356485823               0.000000000               0.234436177              -0.380404853               0.000000000               0.250048941              -0.404323882               0.000000000               0.265661706              -0.428242912               0.000000000               0.281274471              -0.452161941               0.000000000               0.296887235              -0.476080971               0.000000000               0.312500000              -0.500000000               0.000000000               0.050896897              -0.122875978               0.000000000               0.063340840              -0.146446229               0.000000000               0.075784784              -0.170016481               0.000000000               0.088228728              -0.193586732               0.000000000               0.100672672              -0.217156983               0.000000000               0.113116616              -0.240727235               0.000000000               0.125560560              -0.264297486               0.000000000               0.138004504              -0.287867738               0.000000000               0.150448448              -0.311437989               0.000000000               0.162892392              -0.335008240               0.000000000               0.175336336              -0.358578492               0.000000000               0.187780280              -0.382148743               0.000000000               0.200224224              -0.405718994               0.000000000               0.212668168              -0.429289246               0.000000000               0.225112112              -0.452859497               0.000000000               0.237556056              -0.476429749               0.000000000               0.250000000              -0.500000000               0.000000000               0.038607862              -0.127273065               0.000000000               0.047913621              -0.150568498               0.000000000               0.057219379              -0.173863932               0.000000000               0.066525138              -0.197159365               0.000000000               0.075830897              -0.220454798               0.000000000               0.085136655              -0.243750232               0.000000000               0.094442414              -0.267045665               0.000000000               0.103748172              -0.290341099               0.000000000               0.113053931              -0.313636532               0.000000000               0.122359690              -0.336931966               0.000000000               0.131665448              -0.360227399               0.000000000               0.140971207              -0.383522833               0.000000000               0.150276966              -0.406818266               0.000000000               0.159582724              -0.430113700               0.000000000               0.168888483              -0.453409133               0.000000000               0.178194241              -0.476704567               0.000000000               0.187500000              -0.500000000               0.000000000               0.025947013              -0.130444442               0.000000000               0.032137825              -0.153541665               0.000000000               0.038328636              -0.176638887               0.000000000               0.044519448              -0.199736109               0.000000000               0.050710260              -0.222833332               0.000000000               0.056901071              -0.245930554               0.000000000               0.063091883              -0.269027776               0.000000000               0.069282695              -0.292124999               0.000000000               0.075473506              -0.315222221               0.000000000               0.081664318              -0.338319444               0.000000000               0.087855130              -0.361416666               0.000000000               0.094045942              -0.384513888               0.000000000               0.100236753              -0.407611111               0.000000000               0.106427565              -0.430708333               0.000000000               0.112618377              -0.453805555               0.000000000               0.118809188              -0.476902778               0.000000000               0.125000000              -0.500000000               0.000000000               0.013036280              -0.132359569               0.000000000               0.016127762              -0.155337096               0.000000000               0.019219245              -0.178314623               0.000000000               0.022310727              -0.201292150               0.000000000               0.025402210              -0.224269676               0.000000000               0.028493692              -0.247247203               0.000000000               0.031585175              -0.270224730               0.000000000               0.034676657              -0.293202257               0.000000000               0.037768140              -0.316179784               0.000000000               0.040859622              -0.339157311               0.000000000               0.043951105              -0.362134838               0.000000000               0.047042587              -0.385112365               0.000000000               0.050134070              -0.408089892               0.000000000               0.053225552              -0.431067419               0.000000000               0.056317035              -0.454044946               0.000000000               0.059408517              -0.477022473               0.000000000               0.062500000              -0.500000000               0.000000000               0.000000000              -0.133000000               0.000000000               0.000000000              -0.155937500               0.000000000               0.000000000              -0.178875000               0.000000000               0.000000000              -0.201812500               0.000000000               0.000000000              -0.224750000               0.000000000               0.000000000              -0.247687500               0.000000000               0.000000000              -0.270625000               0.000000000               0.000000000              -0.293562500               0.000000000               0.000000000              -0.316500000               0.000000000               0.000000000              -0.339437500               0.000000000               0.000000000              -0.362375000               0.000000000               0.000000000              -0.385312500               0.000000000               0.000000000              -0.408250000               0.000000000               0.000000000              -0.431187500               0.000000000               0.000000000              -0.454125000               0.000000000               0.000000000              -0.477062500               0.000000000               0.000000000              -0.500000000               0.000000000              -0.133000000               0.000000000               0.000000000              -0.155937500               0.000000000               0.000000000              -0.178875000               0.000000000               0.000000000              -0.201812500               0.000000000               0.000000000              -0.224750000               0.000000000               0.000000000              -0.247687500               0.000000000               0.000000000              -0.270625000               0.000000000               0.000000000              -0.293562500               0.000000000               0.000000000              -0.316500000               0.000000000               0.000000000              -0.339437500               0.000000000               0.000000000              -0.362375000               0.000000000               0.000000000              -0.385312500               0.000000000               0.000000000              -0.408250000               0.000000000               0.000000000              -0.431187500               0.000000000               0.000000000              -0.454125000               0.000000000               0.000000000              -0.477062500               0.000000000               0.000000000              -0.500000000               0.000000000               0.000000000              -0.132359569              -0.013036280               0.000000000              -0.155337096              -0.016127762               0.000000000              -0.178314623              -0.019219245               0.000000000              -0.201292150              -0.022310727               0.000000000              -0.224269676              -0.025402210               0.000000000              -0.247247203              -0.028493692               0.000000000              -0.270224730              -0.031585175               0.000000000              -0.293202257              -0.034676657               0.000000000              -0.316179784              -0.037768140               0.000000000              -0.339157311              -0.040859622               0.000000000              -0.362134838              -0.043951105               0.000000000              -0.385112365              -0.047042587               0.000000000              -0.408089892              -0.050134070               0.000000000              -0.431067419              -0.053225552               0.000000000              -0.454044946              -0.056317035               0.000000000              -0.477022473              -0.059408517               0.000000000              -0.500000000              -0.062500000               0.000000000              -0.130444442              -0.025947013               0.000000000              -0.153541665              -0.032137825               0.000000000              -0.176638887              -0.038328636               0.000000000              -0.199736109              -0.044519448               0.000000000              -0.222833332              -0.050710260               0.000000000              -0.245930554              -0.056901071               0.000000000              -0.269027776              -0.063091883               0.000000000              -0.292124999              -0.069282695               0.000000000              -0.315222221              -0.075473506               0.000000000              -0.338319444              -0.081664318               0.000000000              -0.361416666              -0.087855130               0.000000000              -0.384513888              -0.094045942               0.000000000              -0.407611111              -0.100236753               0.000000000              -0.430708333              -0.106427565               0.000000000              -0.453805555              -0.112618377               0.000000000              -0.476902778              -0.118809188               0.000000000              -0.500000000              -0.125000000               0.000000000              -0.127273065              -0.038607862               0.000000000              -0.150568498              -0.047913621               0.000000000              -0.173863932              -0.057219379               0.000000000              -0.197159365              -0.066525138               0.000000000              -0.220454798              -0.075830897               0.000000000              -0.243750232              -0.085136655               0.000000000              -0.267045665              -0.094442414               0.000000000              -0.290341099              -0.103748172               0.000000000              -0.313636532              -0.113053931               0.000000000              -0.336931966              -0.122359690               0.000000000              -0.360227399              -0.131665448               0.000000000              -0.383522833              -0.140971207               0.000000000              -0.406818266              -0.150276966               0.000000000              -0.430113700              -0.159582724               0.000000000              -0.453409133              -0.168888483               0.000000000              -0.476704567              -0.178194241               0.000000000              -0.500000000              -0.187500000               0.000000000              -0.122875978              -0.050896897               0.000000000              -0.146446229              -0.063340840               0.000000000              -0.170016481              -0.075784784               0.000000000              -0.193586732              -0.088228728               0.000000000              -0.217156983              -0.100672672               0.000000000              -0.240727235              -0.113116616               0.000000000              -0.264297486              -0.125560560               0.000000000              -0.287867738              -0.138004504               0.000000000              -0.311437989              -0.150448448               0.000000000              -0.335008240              -0.162892392               0.000000000              -0.358578492              -0.175336336               0.000000000              -0.382148743              -0.187780280               0.000000000              -0.405718994              -0.200224224               0.000000000              -0.429289246              -0.212668168               0.000000000              -0.452859497              -0.225112112               0.000000000              -0.476429749              -0.237556056               0.000000000              -0.500000000              -0.250000000               0.000000000              -0.117295528              -0.062695766               0.000000000              -0.141214558              -0.078308531               0.000000000              -0.165133587              -0.093921295               0.000000000              -0.189052617              -0.109534060               0.000000000              -0.212971646              -0.125146824               0.000000000              -0.236890676              -0.140759589               0.000000000              -0.260809705              -0.156372354               0.000000000              -0.284728735              -0.171985118               0.000000000              -0.308647764              -0.187597883               0.000000000              -0.332566794              -0.203210648               0.000000000              -0.356485823              -0.218823412               0.000000000              -0.380404853              -0.234436177               0.000000000              -0.404323882              -0.250048941               0.000000000              -0.428242912              -0.265661706               0.000000000              -0.452161941              -0.281274471               0.000000000              -0.476080971              -0.296887235               0.000000000              -0.500000000              -0.312500000               0.000000000              -0.110585458              -0.073890841               0.000000000              -0.134923867              -0.092710163               0.000000000              -0.159262276              -0.111529486               0.000000000              -0.183600685              -0.130348808               0.000000000              -0.207939094              -0.149168131               0.000000000              -0.232277503              -0.167987453               0.000000000              -0.256615912              -0.186806776               0.000000000              -0.280954320              -0.205626098               0.000000000              -0.305292729              -0.224445420               0.000000000              -0.329631138              -0.243264743               0.000000000              -0.353969547              -0.262084065               0.000000000              -0.378307956              -0.280903388               0.000000000              -0.402646365              -0.299722710               0.000000000              -0.426984773              -0.318542033               0.000000000              -0.451323182              -0.337361355               0.000000000              -0.475661591              -0.356180678               0.000000000              -0.500000000              -0.375000000               0.000000000              -0.102810390              -0.084374307               0.000000000              -0.127634741              -0.106444663               0.000000000              -0.152459092              -0.128515018               0.000000000              -0.177283442              -0.150585374               0.000000000              -0.202107793              -0.172655730               0.000000000              -0.226932143              -0.194726086               0.000000000              -0.251756494              -0.216796442               0.000000000              -0.276580845              -0.238866798               0.000000000              -0.301405195              -0.260937153               0.000000000              -0.326229546              -0.283007509               0.000000000              -0.351053896              -0.305077865               0.000000000              -0.375878247              -0.327148221               0.000000000              -0.400702598              -0.349218577               0.000000000              -0.425526948              -0.371288933               0.000000000              -0.450351299              -0.393359288               0.000000000              -0.475175649              -0.415429644               0.000000000              -0.500000000              -0.437500000               0.000000000              -0.094045202              -0.094045202               0.000000000              -0.119417377              -0.119417377               0.000000000              -0.144789552              -0.144789552               0.000000000              -0.170161727              -0.170161727               0.000000000              -0.195533901              -0.195533901               0.000000000              -0.220906076              -0.220906076               0.000000000              -0.246278251              -0.246278251               0.000000000              -0.271650426              -0.271650426               0.000000000              -0.297022601              -0.297022601               0.000000000              -0.322394776              -0.322394776               0.000000000              -0.347766951              -0.347766951               0.000000000              -0.373139126              -0.373139126               0.000000000              -0.398511300              -0.398511300               0.000000000              -0.423883475              -0.423883475               0.000000000              -0.449255650              -0.449255650               0.000000000              -0.474627825              -0.474627825               0.000000000              -0.500000000              -0.500000000               0.000000000              -0.084374307              -0.102810390               0.000000000              -0.106444663              -0.127634741               0.000000000              -0.128515018              -0.152459092               0.000000000              -0.150585374              -0.177283442               0.000000000              -0.172655730              -0.202107793               0.000000000              -0.194726086              -0.226932143               0.000000000              -0.216796442              -0.251756494               0.000000000              -0.238866798              -0.276580845               0.000000000              -0.260937153              -0.301405195               0.000000000              -0.283007509              -0.326229546               0.000000000              -0.305077865              -0.351053896               0.000000000              -0.327148221              -0.375878247               0.000000000              -0.349218577              -0.400702598               0.000000000              -0.371288933              -0.425526948               0.000000000              -0.393359288              -0.450351299               0.000000000              -0.415429644              -0.475175649               0.000000000              -0.437500000              -0.500000000               0.000000000              -0.073890841              -0.110585458               0.000000000              -0.092710163              -0.134923867               0.000000000              -0.111529486              -0.159262276               0.000000000              -0.130348808              -0.183600685               0.000000000              -0.149168131              -0.207939094               0.000000000              -0.167987453              -0.232277503               0.000000000              -0.186806776              -0.256615912               0.000000000              -0.205626098              -0.280954320               0.000000000              -0.224445420              -0.305292729               0.000000000              -0.243264743              -0.329631138               0.000000000              -0.262084065              -0.353969547               0.000000000              -0.280903388              -0.378307956               0.000000000              -0.299722710              -0.402646365               0.000000000              -0.318542033              -0.426984773               0.000000000              -0.337361355              -0.451323182               0.000000000              -0.356180678              -0.475661591               0.000000000              -0.375000000              -0.500000000               0.000000000              -0.062695766              -0.117295528               0.000000000              -0.078308531              -0.141214558               0.000000000              -0.093921295              -0.165133587               0.000000000              -0.109534060              -0.189052617               0.000000000              -0.125146824              -0.212971646               0.000000000              -0.140759589              -0.236890676               0.000000000              -0.156372354              -0.260809705               0.000000000              -0.171985118              -0.284728735               0.000000000              -0.187597883              -0.308647764               0.000000000              -0.203210648              -0.332566794               0.000000000              -0.218823412              -0.356485823               0.000000000              -0.234436177              -0.380404853               0.000000000              -0.250048941              -0.404323882               0.000000000              -0.265661706              -0.428242912               0.000000000              -0.281274471              -0.452161941               0.000000000              -0.296887235              -0.476080971               0.000000000              -0.312500000              -0.500000000               0.000000000              -0.050896897              -0.122875978               0.000000000              -0.063340840              -0.146446229               0.000000000              -0.075784784              -0.170016481               0.000000000              -0.088228728              -0.193586732               0.000000000              -0.100672672              -0.217156983               0.000000000              -0.113116616              -0.240727235               0.000000000              -0.125560560              -0.264297486               0.000000000              -0.138004504              -0.287867738               0.000000000              -0.150448448              -0.311437989               0.000000000              -0.162892392              -0.335008240               0.000000000              -0.175336336              -0.358578492               0.000000000              -0.187780280              -0.382148743               0.000000000              -0.200224224              -0.405718994               0.000000000              -0.212668168              -0.429289246               0.000000000              -0.225112112              -0.452859497               0.000000000              -0.237556056              -0.476429749               0.000000000              -0.250000000              -0.500000000               0.000000000              -0.038607862              -0.127273065               0.000000000              -0.047913621              -0.150568498               0.000000000              -0.057219379              -0.173863932               0.000000000              -0.066525138              -0.197159365               0.000000000              -0.075830897              -0.220454798               0.000000000              -0.085136655              -0.243750232               0.000000000              -0.094442414              -0.267045665               0.000000000              -0.103748172              -0.290341099               0.000000000              -0.113053931              -0.313636532               0.000000000              -0.122359690              -0.336931966               0.000000000              -0.131665448              -0.360227399               0.000000000              -0.140971207              -0.383522833               0.000000000              -0.150276966              -0.406818266               0.000000000              -0.159582724              -0.430113700               0.000000000              -0.168888483              -0.453409133               0.000000000              -0.178194241              -0.476704567               0.000000000              -0.187500000              -0.500000000               0.000000000              -0.025947013              -0.130444442               0.000000000              -0.032137825              -0.153541665               0.000000000              -0.038328636              -0.176638887               0.000000000              -0.044519448              -0.199736109               0.000000000              -0.050710260              -0.222833332               0.000000000              -0.056901071              -0.245930554               0.000000000              -0.063091883              -0.269027776               0.000000000              -0.069282695              -0.292124999               0.000000000              -0.075473506              -0.315222221               0.000000000              -0.081664318              -0.338319444               0.000000000              -0.087855130              -0.361416666               0.000000000              -0.094045942              -0.384513888               0.000000000              -0.100236753              -0.407611111               0.000000000              -0.106427565              -0.430708333               0.000000000              -0.112618377              -0.453805555               0.000000000              -0.118809188              -0.476902778               0.000000000              -0.125000000              -0.500000000               0.000000000              -0.013036280              -0.132359569               0.000000000              -0.016127762              -0.155337096               0.000000000              -0.019219245              -0.178314623               0.000000000              -0.022310727              -0.201292150               0.000000000              -0.025402210              -0.224269676               0.000000000              -0.028493692              -0.247247203               0.000000000              -0.031585175              -0.270224730               0.000000000              -0.034676657              -0.293202257               0.000000000              -0.037768140              -0.316179784               0.000000000              -0.040859622              -0.339157311               0.000000000              -0.043951105              -0.362134838               0.000000000              -0.047042587              -0.385112365               0.000000000              -0.050134070              -0.408089892               0.000000000              -0.053225552              -0.431067419               0.000000000              -0.056317035              -0.454044946               0.000000000              -0.059408517              -0.477022473               0.000000000              -0.062500000              -0.500000000               0.000000000               0.000000000              -0.133000000               0.000000000               0.000000000              -0.155937500               0.000000000               0.000000000              -0.178875000               0.000000000               0.000000000              -0.201812500               0.000000000               0.000000000              -0.224750000               0.000000000               0.000000000              -0.247687500               0.000000000               0.000000000              -0.270625000               0.000000000               0.000000000              -0.293562500               0.000000000               0.000000000              -0.316500000               0.000000000               0.000000000              -0.339437500               0.000000000               0.000000000              -0.362375000               0.000000000               0.000000000              -0.385312500               0.000000000               0.000000000              -0.408250000               0.000000000               0.000000000              -0.431187500               0.000000000               0.000000000              -0.454125000               0.000000000               0.000000000              -0.477062500               0.000000000               0.000000000              -0.500000000               0.000000000              -0.133000000               0.000000000               0.000000000              -0.155937500               0.000000000               0.000000000              -0.178875000               0.000000000               0.000000000              -0.201812500               0.000000000               0.000000000              -0.224750000               0.000000000               0.000000000              -0.247687500               0.000000000               0.000000000              -0.270625000               0.000000000               0.000000000              -0.293562500               0.000000000               0.000000000              -0.316500000               0.000000000               0.000000000              -0.339437500               0.000000000               0.000000000              -0.362375000               0.000000000               0.000000000              -0.385312500               0.000000000               0.000000000              -0.408250000               0.000000000               0.000000000              -0.431187500               0.000000000               0.000000000              -0.454125000               0.000000000               0.000000000              -0.477062500               0.000000000               0.000000000              -0.500000000               0.000000000               0.000000000              -0.132359569               0.013036280               0.000000000              -0.155337096               0.016127762               0.000000000              -0.178314623               0.019219245               0.000000000              -0.201292150               0.022310727               0.000000000              -0.224269676               0.025402210               0.000000000              -0.247247203               0.028493692               0.000000000              -0.270224730               0.031585175               0.000000000              -0.293202257               0.034676657               0.000000000              -0.316179784               0.037768140               0.000000000              -0.339157311               0.040859622               0.000000000              -0.362134838               0.043951105               0.000000000              -0.385112365               0.047042587               0.000000000              -0.408089892               0.050134070               0.000000000              -0.431067419               0.053225552               0.000000000              -0.454044946               0.056317035               0.000000000              -0.477022473               0.059408517               0.000000000              -0.500000000               0.062500000               0.000000000              -0.130444442               0.025947013               0.000000000              -0.153541665               0.032137825               0.000000000              -0.176638887               0.038328636               0.000000000              -0.199736109               0.044519448               0.000000000              -0.222833332               0.050710260               0.000000000              -0.245930554               0.056901071               0.000000000              -0.269027776               0.063091883               0.000000000              -0.292124999               0.069282695               0.000000000              -0.315222221               0.075473506               0.000000000              -0.338319444               0.081664318               0.000000000              -0.361416666               0.087855130               0.000000000              -0.384513888               0.094045942               0.000000000              -0.407611111               0.100236753               0.000000000              -0.430708333               0.106427565               0.000000000              -0.453805555               0.112618377               0.000000000              -0.476902778               0.118809188               0.000000000              -0.500000000               0.125000000               0.000000000              -0.127273065               0.038607862               0.000000000              -0.150568498               0.047913621               0.000000000              -0.173863932               0.057219379               0.000000000              -0.197159365               0.066525138               0.000000000              -0.220454798               0.075830897               0.000000000              -0.243750232               0.085136655               0.000000000              -0.267045665               0.094442414               0.000000000              -0.290341099               0.103748172               0.000000000              -0.313636532               0.113053931               0.000000000              -0.336931966               0.122359690               0.000000000              -0.360227399               0.131665448               0.000000000              -0.383522833               0.140971207               0.000000000              -0.406818266               0.150276966               0.000000000              -0.430113700               0.159582724               0.000000000              -0.453409133               0.168888483               0.000000000              -0.476704567               0.178194241               0.000000000              -0.500000000               0.187500000               0.000000000              -0.122875978               0.050896897               0.000000000              -0.146446229               0.063340840               0.000000000              -0.170016481               0.075784784               0.000000000              -0.193586732               0.088228728               0.000000000              -0.217156983               0.100672672               0.000000000              -0.240727235               0.113116616               0.000000000              -0.264297486               0.125560560               0.000000000              -0.287867738               0.138004504               0.000000000              -0.311437989               0.150448448               0.000000000              -0.335008240               0.162892392               0.000000000              -0.358578492               0.175336336               0.000000000              -0.382148743               0.187780280               0.000000000              -0.405718994               0.200224224               0.000000000              -0.429289246               0.212668168               0.000000000              -0.452859497               0.225112112               0.000000000              -0.476429749               0.237556056               0.000000000              -0.500000000               0.250000000               0.000000000              -0.117295528               0.062695766               0.000000000              -0.141214558               0.078308531               0.000000000              -0.165133587               0.093921295               0.000000000              -0.189052617               0.109534060               0.000000000              -0.212971646               0.125146824               0.000000000              -0.236890676               0.140759589               0.000000000              -0.260809705               0.156372354               0.000000000              -0.284728735               0.171985118               0.000000000              -0.308647764               0.187597883               0.000000000              -0.332566794               0.203210648               0.000000000              -0.356485823               0.218823412               0.000000000              -0.380404853               0.234436177               0.000000000              -0.404323882               0.250048941               0.000000000              -0.428242912               0.265661706               0.000000000              -0.452161941               0.281274471               0.000000000              -0.476080971               0.296887235               0.000000000              -0.500000000               0.312500000               0.000000000              -0.110585458               0.073890841               0.000000000              -0.134923867               0.092710163               0.000000000              -0.159262276               0.111529486               0.000000000              -0.183600685               0.130348808               0.000000000              -0.207939094               0.149168131               0.000000000              -0.232277503               0.167987453               0.000000000              -0.256615912               0.186806776               0.000000000              -0.280954320               0.205626098               0.000000000              -0.305292729               0.224445420               0.000000000              -0.329631138               0.243264743               0.000000000              -0.353969547               0.262084065               0.000000000              -0.378307956               0.280903388               0.000000000              -0.402646365               0.299722710               0.000000000              -0.426984773               0.318542033               0.000000000              -0.451323182               0.337361355               0.000000000              -0.475661591               0.356180678               0.000000000              -0.500000000               0.375000000               0.000000000              -0.102810390               0.084374307               0.000000000              -0.127634741               0.106444663               0.000000000              -0.152459092               0.128515018               0.000000000              -0.177283442               0.150585374               0.000000000              -0.202107793               0.172655730               0.000000000              -0.226932143               0.194726086               0.000000000              -0.251756494               0.216796442               0.000000000              -0.276580845               0.238866798               0.000000000              -0.301405195               0.260937153               0.000000000              -0.326229546               0.283007509               0.000000000              -0.351053896               0.305077865               0.000000000              -0.375878247               0.327148221               0.000000000              -0.400702598               0.349218577               0.000000000              -0.425526948               0.371288933               0.000000000              -0.450351299               0.393359288               0.000000000              -0.475175649               0.415429644               0.000000000              -0.500000000               0.437500000               0.000000000              -0.094045202               0.094045202               0.000000000              -0.119417377               0.119417377               0.000000000              -0.144789552               0.144789552               0.000000000              -0.170161727               0.170161727               0.000000000              -0.195533901               0.195533901               0.000000000              -0.220906076               0.220906076               0.000000000              -0.246278251               0.246278251               0.000000000              -0.271650426               0.271650426               0.000000000              -0.297022601               0.297022601               0.000000000              -0.322394776               0.322394776               0.000000000              -0.347766951               0.347766951               0.000000000              -0.373139126               0.373139126               0.000000000              -0.398511300               0.398511300               0.000000000              -0.423883475               0.423883475               0.000000000              -0.449255650               0.449255650               0.000000000              -0.474627825               0.474627825               0.000000000              -0.500000000               0.500000000               0.000000000              -0.084374307               0.102810390               0.000000000              -0.106444663               0.127634741               0.000000000              -0.128515018               0.152459092               0.000000000              -0.150585374               0.177283442               0.000000000              -0.172655730               0.202107793               0.000000000              -0.194726086               0.226932143               0.000000000              -0.216796442               0.251756494               0.000000000              -0.238866798               0.276580845               0.000000000              -0.260937153               0.301405195               0.000000000              -0.283007509               0.326229546               0.000000000              -0.305077865               0.351053896               0.000000000              -0.327148221               0.375878247               0.000000000              -0.349218577               0.400702598               0.000000000              -0.371288933               0.425526948               0.000000000              -0.393359288               0.450351299               0.000000000              -0.415429644               0.475175649               0.000000000              -0.437500000               0.500000000               0.000000000              -0.073890841               0.110585458               0.000000000              -0.092710163               0.134923867               0.000000000              -0.111529486               0.159262276               0.000000000              -0.130348808               0.183600685               0.000000000              -0.149168131               0.207939094               0.000000000              -0.167987453               0.232277503               0.000000000              -0.186806776               0.256615912               0.000000000              -0.205626098               0.280954320               0.000000000              -0.224445420               0.305292729               0.000000000              -0.243264743               0.329631138               0.000000000              -0.262084065               0.353969547               0.000000000              -0.280903388               0.378307956               0.000000000              -0.299722710               0.402646365               0.000000000              -0.318542033               0.426984773               0.000000000              -0.337361355               0.451323182               0.000000000              -0.356180678               0.475661591               0.000000000              -0.375000000               0.500000000               0.000000000              -0.062695766               0.117295528               0.000000000              -0.078308531               0.141214558               0.000000000              -0.093921295               0.165133587               0.000000000              -0.109534060               0.189052617               0.000000000              -0.125146824               0.212971646               0.000000000              -0.140759589               0.236890676               0.000000000              -0.156372354               0.260809705               0.000000000              -0.171985118               0.284728735               0.000000000              -0.187597883               0.308647764               0.000000000              -0.203210648               0.332566794               0.000000000              -0.218823412               0.356485823               0.000000000              -0.234436177               0.380404853               0.000000000              -0.250048941               0.404323882               0.000000000              -0.265661706               0.428242912               0.000000000              -0.281274471               0.452161941               0.000000000              -0.296887235               0.476080971               0.000000000              -0.312500000               0.500000000               0.000000000              -0.050896897               0.122875978               0.000000000              -0.063340840               0.146446229               0.000000000              -0.075784784               0.170016481               0.000000000              -0.088228728               0.193586732               0.000000000              -0.100672672               0.217156983               0.000000000              -0.113116616               0.240727235               0.000000000              -0.125560560               0.264297486               0.000000000              -0.138004504               0.287867738               0.000000000              -0.150448448               0.311437989               0.000000000              -0.162892392               0.335008240               0.000000000              -0.175336336               0.358578492               0.000000000              -0.187780280               0.382148743               0.000000000              -0.200224224               0.405718994               0.000000000              -0.212668168               0.429289246               0.000000000              -0.225112112               0.452859497               0.000000000              -0.237556056               0.476429749               0.000000000              -0.250000000               0.500000000               0.000000000              -0.038607862               0.127273065               0.000000000              -0.047913621               0.150568498               0.000000000              -0.057219379               0.173863932               0.000000000              -0.066525138               0.197159365               0.000000000              -0.075830897               0.220454798               0.000000000              -0.085136655               0.243750232               0.000000000              -0.094442414               0.267045665               0.000000000              -0.103748172               0.290341099               0.000000000              -0.113053931               0.313636532               0.000000000              -0.122359690               0.336931966               0.000000000              -0.131665448               0.360227399               0.000000000              -0.140971207               0.383522833               0.000000000              -0.150276966               0.406818266               0.000000000              -0.159582724               0.430113700               0.000000000              -0.168888483               0.453409133               0.000000000              -0.178194241               0.476704567               0.000000000              -0.187500000               0.500000000               0.000000000              -0.025947013               0.130444442               0.000000000              -0.032137825               0.153541665               0.000000000              -0.038328636               0.176638887               0.000000000              -0.044519448               0.199736109               0.000000000              -0.050710260               0.222833332               0.000000000              -0.056901071               0.245930554               0.000000000              -0.063091883               0.269027776               0.000000000              -0.069282695               0.292124999               0.000000000              -0.075473506               0.315222221               0.000000000              -0.081664318               0.338319444               0.000000000              -0.087855130               0.361416666               0.000000000              -0.094045942               0.384513888               0.000000000              -0.100236753               0.407611111               0.000000000              -0.106427565               0.430708333               0.000000000              -0.112618377               0.453805555               0.000000000              -0.118809188               0.476902778               0.000000000              -0.125000000               0.500000000               0.000000000              -0.013036280               0.132359569               0.000000000              -0.016127762               0.155337096               0.000000000              -0.019219245               0.178314623               0.000000000              -0.022310727               0.201292150               0.000000000              -0.025402210               0.224269676               0.000000000              -0.028493692               0.247247203               0.000000000              -0.031585175               0.270224730               0.000000000              -0.034676657               0.293202257               0.000000000              -0.037768140               0.316179784               0.000000000              -0.040859622               0.339157311               0.000000000              -0.043951105               0.362134838               0.000000000              -0.047042587               0.385112365               0.000000000              -0.050134070               0.408089892               0.000000000              -0.053225552               0.431067419               0.000000000              -0.056317035               0.454044946               0.000000000              -0.059408517               0.477022473               0.000000000              -0.062500000               0.500000000               0.000000000               0.000000000               0.133000000               0.000000000               0.000000000               0.155937500               0.000000000               0.000000000               0.178875000               0.000000000               0.000000000               0.201812500               0.000000000               0.000000000               0.224750000               0.000000000               0.000000000               0.247687500               0.000000000               0.000000000               0.270625000               0.000000000               0.000000000               0.293562500               0.000000000               0.000000000               0.316500000               0.000000000               0.000000000               0.339437500               0.000000000               0.000000000               0.362375000               0.000000000               0.000000000               0.385312500               0.000000000               0.000000000               0.408250000               0.000000000               0.000000000               0.431187500               0.000000000               0.000000000               0.454125000               0.000000000               0.000000000               0.477062500               0.000000000               0.000000000               0.500000000               0.000000000 </DataArray>
</Points>
<Cells>
<DataArray type="Int32"                                    Name="connectivity"                                                      NumberOfComponents=" 1" format="ascii">
         0          1         18         17          1          2         19         18          2          3         20         19          3          4         21         20          4          5         22         21          5          6         23         22          6          7         24         23          7          8         25         24          8          9         26         25          9         10         27         26         10         11         28         27         11         12         29         28         12         13         30         29         13         14         31         30         14         15         32         31         15         16         33         32         17         18         35         34         18         19         36         35         19         20         37         36         20         21         38         37         21         22         39         38         22         23         40         39         23         24         41         40         24         25         42         41         25         26         43         42         26         27         44         43         27         28         45         44         28         29         46         45         29         30         47         46         30         31         48         47         31         32         49         48         32         33         50         49         34         35         52         51         35         36         53         52         36         37         54         53         37         38         55         54         38         39         56         55         39         40         57         56         40         41         58         57         41         42         59         58         42         43         60         59         43         44         61         60         44         45         62         61         45         46         63         62         46         47         64         63         47         48         65         64         48         49         66         65         49         50         67         66         51         52         69         68         52         53         70         69         53         54         71         70         54         55         72         71         55         56         73         72         56         57         74         73         57         58         75         74         58         59         76         75         59         60         77         76         60         61         78         77         61         62         79         78         62         63         80         79         63         64         81         80         64         65         82         81         65         66         83         82         66         67         84         83         68         69         86         85         69         70         87         86         70         71         88         87         71         72         89         88         72         73         90         89         73         74         91         90         74         75         92         91         75         76         93         92         76         77         94         93         77         78         95         94         78         79         96         95         79         80         97         96         80         81         98         97         81         82         99         98         82         83        100         99         83         84        101        100         85         86        103        102         86         87        104        103         87         88        105        104         88         89        106        105         89         90        107        106         90         91        108        107         91         92        109        108         92         93        110        109         93         94        111        110         94         95        112        111         95         96        113        112         96         97        114        113         97         98        115        114         98         99        116        115         99        100        117        116        100        101        118        117        102        103        120        119        103        104        121        120        104        105        122        121        105        106        123        122        106        107        124        123        107        108        125        124        108        109        126        125        109        110        127        126        110        111        128        127        111        112        129        128        112        113        130        129        113        114        131        130        114        115        132        131        115        116        133        132        116        117        134        133        117        118        135        134        119        120        137        136        120        121        138        137        121        122        139        138        122        123        140        139        123        124        141        140        124        125        142        141        125        126        143        142        126        127        144        143        127        128        145        144        128        129        146        145        129        130        147        146        130        131        148        147        131        132        149        148        132        133        150        149        133        134        151        150        134        135        152        151        136        137        154        153        137        138        155        154        138        139        156        155        139        140        157        156        140        141        158        157        141        142        159        158        142        143        160        159        143        144        161        160        144        145        162        161        145        146        163        162        146        147        164        163        147        148        165        164        148        149        166        165        149        150        167        166        150        151        168        167        151        152        169        168        153        154        171        170        154        155        172        171        155        156        173        172        156        157        174        173        157        158        175        174        158        159        176        175        159        160        177        176        160        161        178        177        161        162        179        178        162        163        180        179        163        164        181        180        164        165        182        181        165        166        183        182        166        167        184        183        167        168        185        184        168        169        186        185        170        171        188        187        171        172        189        188        172        173        190        189        173        174        191        190        174        175        192        191        175        176        193        192        176        177        194        193        177        178        195        194        178        179        196        195        179        180        197        196        180        181        198        197        181        182        199        198        182        183        200        199        183        184        201        200        184        185        202        201        185        186        203        202        187        188        205        204        188        189        206        205        189        190        207        206        190        191        208        207        191        192        209        208        192        193        210        209        193        194        211        210        194        195        212        211        195        196        213        212        196        197        214        213        197        198        215        214        198        199        216        215        199        200        217        216        200        201        218        217        201        202        219        218        202        203        220        219        204        205        222        221        205        206        223        222        206        207        224        223        207        208        225        224        208        209        226        225        209        210        227        226        210        211        228        227        211        212        229        228        212        213        230        229        213        214        231        230        214        215        232        231        215        216        233        232        216        217        234        233        217        218        235        234        218        219        236        235        219        220        237        236        221        222        239        238        222        223        240        239        223        224        241        240        224        225        242        241        225        226        243        242        226        227        244        243        227        228        245        244        228        229        246        245        229        230        247        246        230        231        248        247        231        232        249        248        232        233        250        249        233        234        251        250        234        235        252        251        235        236        253        252        236        237        254        253        238        239        256        255        239        240        257        256        240        241        258        257        241        242        259        258        242        243        260        259        243        244        261        260        244        245        262        261        245        246        263        262        246        247        264        263        247        248        265        264        248        249        266        265        249        250        267        266        250        251        268        267        251        252        269        268        252        253        270        269        253        254        271        270        255        256        273        272        256        257        274        273        257        258        275        274        258        259        276        275        259        260        277        276        260        261        278        277        261        262        279        278        262        263        280        279        263        264        281        280        264        265        282        281        265        266        283        282        266        267        284        283        267        268        285        284        268        269        286        285        269        270        287        286        270        271        288        287        306        307          1          0        307        308          2          1        308        309          3          2        309        310          4          3        310        311          5          4        311        312          6          5        312        313          7          6        313        314          8          7        314        315          9          8        315        316         10          9        316        317         11         10        317        318         12         11        318        319         13         12        319        320         14         13        320        321         15         14        321        322         16         15        323        324        307        306        324        325        308        307        325        326        309        308        326        327        310        309        327        328        311        310        328        329        312        311        329        330        313        312        330        331        314        313        331        332        315        314        332        333        316        315        333        334        317        316        334        335        318        317        335        336        319        318        336        337        320        319        337        338        321        320        338        339        322        321        340        341        324        323        341        342        325        324        342        343        326        325        343        344        327        326        344        345        328        327        345        346        329        328        346        347        330        329        347        348        331        330        348        349        332        331        349        350        333        332        350        351        334        333        351        352        335        334        352        353        336        335        353        354        337        336        354        355        338        337        355        356        339        338        357        358        341        340        358        359        342        341        359        360        343        342        360        361        344        343        361        362        345        344        362        363        346        345        363        364        347        346        364        365        348        347        365        366        349        348        366        367        350        349        367        368        351        350        368        369        352        351        369        370        353        352        370        371        354        353        371        372        355        354        372        373        356        355        374        375        358        357        375        376        359        358        376        377        360        359        377        378        361        360        378        379        362        361        379        380        363        362        380        381        364        363        381        382        365        364        382        383        366        365        383        384        367        366        384        385        368        367        385        386        369        368        386        387        370        369        387        388        371        370        388        389        372        371        389        390        373        372        391        392        375        374        392        393        376        375        393        394        377        376        394        395        378        377        395        396        379        378        396        397        380        379        397        398        381        380        398        399        382        381        399        400        383        382        400        401        384        383        401        402        385        384        402        403        386        385        403        404        387        386        404        405        388        387        405        406        389        388        406        407        390        389        408        409        392        391        409        410        393        392        410        411        394        393        411        412        395        394        412        413        396        395        413        414        397        396        414        415        398        397        415        416        399        398        416        417        400        399        417        418        401        400        418        419        402        401        419        420        403        402        420        421        404        403        421        422        405        404        422        423        406        405        423        424        407        406        425        426        409        408        426        427        410        409        427        428        411        410        428        429        412        411        429        430        413        412        430        431        414        413        431        432        415        414        432        433        416        415        433        434        417        416        434        435        418        417        435        436        419        418        436        437        420        419        437        438        421        420        438        439        422        421        439        440        423        422        440        441        424        423        442        443        426        425        443        444        427        426        444        445        428        427        445        446        429        428        446        447        430        429        447        448        431        430        448        449        432        431        449        450        433        432        450        451        434        433        451        452        435        434        452        453        436        435        453        454        437        436        454        455        438        437        455        456        439        438        456        457        440        439        457        458        441        440        459        460        443        442        460        461        444        443        461        462        445        444        462        463        446        445        463        464        447        446        464        465        448        447        465        466        449        448        466        467        450        449        467        468        451        450        468        469        452        451        469        470        453        452        470        471        454        453        471        472        455        454        472        473        456        455        473        474        457        456        474        475        458        457        476        477        460        459        477        478        461        460        478        479        462        461        479        480        463        462        480        481        464        463        481        482        465        464        482        483        466        465        483        484        467        466        484        485        468        467        485        486        469        468        486        487        470        469        487        488        471        470        488        489        472        471        489        490        473        472        490        491        474        473        491        492        475        474        493        494        477        476        494        495        478        477        495        496        479        478        496        497        480        479        497        498        481        480        498        499        482        481        499        500        483        482        500        501        484        483        501        502        485        484        502        503        486        485        503        504        487        486        504        505        488        487        505        506        489        488        506        507        490        489        507        508        491        490        508        509        492        491        510        511        494        493        511        512        495        494        512        513        496        495        513        514        497        496        514        515        498        497        515        516        499        498        516        517        500        499        517        518        501        500        518        519        502        501        519        520        503        502        520        521        504        503        521        522        505        504        522        523        506        505        523        524        507        506        524        525        508        507        525        526        509        508        527        528        511        510        528        529        512        511        529        530        513        512        530        531        514        513        531        532        515        514        532        533        516        515        533        534        517        516        534        535        518        517        535        536        519        518        536        537        520        519        537        538        521        520        538        539        522        521        539        540        523        522        540        541        524        523        541        542        525        524        542        543        526        525        544        545        528        527        545        546        529        528        546        547        530        529        547        548        531        530        548        549        532        531        549        550        533        532        550        551        534        533        551        552        535        534        552        553        536        535        553        554        537        536        554        555        538        537        555        556        539        538        556        557        540        539        557        558        541        540        558        559        542        541        559        560        543        542        561        562        545        544        562        563        546        545        563        564        547        546        564        565        548        547        565        566        549        548        566        567        550        549        567        568        551        550        568        569        552        551        569        570        553        552        570        571        554        553        571        572        555        554        572        573        556        555        573        574        557        556        574        575        558        557        575        576        559        558        576        577        560        559        578        579        596        595        579        580        597        596        580        581        598        597        581        582        599        598        582        583        600        599        583        584        601        600        584        585        602        601        585        586        603        602        586        587        604        603        587        588        605        604        588        589        606        605        589        590        607        606        590        591        608        607        591        592        609        608        592        593        610        609        593        594        611        610        595        596        613        612        596        597        614        613        597        598        615        614        598        599        616        615        599        600        617        616        600        601        618        617        601        602        619        618        602        603        620        619        603        604        621        620        604        605        622        621        605        606        623        622        606        607        624        623        607        608        625        624        608        609        626        625        609        610        627        626        610        611        628        627        612        613        630        629        613        614        631        630        614        615        632        631        615        616        633        632        616        617        634        633        617        618        635        634        618        619        636        635        619        620        637        636        620        621        638        637        621        622        639        638        622        623        640        639        623        624        641        640        624        625        642        641        625        626        643        642        626        627        644        643        627        628        645        644        629        630        647        646        630        631        648        647        631        632        649        648        632        633        650        649        633        634        651        650        634        635        652        651        635        636        653        652        636        637        654        653        637        638        655        654        638        639        656        655        639        640        657        656        640        641        658        657        641        642        659        658        642        643        660        659        643        644        661        660        644        645        662        661        646        647        664        663        647        648        665        664        648        649        666        665        649        650        667        666        650        651        668        667        651        652        669        668        652        653        670        669        653        654        671        670        654        655        672        671        655        656        673        672        656        657        674        673        657        658        675        674        658        659        676        675        659        660        677        676        660        661        678        677        661        662        679        678        663        664        681        680        664        665        682        681        665        666        683        682        666        667        684        683        667        668        685        684        668        669        686        685        669        670        687        686        670        671        688        687        671        672        689        688        672        673        690        689        673        674        691        690        674        675        692        691        675        676        693        692        676        677        694        693        677        678        695        694        678        679        696        695        680        681        698        697        681        682        699        698        682        683        700        699        683        684        701        700        684        685        702        701        685        686        703        702        686        687        704        703        687        688        705        704        688        689        706        705        689        690        707        706        690        691        708        707        691        692        709        708        692        693        710        709        693        694        711        710        694        695        712        711        695        696        713        712        697        698        715        714        698        699        716        715        699        700        717        716        700        701        718        717        701        702        719        718        702        703        720        719        703        704        721        720        704        705        722        721        705        706        723        722        706        707        724        723        707        708        725        724        708        709        726        725        709        710        727        726        710        711        728        727        711        712        729        728        712        713        730        729        714        715        732        731        715        716        733        732        716        717        734        733        717        718        735        734        718        719        736        735        719        720        737        736        720        721        738        737        721        722        739        738        722        723        740        739        723        724        741        740        724        725        742        741        725        726        743        742        726        727        744        743        727        728        745        744        728        729        746        745        729        730        747        746        731        732        749        748        732        733        750        749        733        734        751        750        734        735        752        751        735        736        753        752        736        737        754        753        737        738        755        754        738        739        756        755        739        740        757        756        740        741        758        757        741        742        759        758        742        743        760        759        743        744        761        760        744        745        762        761        745        746        763        762        746        747        764        763        748        749        766        765        749        750        767        766        750        751        768        767        751        752        769        768        752        753        770        769        753        754        771        770        754        755        772        771        755        756        773        772        756        757        774        773        757        758        775        774        758        759        776        775        759        760        777        776        760        761        778        777        761        762        779        778        762        763        780        779        763        764        781        780        765        766        783        782        766        767        784        783        767        768        785        784        768        769        786        785        769        770        787        786        770        771        788        787        771        772        789        788        772        773        790        789        773        774        791        790        774        775        792        791        775        776        793        792        776        777        794        793        777        778        795        794        778        779        796        795        779        780        797        796        780        781        798        797        782        783        800        799        783        784        801        800        784        785        802        801        785        786        803        802        786        787        804        803        787        788        805        804        788        789        806        805        789        790        807        806        790        791        808        807        791        792        809        808        792        793        810        809        793        794        811        810        794        795        812        811        795        796        813        812        796        797        814        813        797        798        815        814        799        800        817        816        800        801        818        817        801        802        819        818        802        803        820        819        803        804        821        820        804        805        822        821        805        806        823        822        806        807        824        823        807        808        825        824        808        809        826        825        809        810        827        826        810        811        828        827        811        812        829        828        812        813        830        829        813        814        831        830        814        815        832        831        816        817        834        833        817        818        835        834        818        819        836        835        819        820        837        836        820        821        838        837        821        822        839        838        822        823        840        839        823        824        841        840        824        825        842        841        825        826        843        842        826        827        844        843        827        828        845        844        828        829        846        845        829        830        847        846        830        831        848        847        831        832        849        848        833        834        562        561        834        835        563        562        835        836        564        563        836        837        565        564        837        838        566        565        838        839        567        566        839        840        568        567        840        841        569        568        841        842        570        569        842        843        571        570        843        844        572        571        844        845        573        572        845        846        574        573        846        847        575        574        847        848        576        575        848        849        577        576        884        885        579        578        885        886        580        579        886        887        581        580        887        888        582        581        888        889        583        582        889        890        584        583        890        891        585        584        891        892        586        585        892        893        587        586        893        894        588        587        894        895        589        588        895        896        590        589        896        897        591        590        897        898        592        591        898        899        593        592        899        900        594        593        901        902        885        884        902        903        886        885        903        904        887        886        904        905        888        887        905        906        889        888        906        907        890        889        907        908        891        890        908        909        892        891        909        910        893        892        910        911        894        893        911        912        895        894        912        913        896        895        913        914        897        896        914        915        898        897        915        916        899        898        916        917        900        899        918        919        902        901        919        920        903        902        920        921        904        903        921        922        905        904        922        923        906        905        923        924        907        906        924        925        908        907        925        926        909        908        926        927        910        909        927        928        911        910        928        929        912        911        929        930        913        912        930        931        914        913        931        932        915        914        932        933        916        915        933        934        917        916        935        936        919        918        936        937        920        919        937        938        921        920        938        939        922        921        939        940        923        922        940        941        924        923        941        942        925        924        942        943        926        925        943        944        927        926        944        945        928        927        945        946        929        928        946        947        930        929        947        948        931        930        948        949        932        931        949        950        933        932        950        951        934        933        952        953        936        935        953        954        937        936        954        955        938        937        955        956        939        938        956        957        940        939        957        958        941        940        958        959        942        941        959        960        943        942        960        961        944        943        961        962        945        944        962        963        946        945        963        964        947        946        964        965        948        947        965        966        949        948        966        967        950        949        967        968        951        950        969        970        953        952        970        971        954        953        971        972        955        954        972        973        956        955        973        974        957        956        974        975        958        957        975        976        959        958        976        977        960        959        977        978        961        960        978        979        962        961        979        980        963        962        980        981        964        963        981        982        965        964        982        983        966        965        983        984        967        966        984        985        968        967        986        987        970        969        987        988        971        970        988        989        972        971        989        990        973        972        990        991        974        973        991        992        975        974        992        993        976        975        993        994        977        976        994        995        978        977        995        996        979        978        996        997        980        979        997        998        981        980        998        999        982        981        999       1000        983        982       1000       1001        984        983       1001       1002        985        984       1003       1004        987        986       1004       1005        988        987       1005       1006        989        988       1006       1007        990        989       1007       1008        991        990       1008       1009        992        991       1009       1010        993        992       1010       1011        994        993       1011       1012        995        994       1012       1013        996        995       1013       1014        997        996       1014       1015        998        997       1015       1016        999        998       1016       1017       1000        999       1017       1018       1001       1000       1018       1019       1002       1001       1020       1021       1004       1003       1021       1022       1005       1004       1022       1023       1006       1005       1023       1024       1007       1006       1024       1025       1008       1007       1025       1026       1009       1008       1026       1027       1010       1009       1027       1028       1011       1010       1028       1029       1012       1011       1029       1030       1013       1012       1030       1031       1014       1013       1031       1032       1015       1014       1032       1033       1016       1015       1033       1034       1017       1016       1034       1035       1018       1017       1035       1036       1019       1018       1037       1038       1021       1020       1038       1039       1022       1021       1039       1040       1023       1022       1040       1041       1024       1023       1041       1042       1025       1024       1042       1043       1026       1025       1043       1044       1027       1026       1044       1045       1028       1027       1045       1046       1029       1028       1046       1047       1030       1029       1047       1048       1031       1030       1048       1049       1032       1031       1049       1050       1033       1032       1050       1051       1034       1033       1051       1052       1035       1034       1052       1053       1036       1035       1054       1055       1038       1037       1055       1056       1039       1038       1056       1057       1040       1039       1057       1058       1041       1040       1058       1059       1042       1041       1059       1060       1043       1042       1060       1061       1044       1043       1061       1062       1045       1044       1062       1063       1046       1045       1063       1064       1047       1046       1064       1065       1048       1047       1065       1066       1049       1048       1066       1067       1050       1049       1067       1068       1051       1050       1068       1069       1052       1051       1069       1070       1053       1052       1071       1072       1055       1054       1072       1073       1056       1055       1073       1074       1057       1056       1074       1075       1058       1057       1075       1076       1059       1058       1076       1077       1060       1059       1077       1078       1061       1060       1078       1079       1062       1061       1079       1080       1063       1062       1080       1081       1064       1063       1081       1082       1065       1064       1082       1083       1066       1065       1083       1084       1067       1066       1084       1085       1068       1067       1085       1086       1069       1068       1086       1087       1070       1069       1088       1089       1072       1071       1089       1090       1073       1072       1090       1091       1074       1073       1091       1092       1075       1074       1092       1093       1076       1075       1093       1094       1077       1076       1094       1095       1078       1077       1095       1096       1079       1078       1096       1097       1080       1079       1097       1098       1081       1080       1098       1099       1082       1081       1099       1100       1083       1082       1100       1101       1084       1083       1101       1102       1085       1084       1102       1103       1086       1085       1103       1104       1087       1086       1105       1106       1089       1088       1106       1107       1090       1089       1107       1108       1091       1090       1108       1109       1092       1091       1109       1110       1093       1092       1110       1111       1094       1093       1111       1112       1095       1094       1112       1113       1096       1095       1113       1114       1097       1096       1114       1115       1098       1097       1115       1116       1099       1098       1116       1117       1100       1099       1117       1118       1101       1100       1118       1119       1102       1101       1119       1120       1103       1102       1120       1121       1104       1103       1122       1123       1106       1105       1123       1124       1107       1106       1124       1125       1108       1107       1125       1126       1109       1108       1126       1127       1110       1109       1127       1128       1111       1110       1128       1129       1112       1111       1129       1130       1113       1112       1130       1131       1114       1113       1131       1132       1115       1114       1132       1133       1116       1115       1133       1134       1117       1116       1134       1135       1118       1117       1135       1136       1119       1118       1136       1137       1120       1119       1137       1138       1121       1120        272        273       1123       1122        273        274       1124       1123        274        275       1125       1124        275        276       1126       1125        276        277       1127       1126        277        278       1128       1127        278        279       1129       1128        279        280       1130       1129        280        281       1131       1130        281        282       1132       1131        282        283       1133       1132        283        284       1134       1133        284        285       1135       1134        285        286       1136       1135        286        287       1137       1136        287        288       1138       1137 </DataArray>
<DataArray type="Int32"                                    Name="offsets"                                                      NumberOfComponents=" 1" format="ascii">
         4          8         12         16         20         24         28         32         36         40         44         48         52         56         60         64         68         72         76         80         84         88         92         96        100        104        108        112        116        120        124        128        132        136        140        144        148        152        156        160        164        168        172        176        180        184        188        192        196        200        204        208        212        216        220        224        228        232        236        240        244        248        252        256        260        264        268        272        276        280        284        288        292        296        300        304        308        312        316        320        324        328        332        336        340        344        348        352        356        360        364        368        372        376        380        384        388        392        396        400        404        408        412        416        420        424        428        432        436        440        444        448        452        456        460        464        468        472        476        480        484        488        492        496        500        504        508        512        516        520        524        528        532        536        540        544        548        552        556        560        564        568        572        576        580        584        588        592        596        600        604        608        612        616        620        624        628        632        636        640        644        648        652        656        660        664        668        672        676        680        684        688        692        696        700        704        708        712        716        720        724        728        732        736        740        744        748        752        756        760        764        768        772        776        780        784        788        792        796        800        804        808        812        816        820        824        828        832        836        840        844        848        852        856        860        864        868        872        876        880        884        888        892        896        900        904        908        912        916        920        924        928        932        936        940        944        948        952        956        960        964        968        972        976        980        984        988        992        996       1000       1004       1008       1012       1016       1020       1024       1028       1032       1036       1040       1044       1048       1052       1056       1060       1064       1068       1072       1076       1080       1084       1088       1092       1096       1100       1104       1108       1112       1116       1120       1124       1128       1132       1136       1140       1144       1148       1152       1156       1160       1164       1168       1172       1176       1180       1184       1188       1192       1196       1200       1204       1208       1212       1216       1220       1224       1228       1232       1236       1240       1244       1248       1252       1256       1260       1264       1268       1272       1276       1280       1284       1288       1292       1296       1300       1304       1308       1312       1316       1320       1324       1328       1332       1336       1340       1344       1348       1352       1356       1360       1364       1368       1372       1376       1380       1384       1388       1392       1396       1400       1404       1408       1412       1416       1420       1424       1428       1432       1436       1440       1444       1448       1452       1456       1460       1464       1468       1472       1476       1480       1484       1488       1492       1496       1500       1504       1508       1512       1516       1520       1524       1528       1532       1536       1540       1544       1548       1552       1556       1560       1564       1568       1572       1576       1580       1584       1588       1592       1596       1600       1604       1608       1612       1616       1620       1624       1628       1632       1636       1640       1644       1648       1652       1656       1660       1664       1668       1672       1676       1680       1684       1688       1692       1696       1700       1704       1708       1712       1716       1720       1724       1728       1732       1736       1740       1744       1748       1752       1756       1760       1764       1768       1772       1776       1780       1784       1788       1792       1796       1800       1804       1808       1812       1816       1820       1824       1828       1832       1836       1840       1844       1848       1852       1856       1860       1864       1868       1872       1876       1880       1884       1888       1892       1896       1900       1904       1908       1912       1916       1920       1924       1928       1932       1936       1940       1944       1948       1952       1956       1960       1964       1968       1972       1976       1980       1984       1988       1992       1996       2000       2004       2008       2012       2016       2020       2024       2028       2032       2036       2040       2044       2048       2052       2056       2060       2064       2068       2072       2076       2080       2084       2088       2092       2096       2100       2104       2108       2112       2116       2120       2124       2128       2132       2136       2140       2144       2148       2152       2156       2160       2164       2168       2172       2176       2180       2184       2188       2192       2196       2200       2204       2208       2212       2216       2220       2224       2228       2232       2236       2240       2244       2248       2252       2256       2260       2264       2268       2272       2276       2280       2284       2288       2292       2296       2300       2304       2308       2312       2316       2320       2324       2328       2332       2336       2340       2344       2348       2352       2356       2360       2364       2368       2372       2376       2380       2384       2388       2392       2396       2400       2404       2408       2412       2416       2420       2424       2428       2432       2436       2440       2444       2448       2452       2456       2460       2464       2468       2472       2476       2480       2484       2488       2492       2496       2500       2504       2508       2512       2516       2520       2524       2528       2532       2536       2540       2544       2548       2552       2556       2560       2564       2568       2572       2576       2580       2584       2588       2592       2596       2600       2604       2608       2612       2616       2620       2624       2628       2632       2636       2640       2644       2648       2652       2656       2660       2664       2668       2672       2676       2680       2684       2688       2692       2696       2700       2704       2708       2712       2716       2720       2724       2728       2732       2736       2740       2744       2748       2752       2756       2760       2764       2768       2772       2776       2780       2784       2788       2792       2796       2800       2804       2808       2812       2816       2820       2824       2828       2832       2836       2840       2844       2848       2852       2856       2860       2864       2868       2872       2876       2880       2884       2888       2892       2896       2900       2904       2908       2912       2916       2920       2924       2928       2932       2936       2940       2944       2948       2952       2956       2960       2964       2968       2972       2976       2980       2984       2988       2992       2996       3000       3004       3008       3012       3016       3020       3024       3028       3032       3036       3040       3044       3048       3052       3056       3060       3064       3068       3072       3076       3080       3084       3088       3092       3096       3100       3104       3108       3112       3116       3120       3124       3128       3132       3136       3140       3144       3148       3152       3156       3160       3164       3168       3172       3176       3180       3184       3188       3192       3196       3200       3204       3208       3212       3216       3220       3224       3228       3232       3236       3240       3244       3248       3252       3256       3260       3264       3268       3272       3276       3280       3284       3288       3292       3296       3300       3304       3308       3312       3316       3320       3324       3328       3332       3336       3340       3344       3348       3352       3356       3360       3364       3368       3372       3376       3380       3384       3388       3392       3396       3400       3404       3408       3412       3416       3420       3424       3428       3432       3436       3440       3444       3448       3452       3456       3460       3464       3468       3472       3476       3480       3484       3488       3492       3496       3500       3504       3508       3512       3516       3520       3524       3528       3532       3536       3540       3544       3548       3552       3556       3560       3564       3568       3572       3576       3580       3584       3588       3592       3596       3600       3604       3608       3612       3616       3620       3624       3628       3632       3636       3640       3644       3648       3652       3656       3660       3664       3668       3672       3676       3680       3684       3688       3692       3696       3700       3704       3708       3712       3716       3720       3724       3728       3732       3736       3740       3744       3748       3752       3756       3760       3764       3768       3772       3776       3780       3784       3788       3792       3796       3800       3804       3808       3812       3816       3820       3824       3828       3832       3836       3840       3844       3848       3852       3856       3860       3864       3868       3872       3876       3880       3884       3888       3892       3896       3900       3904       3908       3912       3916       3920       3924       3928       3932       3936       3940       3944       3948       3952       3956       3960       3964       3968       3972       3976       3980       3984       3988       3992       3996       4000       4004       4008       4012       4016       4020       4024       4028       4032       4036       4040       4044       4048       4052       4056       4060       4064       4068       4072       4076       4080       4084       4088       4092       4096 </DataArray>
<DataArray type="UInt8"                                    Name="types"                                                      NumberOfComponents=" 1" format="ascii">
         9          9          9          9          9          9          9          9          9          9          9          9          9          9          9          9          9          9          9          9          9          9          9          9          9          9          9          9          9          9          9          9          9          9          9          9          9          9          9          9          9          9          9          9          9          9          9          9          9          9          9          9          9          9          9          9          9          9          9          9          9          9          9          9          9          9          9          9          9          9          9          9          9          9          9          9          9          9          9          9          9          9          9          9          9          9          9          9          9          9          9          9          9          9          9          9          9          9          9          9          9          9          9          9          9          9          9          9          9          9          9          9          9          9          9          9          9          9          9          9          9          9          9          9          9          9          9          9          9          9          9          9          9          9          9          9          9          9          9          9          9          9          9          9          9          9          9          9          9          9          9          9          9          9          9          9          9          9          9          9          9          9          9          9          9          9          9          9          9          9          9          9          9          9          9          9          9          9          9          9          9          9          9          9          9          9          9          9          9          9          9          9          9          9          9          9          9          9          9          9          9          9          9          9          9          9          9          9          9          9          9          9          9          9          9          9          9          9          9          9          9          9          9          9          9          9          9          9          9          9          9          9          9          9          9          9          9          9          9          9          9          9          9          9          9          9          9          9          9          9          9          9          9          9          9          9          9          9          9          9          9          9          9          9          9          9          9          9          9          9          9          9          9          9          9          9          9          9          9          9          9          9          9          9          9          9          9          9          9          9          9          9          9          9          9          9          9          9          9          9          9          9          9          9          9          9          9          9          9          9          9          9          9          9          9          9          9          9          9          9          9          9          9          9          9          9          9          9          9          9          9          9          9          9          9          9          9          9          9          9          9          9          9          9          9          9          9          9          9          9          9          9          9          9          9          9          9          9          9          9          9          9          9          9          9          9          9          9          9          9          9          9          9          9          9          9          9          9          9          9          9          9          9          9          9          9          9          9          9          9          9          9          9          9          9          9          9          9          9          9          9          9          9          9          9          9          9          9          9          9          9          9          9          9          9          9          9          9          9          9          9          9          9          9          9          9          9          9          9          9          9          9          9          9          9          9          9          9          9          9          9          9          9          9          9          9          9          9          9          9          9          9          9          9          9          9          9          9          9          9          9          9          9          9          9          9          9          9          9          9          9          9          9          9          9          9          9          9          9          9          9          9          9          9          9          9          9          9          9          9          9          9          9          9          9          9          9          9          9          9          9          9          9          9          9          9          9          9          9          9          9          9          9          9          9          9          9          9          9          9          9          9          9          9          9          9          9          9          9          9          9          9          9          9          9          9          9          9          9          9          9          9          9          9          9          9          9          9          9          9          9          9          9          9          9          9          9          9          9          9          9          9          9          9          9          9          9          9          9          9          9          9          9          9          9          9          9          9          9          9          9          9          9          9          9          9          9          9          9          9          9          9          9          9          9          9          9          9          9          9          9          9          9          9          9          9          9          9          9          9          9          9          9          9          9          9          9          9          9          9          9          9          9          9          9          9          9          9          9          9          9          9          9          9          9          9          9          9          9          9          9          9          9          9          9          9          9          9          9          9          9          9          9          9          9          9          9          9          9          9          9          9          9          9          9          9          9          9          9          9          9          9          9          9          9          9          9          9          9          9          9          9          9          9          9          9          9          9          9          9          9          9          9          9          9          9          9          9          9          9          9          9          9          9          9          9          9          9          9          9          9          9          9          9          9          9          9          9          9          9          9          9          9          9          9          9          9          9          9          9          9          9          9          9          9          9          9          9          9          9          9          9          9          9          9          9          9          9          9          9          9          9          9          9          9          9          9          9          9          9          9          9          9          9          9          9          9          9          9          9          9          9          9          9          9          9          9          9          9          9          9          9          9          9          9          9          9          9          9          9          9          9          9          9          9          9          9          9          9          9          9          9          9          9          9          9          9          9          9          9          9          9          9          9          9          9          9          9          9          9          9          9          9          9          9          9          9          9          9          9          9          9          9          9          9          9          9          9          9          9          9          9          9          9          9          9          9          9          9          9          9          9          9          9          9          9          9          9          9          9          9          9          9          9          9          9          9          9          9          9          9          9          9          9          9          9          9          9          9          9          9          9          9          9          9          9          9          9          9          9          9          9          9          9          9          9          9          9          9          9          9          9          9          9          9          9          9          9          9          9          9          9          9          9          9          9          9          9          9          9          9          9          9          9          9          9          9          9          9          9          9          9          9          9          9          9          9          9          9          9          9          9          9          9          9          9          9          9          9          9          9          9          9          9          9          9          9          9          9          9          9          9          9          9          9          9          9          9          9          9          9          9          9          9          9          9          9          9          9          9          9          9          9          9          9          9          9          9          9          9          9          9          9          9          9          9          9          9          9          9          9          9          9          9          9          9          9          9          9          9          9          9          9          9          9          9          9          9          9          9          9          9          9          9 </DataArray>
</Cells>
<CellData>
<DataArray type="Int32"                                    Name="material"                                                      NumberOfComponents=" 1" format="ascii">
         1          1          1          1          1          1          1          1          1          1          1          1          1          1          1          1          1          1          1          1          1          1          1          1          1          1          1          1          1          1          1          1          1          1          1          1          1          1          1          1          1          1          1          1          1          1          1          1          1          1          1          1          1          1          1          1          1          1          1          1          1          1          1          1          1          1          1          1          1          1          1          1          1          1          1          1          1          1          1          1          1          1          1          1          1          1          1          1          1          1          1          1          1          1          1          1          1          1          1          1          1          1          1          1          1          1          1          1          1          1          1          1          1          1          1          1          1          1          1          1          1          1          1          1          1          1          1          1          1          1          1          1          1          1          1          1          1          1          1          1          1          1          1          1          1          1          1          1          1          1          1          1          1          1          1          1          1          1          1          1          1          1          1          1          1          1          1          1          1          1          1          1          1          1          1          1          1          1          1          1          1          1          1          1          1          1          1          1          1          1          1          1          1          1          1          1          1          1          1          1          1          1          1          1          1          1          1          1          1          1          1          1          1          1          1          1          1          1          1          1          1          1          1          1          1          1          1          1          1          1          1          1          1          1          1          1          1          1          1          1          1          1          1          1          1          1          1          1          1          1          1          1          1          1          1          1          1          1          1          1          1          1          1          1          1          1          1          1          1          1          1          1          1          1          1          1          1          1          1          1          1          1          1          1          1          1          1          1          1          1          1          1          1          1          1          1          1          1          1          1          1          1          1          1          1          1          1          1          1          1          1          1          1          1          1          1          1          1          1          1          1          1          1          1          1          1          1          1          1          1          1          1          1          1          1          1          1          1          1          1          1          1          1          1          1          1          1          1          1          1          1          1          1          1          1          1          1          1          1          1          1          1          1          1          1          1          1          1          1          1          1          1          1          1          1          1          1          1          1          1          1          1          1          1          1          1          1          1          1          1          1          1          1          1          1          1          1          1          1          1          1          1          1          1          1          1          1          1          1          1          1          1          1          1          1          1          1          1          1          1          1          1          1          1          1          1          1          1          1          1          1          1          1          1          1          1          1          1          1          1          1          1          1          1          1          1          1          1          1          1          1          1          1          1          1          1          1          1          1          1          1          1          1          1          1          1          1          1          1          1          1          1          1          1          1          1          1          1          1          1          1          1          1          1          1          1          1          1          1          1          1          1          1          1          1          1          1          1          1          1          1          1          1          1          1          1          1          1          1          1          1          1          1          1          1          1          1          1          1          1          1          1          1          1          1          1          1          1          1          1          1          1          1          1          1          1          1          1          1          1          1          1          1          1          1          1          1          1          1          1          1          1          1          1          1          1          1          1          1          1          1          1          1          1          1          1          1          1          1          1          1          1          1          1          1          1          1          1          1          1          1          1          1          1          1          1          1          1          1          1          1          1          1          1          1          1          1          1          1          1          1          1          1          1          1          1          1          1          1          1          1          1          1          1          1          1          1          1          1          1          1          1          1          1          1          1          1          1          1          1          1          1          1          1          1          1          1          1          1          1          1          1          1          1          1          1          1          1          1          1          1          1          1          1          1          1          1          1          1          1          1          1          1          1          1          1          1          1          1          1          1          1          1          1          1          1          1          1          1          1          1          1          1          1          1          1          1          1          1          1          1          1          1          1          1          1          1          1          1          1          1          1          1          1          1          1          1          1          1          1          1          1          1          1          1          1          1          1          1          1          1          1          1          1          1          1          1          1          1          1          1          1          1          1          1          1          1          1          1          1          1          1          1          1          1          1          1          1          1          1          1          1          1          1          1          1          1          1          1          1          1          1          1          1          1          1          1          1          1          1          1          1          1          1          1          1          1          1          1          1          1          1          1          1          1          1          1          1          1          1          1          1          1          1          1          1          1          1          1          1          1          1          1          1          1          1          1          1          1          1          1          1          1          1          1          1          1          1          1          1          1          1          1          1          1          1          1          1          1          1          1          1          1          1          1          1          1          1          1          1          1          1          1          1          1          1          1          1          1          1          1          1          1          1          1          1          1          1          1          1          1          1          1          1          1          1          1          1          1          1          1          1          1          1          1          1          1          1          1          1          1          1          1          1          1          1          1          1          1          1          1          1          1          1          1          1          1          1          1          1          1          1          1          1          1          1          1          1          1          1          1          1          1          1          1          1          1          1          1          1          1          1          1          1          1          1          1          1          1          1          1          1          1          1          1          1          1          1          1          1          1          1          1          1          1          1          1          1          1          1          1          1          1          1          1          1          1          1          1          1          1          1          1          1          1          1          1          1          1          1          1          1          1          1          1          1          1          1          1          1          1          1          1          1          1          1          1          1          1          1          1          1          1          1          1          1          1          1          1          1          1          1          1          1          1          1          1          1          1          1          1          1          1          1          1          1          1          1          1          1          1          1          1          1 </DataArray>
</CellData>
<PointData>
<DataArray type="Float64"                                    Name="u"                                                      NumberOfComponents=" 3" format="ascii">
             -0.000806106               0.000000000               0.999999989              -0.000850154              -0.000000000               0.999999989              -0.000868688               0.000000000               0.999999989              -0.000878970               0.000000000               0.999999989              -0.000887272               0.000000000               0.999999989              -0.000895651               0.000000000               0.999999989              -0.000904771               0.000000000               0.999999989              -0.000914641               0.000000000               0.999999989              -0.000924878              -0.000000000               0.999999989              -0.000935322               0.000000000               0.999999989              -0.000945877               0.000000000               0.999999989              -0.000956131               0.000000000               0.999999989              -0.000965712               0.000000000               0.999999989              -0.000974284               0.000000000               0.999999989              -0.000981382               0.000000000               0.999999989              -0.000986592               0.000000000               0.999999989              -0.000989150              -0.000000000               0.999999989              -0.000801549               0.000115386               0.999999989              -0.000841847               0.000091336               0.999999989              -0.000858043               0.000080112               0.999999989              -0.000866774               0.000075145               0.999999989              -0.000873911               0.000073299               0.999999989              -0.000881407               0.000073051               0.999999989              -0.000889771               0.000073167               0.999999989              -0.000898834               0.000073086               0.999999989              -0.000908299               0.000072352               0.999999989              -0.000917823               0.000070786               0.999999989              -0.000927100               0.000068160               0.999999989              -0.000935887               0.000064115               0.999999989              -0.000943775               0.000058296               0.999999989              -0.000950445               0.000050365               0.999999989              -0.000955520               0.000039756               0.999999989              -0.000958538               0.000025765               0.999999989              -0.000958869               0.000007095               0.999999989              -0.000788181               0.000229736               0.999999989              -0.000817503               0.000182412               0.999999989              -0.000826871               0.000161106               0.999999989              -0.000831271               0.000152087               0.999999989              -0.000835470               0.000149184               0.999999989              -0.000840695               0.000149057               0.999999989              -0.000846963               0.000149668               0.999999989              -0.000853823               0.000149685               0.999999989              -0.000860781               0.000148370               0.999999989              -0.000867436               0.000145310               0.999999989              -0.000873312               0.000139944               0.999999989              -0.000878121               0.000131896               0.999999989              -0.000881494               0.000120648               0.999999989              -0.000883081               0.000105453               0.999999989              -0.000882557               0.000085402               0.999999989              -0.000879534               0.000059302               0.999999989              -0.000873810               0.000026036               0.999999989              -0.000766298               0.000342096               0.999999989              -0.000778326               0.000272976               0.999999989              -0.000777776               0.000243724               0.999999989              -0.000776408               0.000232372               0.999999989              -0.000776826               0.000229385               0.999999989              -0.000778971               0.000230043               0.999999989              -0.000782284               0.000231497               0.999999989              -0.000785962               0.000231801               0.999999989              -0.000789258               0.000229889               0.999999989              -0.000791588               0.000225317               0.999999989              -0.000792431               0.000217443               0.999999989              -0.000791409               0.000205594               0.999999989              -0.000788105               0.000189325               0.999999989              -0.000782197               0.000167670               0.999999989              -0.000773400               0.000139739               0.999999989              -0.000761749               0.000104917               0.999999989              -0.000747633               0.000062621               0.999999989              -0.000736254               0.000451496               0.999999989              -0.000726362               0.000363042               0.999999989              -0.000714849               0.000328461               0.999999989              -0.000707596               0.000316615               0.999999989              -0.000704306               0.000314652               0.999999989              -0.000703490               0.000316574               0.999999989              -0.000703639               0.000318960               0.999999989              -0.000703582               0.000319476               0.999999989              -0.000702349               0.000317070               0.999999989              -0.000699180               0.000311076               0.999999989              -0.000693551               0.000300687               0.999999989              -0.000684953               0.000285363               0.999999989              -0.000673023               0.000264486               0.999999989              -0.000657615               0.000237606               0.999999989              -0.000638935               0.000204244               0.999999989              -0.000617560               0.000164495               0.999999989              -0.000594377               0.000119067               0.999999989              -0.000698868               0.000556854               0.999999989              -0.000664324               0.000452734               0.999999989              -0.000642476               0.000415423               0.999999989              -0.000630625               0.000404503               0.999999989              -0.000624760               0.000404175               0.999999989              -0.000621408               0.000407434               0.999999989              -0.000618422               0.000410694               0.999999989              -0.000614297               0.000411483               0.999999989              -0.000607823               0.000408474               0.999999989              -0.000598218               0.000400879               0.999999989              -0.000584810               0.000388054               0.999999989              -0.000567200               0.000369393               0.999999989              -0.000545455               0.000344805               0.999999989              -0.000519894               0.000314071               0.999999989              -0.000491120               0.000277731               0.999999989              -0.000460154               0.000236519               0.999999989              -0.000428178               0.000192288               0.999999989              -0.000654736               0.000657256               0.999999989              -0.000595024               0.000542196               0.999999989              -0.000565271               0.000504236               0.999999989              -0.000550966               0.000495010               0.999999989              -0.000543702               0.000496459               0.999999989              -0.000538459               0.000500792               0.999999989              -0.000532474               0.000504803               0.999999989              -0.000523856               0.000505723               0.999999989              -0.000511377               0.000501906               0.999999989              -0.000494228               0.000492683               0.999999989              -0.000471879               0.000477321               0.999999989              -0.000444444               0.000455897               0.999999989              -0.000412265               0.000428594               0.999999989              -0.000376154               0.000395916               0.999999989              -0.000337214               0.000358667               0.999999989              -0.000296653               0.000318497               0.999999989              -0.000255603               0.000277308               0.999999989              -0.000604604               0.000751785               0.999999989              -0.000521783               0.000631184               0.999999989              -0.000487480               0.000594165               0.999999989              -0.000473136               0.000586603               0.999999989              -0.000465576               0.000589487               0.999999989              -0.000458799               0.000594671               0.999999989              -0.000449623               0.000599134               0.999999989              -0.000435997               0.000599902               0.999999989              -0.000416443               0.000595029               0.999999989              -0.000390507               0.000584076               0.999999989              -0.000358066               0.000566704               0.999999989              -0.000319612               0.000543553               0.999999989              -0.000275952               0.000515180               0.999999989              -0.000228539               0.000482485               0.999999989              -0.000178703               0.000446862               0.999999989              -0.000127942               0.000410072               0.999999989              -0.000077400               0.000373693               0.999999989              -0.000550115               0.000838728               0.999999989              -0.000447041               0.000719673               0.999999989              -0.000412967               0.000683928               0.999999989              -0.000400348               0.000677392               0.999999989              -0.000393212               0.000681252               0.999999989              -0.000384863               0.000687356               0.999999989              -0.000372086               0.000691895               0.999999989              -0.000352347               0.000692125               0.999999989              -0.000324433               0.000686210               0.999999989              -0.000288349               0.000673935               0.999999989              -0.000244400               0.000655327               0.999999989              -0.000193583               0.000631537               0.999999989              -0.000137399               0.000603825               0.999999989              -0.000077741               0.000573571               0.999999989              -0.000016414               0.000542381               0.999999989               0.000045006               0.000511640               0.999999989               0.000105742               0.000482131               0.999999989              -0.000493499               0.000921378               0.999999989              -0.000384087               0.000819767               0.999999989              -0.000347865               0.000781020               0.999999989              -0.000334706               0.000770451               0.999999989              -0.000328236               0.000771929               0.999999989              -0.000321615               0.000777747               0.999999989              -0.000311390               0.000784164               0.999999989              -0.000295411               0.000788638               0.999999989              -0.000272277               0.000789443               0.999999989              -0.000241668               0.000785557               0.999999989              -0.000203296               0.000776883               0.999999989              -0.000157388               0.000763697               0.999999989              -0.000105246               0.000746945               0.999999989              -0.000048081               0.000727718               0.999999989               0.000012593               0.000707132               0.999999989               0.000074997               0.000686418               0.999999989               0.000137853               0.000666554               0.999999989              -0.000431638               0.000997056               0.999999989              -0.000323356               0.000917054               0.999999989              -0.000285069               0.000881288               0.999999989              -0.000270801               0.000868831               0.999999989              -0.000264265               0.000868810               0.999999989              -0.000258566               0.000874651               0.999999989              -0.000250422               0.000882740               0.999999989              -0.000237654               0.000890654               0.999999989              -0.000219030               0.000896761               0.999999989              -0.000193590               0.000900073               0.999999989              -0.000161028               0.000899913               0.999999989              -0.000121089               0.000896243               0.999999989              -0.000074168               0.000889283               0.999999989              -0.000020991               0.000879972               0.999999989               0.000037096               0.000869078               0.999999989               0.000098501               0.000857796               0.999999989               0.000161605               0.000846871               0.999999989              -0.000365837               0.001063806               0.999999989              -0.000264895               0.001008613               0.999999989              -0.000226365               0.000979784               0.999999989              -0.000210937               0.000968676               0.999999989              -0.000203702               0.000968667               0.999999989              -0.000198277               0.000975259               0.999999989              -0.000191663               0.000985239               0.999999989              -0.000181632               0.000996349               0.999999989              -0.000166818               0.001007235               0.999999989              -0.000146105               0.001016787               0.999999989              -0.000119231               0.001024228               0.999999989              -0.000085556               0.001029041               0.999999989              -0.000045132               0.001031094               0.999999989               0.000002181               0.001030746               0.999999989               0.000055920               0.001028646               0.999999989               0.000114912               0.001025836               0.999999989               0.000177712               0.001023161               0.999999989              -0.000296815               0.001120201               0.999999989              -0.000208893               0.001090455               0.999999989              -0.000172556               0.001071545               0.999999989              -0.000156702               0.001064482               0.999999989              -0.000148777               0.001066463               0.999999989              -0.000143416               0.001074680               0.999999989              -0.000137886               0.001086927               0.999999989              -0.000130003               0.001101316               0.999999989              -0.000118388               0.001116724               0.999999989              -0.000102251               0.001131934               0.999999989              -0.000080798               0.001146146               0.999999989              -0.000053785               0.001158842               0.999999989              -0.000020501               0.001169632               0.999999989               0.000019721               0.001178289               0.999999989               0.000067349               0.001185121               0.999999989               0.000122196               0.001190754               0.999999989               0.000183490               0.001196082               0.999999989              -0.000225047               0.001165344               0.999999989              -0.000154982               0.001158748               0.999999989              -0.000123801               0.001151025               0.999999989              -0.000109083               0.001149658               0.999999989              -0.000101313               0.001154954               0.999999989              -0.000096288               0.001165728               0.999999989              -0.000091578               0.001180588               0.999999989              -0.000085416               0.001198401               0.999999989              -0.000076722               0.001218097               0.999999989              -0.000064780               0.001238567               0.999999989              -0.000048809               0.001259010               0.999999989              -0.000028457               0.001278896               0.999999989              -0.000002907               0.001297757               0.999999989               0.000029026               0.001315243               0.999999989               0.000068454               0.001331216               0.999999989               0.000116013               0.001345779               0.999999989               0.000172369               0.001359361               0.999999989              -0.000151186               0.001198236               0.999999989              -0.000102568               0.001210144               0.999999989              -0.000079614               0.001212637               0.999999989              -0.000068070               0.001217172               0.999999989              -0.000061781               0.001226165               0.999999989              -0.000057750               0.001239709               0.999999989              -0.000054105               0.001257276               0.999999989              -0.000049769               0.001278070               0.999999989              -0.000043855               0.001301315               0.999999989              -0.000035880               0.001326204               0.999999989              -0.000025268               0.001352015               0.999999989              -0.000011772               0.001378166               0.999999989               0.000005509               0.001404209               0.999999989               0.000027854               0.001429670               0.999999989               0.000056291               0.001454095               0.999999989               0.000092229               0.001477222               0.999999989               0.000136953               0.001498845               0.999999989              -0.000075939               0.001218186               0.999999989              -0.000051057               0.001242049               0.999999989              -0.000038880               0.001251739               0.999999989              -0.000032490               0.001260566               0.999999989              -0.000029005               0.001272489               0.999999989              -0.000026704               0.001288358               0.999999989              -0.000024682               0.001307919               0.999999989              -0.000022426               0.001330756               0.999999989              -0.000019397               0.001356402               0.999999989              -0.000015306               0.001384201               0.999999989              -0.000010061               0.001413552               0.999999989              -0.000003320               0.001444016               0.999999989               0.000005326               0.001475220               0.999999989               0.000016738               0.001506569               0.999999989               0.000031754               0.001537365               0.999999989               0.000051299               0.001567025               0.999999989               0.000076658               0.001594861               0.999999989              -0.000000000               0.001224900               0.999999989              -0.000000000               0.001252842               0.999999989              -0.000000000               0.001265141               0.999999989               0.000000000               0.001275676               0.999999989              -0.000000000               0.001288675               0.999999989              -0.000000000               0.001305282               0.999999989               0.000000000               0.001325581               0.999999989              -0.000000000               0.001349190               0.999999989               0.000000000               0.001375631               0.999999989              -0.000000000               0.001404363               0.999999989               0.000000000               0.001434941               0.999999989               0.000000000               0.001467053               0.999999989               0.000000000               0.001500299               0.999999989               0.000000000               0.001534048               0.999999989               0.000000000               0.001567546               0.999999989              -0.000000000               0.001599959               0.999999989              -0.000000000               0.001630244               0.999999989              -0.000806106               0.000000000               0.999999989              -0.000850154              -0.000000000               0.999999989              -0.000868688               0.000000000               0.999999989              -0.000878970               0.000000000               0.999999989              -0.000887272               0.000000000               0.999999989              -0.000895651               0.000000000               0.999999989              -0.000904771               0.000000000               0.999999989              -0.000914641               0.000000000               0.999999989              -0.000924878              -0.000000000               0.999999989              -0.000935322               0.000000000               0.999999989              -0.000945877               0.000000000               0.999999989              -0.000956131               0.000000000               0.999999989              -0.000965712               0.000000000               0.999999989              -0.000974284               0.000000000               0.999999989              -0.000981382               0.000000000               0.999999989              -0.000986592               0.000000000               0.999999989              -0.000989150              -0.000000000               0.999999989              -0.000801549              -0.000115386               0.999999989              -0.000841847              -0.000091336               0.999999989              -0.000858043              -0.000080112               0.999999989              -0.000866774              -0.000075145               0.999999989              -0.000873911              -0.000073299               0.999999989              -0.000881407              -0.000073051               0.999999989              -0.000889771              -0.000073167               0.999999989              -0.000898834              -0.000073086               0.999999989              -0.000908299              -0.000072352               0.999999989              -0.000917823              -0.000070786               0.999999989              -0.000927100              -0.000068160               0.999999989              -0.000935887              -0.000064115               0.999999989              -0.000943775              -0.000058296               0.999999989              -0.000950445              -0.000050365               0.999999989              -0.000955520              -0.000039756               0.999999989              -0.000958538              -0.000025765               0.999999989              -0.000958869              -0.000007095               0.999999989              -0.000788181              -0.000229736               0.999999989              -0.000817503              -0.000182412               0.999999989              -0.000826871              -0.000161106               0.999999989              -0.000831271              -0.000152087               0.999999989              -0.000835470              -0.000149184               0.999999989              -0.000840695              -0.000149057               0.999999989              -0.000846963              -0.000149668               0.999999989              -0.000853823              -0.000149685               0.999999989              -0.000860781              -0.000148370               0.999999989              -0.000867436              -0.000145310               0.999999989              -0.000873312              -0.000139944               0.999999989              -0.000878121              -0.000131896               0.999999989              -0.000881494              -0.000120648               0.999999989              -0.000883081              -0.000105453               0.999999989              -0.000882557              -0.000085402               0.999999989              -0.000879534              -0.000059302               0.999999989              -0.000873810              -0.000026036               0.999999989              -0.000766298              -0.000342096               0.999999989              -0.000778326              -0.000272976               0.999999989              -0.000777776              -0.000243724               0.999999989              -0.000776408              -0.000232372               0.999999989              -0.000776826              -0.000229385               0.999999989              -0.000778971              -0.000230043               0.999999989              -0.000782284              -0.000231497               0.999999989              -0.000785962              -0.000231801               0.999999989              -0.000789258              -0.000229889               0.999999989              -0.000791588              -0.000225317               0.999999989              -0.000792431              -0.000217443               0.999999989              -0.000791409              -0.000205594               0.999999989              -0.000788105              -0.000189325               0.999999989              -0.000782197              -0.000167670               0.999999989              -0.000773400              -0.000139739               0.999999989              -0.000761749              -0.000104917               0.999999989              -0.000747633              -0.000062621               0.999999989              -0.000736254              -0.000451496               0.999999989              -0.000726362              -0.000363042               0.999999989              -0.000714849              -0.000328461               0.999999989              -0.000707596              -0.000316615               0.999999989              -0.000704306              -0.000314652               0.999999989              -0.000703490              -0.000316574               0.999999989              -0.000703639              -0.000318960               0.999999989              -0.000703582              -0.000319476               0.999999989              -0.000702349              -0.000317070               0.999999989              -0.000699180              -0.000311076               0.999999989              -0.000693551              -0.000300687               0.999999989              -0.000684953              -0.000285363               0.999999989              -0.000673023              -0.000264486               0.999999989              -0.000657615              -0.000237606               0.999999989              -0.000638935              -0.000204244               0.999999989              -0.000617560              -0.000164495               0.999999989              -0.000594377              -0.000119067               0.999999989              -0.000698868              -0.000556854               0.999999989              -0.000664324              -0.000452734               0.999999989              -0.000642476              -0.000415423               0.999999989              -0.000630625              -0.000404503               0.999999989              -0.000624760              -0.000404175               0.999999989              -0.000621408              -0.000407434               0.999999989              -0.000618422              -0.000410694               0.999999989              -0.000614297              -0.000411483               0.999999989              -0.000607823              -0.000408474               0.999999989              -0.000598218              -0.000400879               0.999999989              -0.000584810              -0.000388054               0.999999989              -0.000567200              -0.000369393               0.999999989              -0.000545455              -0.000344805               0.999999989              -0.000519894              -0.000314071               0.999999989              -0.000491120              -0.000277731               0.999999989              -0.000460154              -0.000236519               0.999999989              -0.000428178              -0.000192288               0.999999989              -0.000654736              -0.000657256               0.999999989              -0.000595024              -0.000542196               0.999999989              -0.000565271              -0.000504236               0.999999989              -0.000550966              -0.000495010               0.999999989              -0.000543702              -0.000496459               0.999999989              -0.000538459              -0.000500792               0.999999989              -0.000532474              -0.000504803               0.999999989              -0.000523856              -0.000505723               0.999999989              -0.000511377              -0.000501906               0.999999989              -0.000494228              -0.000492683               0.999999989              -0.000471879              -0.000477321               0.999999989              -0.000444444              -0.000455897               0.999999989              -0.000412265              -0.000428594               0.999999989              -0.000376154              -0.000395916               0.999999989              -0.000337214              -0.000358667               0.999999989              -0.000296653              -0.000318497               0.999999989              -0.000255603              -0.000277308               0.999999989              -0.000604604              -0.000751785               0.999999989              -0.000521783              -0.000631184               0.999999989              -0.000487480              -0.000594165               0.999999989              -0.000473136              -0.000586603               0.999999989              -0.000465576              -0.000589487               0.999999989              -0.000458799              -0.000594671               0.999999989              -0.000449623              -0.000599134               0.999999989              -0.000435997              -0.000599902               0.999999989              -0.000416443              -0.000595029               0.999999989              -0.000390507              -0.000584076               0.999999989              -0.000358066              -0.000566704               0.999999989              -0.000319612              -0.000543553               0.999999989              -0.000275952              -0.000515180               0.999999989              -0.000228539              -0.000482485               0.999999989              -0.000178703              -0.000446862               0.999999989              -0.000127942              -0.000410072               0.999999989              -0.000077400              -0.000373693               0.999999989              -0.000550115              -0.000838728               0.999999989              -0.000447041              -0.000719673               0.999999989              -0.000412967              -0.000683928               0.999999989              -0.000400348              -0.000677392               0.999999989              -0.000393212              -0.000681252               0.999999989              -0.000384863              -0.000687356               0.999999989              -0.000372086              -0.000691895               0.999999989              -0.000352347              -0.000692125               0.999999989              -0.000324433              -0.000686210               0.999999989              -0.000288349              -0.000673935               0.999999989              -0.000244400              -0.000655327               0.999999989              -0.000193583              -0.000631537               0.999999989              -0.000137399              -0.000603825               0.999999989              -0.000077741              -0.000573571               0.999999989              -0.000016414              -0.000542381               0.999999989               0.000045006              -0.000511640               0.999999989               0.000105742              -0.000482131               0.999999989              -0.000493499              -0.000921378               0.999999989              -0.000384087              -0.000819767               0.999999989              -0.000347865              -0.000781020               0.999999989              -0.000334706              -0.000770451               0.999999989              -0.000328236              -0.000771929               0.999999989              -0.000321615              -0.000777747               0.999999989              -0.000311390              -0.000784164               0.999999989              -0.000295411              -0.000788638               0.999999989              -0.000272277              -0.000789443               0.999999989              -0.000241668              -0.000785557               0.999999989              -0.000203296              -0.000776883               0.999999989              -0.000157388              -0.000763697               0.999999989              -0.000105246              -0.000746945               0.999999989              -0.000048081              -0.000727718               0.999999989               0.000012593              -0.000707132               0.999999989               0.000074997              -0.000686418               0.999999989               0.000137853              -0.000666554               0.999999989              -0.000431638              -0.000997056               0.999999989              -0.000323356              -0.000917054               0.999999989              -0.000285069              -0.000881288               0.999999989              -0.000270801              -0.000868831               0.999999989              -0.000264265              -0.000868810               0.999999989              -0.000258566              -0.000874651               0.999999989              -0.000250422              -0.000882740               0.999999989              -0.000237654              -0.000890654               0.999999989              -0.000219030              -0.000896761               0.999999989              -0.000193590              -0.000900073               0.999999989              -0.000161028              -0.000899913               0.999999989              -0.000121089              -0.000896243               0.999999989              -0.000074168              -0.000889283               0.999999989              -0.000020991              -0.000879972               0.999999989               0.000037096              -0.000869078               0.999999989               0.000098501              -0.000857796               0.999999989               0.000161605              -0.000846871               0.999999989              -0.000365837              -0.001063806               0.999999989              -0.000264895              -0.001008613               0.999999989              -0.000226365              -0.000979784               0.999999989              -0.000210937              -0.000968676               0.999999989              -0.000203702              -0.000968667               0.999999989              -0.000198277              -0.000975259               0.999999989              -0.000191663              -0.000985239               0.999999989              -0.000181632              -0.000996349               0.999999989              -0.000166818              -0.001007235               0.999999989              -0.000146105              -0.001016787               0.999999989              -0.000119231              -0.001024228               0.999999989              -0.000085556              -0.001029041               0.999999989              -0.000045132              -0.001031094               0.999999989               0.000002181              -0.001030746               0.999999989               0.000055920              -0.001028646               0.999999989               0.000114912              -0.001025836               0.999999989               0.000177712              -0.001023161               0.999999989              -0.000296815              -0.001120201               0.999999989              -0.000208893              -0.001090455               0.999999989              -0.000172556              -0.001071545               0.999999989              -0.000156702              -0.001064482               0.999999989              -0.000148777              -0.001066463               0.999999989              -0.000143416              -0.001074680               0.999999989              -0.000137886              -0.001086927               0.999999989              -0.000130003              -0.001101316               0.999999989              -0.000118388              -0.001116724               0.999999989              -0.000102251              -0.001131934               0.999999989              -0.000080798              -0.001146146               0.999999989              -0.000053785              -0.001158842               0.999999989              -0.000020501              -0.001169632               0.999999989               0.000019721              -0.001178289               0.999999989               0.000067349              -0.001185121               0.999999989               0.000122196              -0.001190754               0.999999989               0.000183490              -0.001196082               0.999999989              -0.000225047              -0.001165344               0.999999989              -0.000154982              -0.001158748               0.999999989              -0.000123801              -0.001151025               0.999999989              -0.000109083              -0.001149658               0.999999989              -0.000101313              -0.001154954               0.999999989              -0.000096288              -0.001165728               0.999999989              -0.000091578              -0.001180588               0.999999989              -0.000085416              -0.001198401               0.999999989              -0.000076722              -0.001218097               0.999999989              -0.000064780              -0.001238567               0.999999989              -0.000048809              -0.001259010               0.999999989              -0.000028457              -0.001278896               0.999999989              -0.000002907              -0.001297757               0.999999989               0.000029026              -0.001315243               0.999999989               0.000068454              -0.001331216               0.999999989               0.000116013              -0.001345779               0.999999989               0.000172369              -0.001359361               0.999999989              -0.000151186              -0.001198236               0.999999989              -0.000102568              -0.001210144               0.999999989              -0.000079614              -0.001212637               0.999999989              -0.000068070              -0.001217172               0.999999989              -0.000061781              -0.001226165               0.999999989              -0.000057750              -0.001239709               0.999999989              -0.000054105              -0.001257276               0.999999989              -0.000049769              -0.001278070               0.999999989              -0.000043855              -0.001301315               0.999999989              -0.000035880              -0.001326204               0.999999989              -0.000025268              -0.001352015               0.999999989              -0.000011772              -0.001378166               0.999999989               0.000005509              -0.001404209               0.999999989               0.000027854              -0.001429670               0.999999989               0.000056291              -0.001454095               0.999999989               0.000092229              -0.001477222               0.999999989               0.000136953              -0.001498845               0.999999989              -0.000075939              -0.001218186               0.999999989              -0.000051057              -0.001242049               0.999999989              -0.000038880              -0.001251739               0.999999989              -0.000032490              -0.001260566               0.999999989              -0.000029005              -0.001272489               0.999999989              -0.000026704              -0.001288358               0.999999989              -0.000024682              -0.001307919               0.999999989              -0.000022426              -0.001330756               0.999999989              -0.000019397              -0.001356402               0.999999989              -0.000015306              -0.001384201               0.999999989              -0.000010061              -0.001413552               0.999999989              -0.000003320              -0.001444016               0.999999989               0.000005326              -0.001475220               0.999999989               0.000016738              -0.001506569               0.999999989               0.000031754              -0.001537365               0.999999989               0.000051299              -0.001567025               0.999999989               0.000076658              -0.001594861               0.999999989              -0.000000000              -0.001224900               0.999999989              -0.000000000              -0.001252842               0.999999989               0.000000000              -0.001265141               0.999999989               0.000000000              -0.001275676               0.999999989               0.000000000              -0.001288675               0.999999989              -0.000000000              -0.001305282               0.999999989               0.000000000              -0.001325581               0.999999989               0.000000000              -0.001349190               0.999999989              -0.000000000              -0.001375631               0.999999989              -0.000000000              -0.001404363               0.999999989              -0.000000000              -0.001434941               0.999999989              -0.000000000              -0.001467053               0.999999989               0.000000000              -0.001500299               0.999999989              -0.000000000              -0.001534048               0.999999989              -0.000000000              -0.001567546               0.999999989               0.000000000              -0.001599959               0.999999989               0.000000000              -0.001630244               0.999999989               0.000806106              -0.000000000               0.999999989               0.000850154               0.000000000               0.999999989               0.000868688              -0.000000000               0.999999989               0.000878970              -0.000000000               0.999999989               0.000887272               0.000000000               0.999999989               0.000895651               0.000000000               0.999999989               0.000904771               0.000000000               0.999999989               0.000914641               0.000000000               0.999999989               0.000924878              -0.000000000               0.999999989               0.000935322              -0.000000000               0.999999989               0.000945877               0.000000000               0.999999989               0.000956131               0.000000000               0.999999989               0.000965712               0.000000000               0.999999989               0.000974284              -0.000000000               0.999999989               0.000981382              -0.000000000               0.999999989               0.000986592              -0.000000000               0.999999989               0.000989150               0.000000000               0.999999989               0.000801549              -0.000115386               0.999999989               0.000841847              -0.000091336               0.999999989               0.000858043              -0.000080112               0.999999989               0.000866774              -0.000075145               0.999999989               0.000873911              -0.000073299               0.999999989               0.000881407              -0.000073051               0.999999989               0.000889771              -0.000073167               0.999999989               0.000898834              -0.000073086               0.999999989               0.000908299              -0.000072352               0.999999989               0.000917823              -0.000070786               0.999999989               0.000927100              -0.000068160               0.999999989               0.000935887              -0.000064115               0.999999989               0.000943775              -0.000058296               0.999999989               0.000950445              -0.000050365               0.999999989               0.000955520              -0.000039756               0.999999989               0.000958538              -0.000025765               0.999999989               0.000958869              -0.000007095               0.999999989               0.000788181              -0.000229736               0.999999989               0.000817503              -0.000182412               0.999999989               0.000826871              -0.000161106               0.999999989               0.000831271              -0.000152087               0.999999989               0.000835470              -0.000149184               0.999999989               0.000840695              -0.000149057               0.999999989               0.000846963              -0.000149668               0.999999989               0.000853823              -0.000149685               0.999999989               0.000860781              -0.000148370               0.999999989               0.000867436              -0.000145310               0.999999989               0.000873312              -0.000139944               0.999999989               0.000878121              -0.000131896               0.999999989               0.000881494              -0.000120648               0.999999989               0.000883081              -0.000105453               0.999999989               0.000882557              -0.000085402               0.999999989               0.000879534              -0.000059302               0.999999989               0.000873810              -0.000026036               0.999999989               0.000766298              -0.000342096               0.999999989               0.000778326              -0.000272976               0.999999989               0.000777776              -0.000243724               0.999999989               0.000776408              -0.000232372               0.999999989               0.000776826              -0.000229385               0.999999989               0.000778971              -0.000230043               0.999999989               0.000782284              -0.000231497               0.999999989               0.000785962              -0.000231801               0.999999989               0.000789258              -0.000229889               0.999999989               0.000791588              -0.000225317               0.999999989               0.000792431              -0.000217443               0.999999989               0.000791409              -0.000205594               0.999999989               0.000788105              -0.000189325               0.999999989               0.000782197              -0.000167670               0.999999989               0.000773400              -0.000139739               0.999999989               0.000761749              -0.000104917               0.999999989               0.000747633              -0.000062621               0.999999989               0.000736254              -0.000451496               0.999999989               0.000726362              -0.000363042               0.999999989               0.000714849              -0.000328461               0.999999989               0.000707596              -0.000316615               0.999999989               0.000704306              -0.000314652               0.999999989               0.000703490              -0.000316574               0.999999989               0.000703639              -0.000318960               0.999999989               0.000703582              -0.000319476               0.999999989               0.000702349              -0.000317070               0.999999989               0.000699180              -0.000311076               0.999999989               0.000693551              -0.000300687               0.999999989               0.000684953              -0.000285363               0.999999989               0.000673023              -0.000264486               0.999999989               0.000657615              -0.000237606               0.999999989               0.000638935              -0.000204244               0.999999989               0.000617560              -0.000164495               0.999999989               0.000594377              -0.000119067               0.999999989               0.000698868              -0.000556854               0.999999989               0.000664324              -0.000452734               0.999999989               0.000642476              -0.000415423               0.999999989               0.000630625              -0.000404503               0.999999989               0.000624760              -0.000404175               0.999999989               0.000621408              -0.000407434               0.999999989               0.000618422              -0.000410694               0.999999989               0.000614297              -0.000411483               0.999999989               0.000607823              -0.000408474               0.999999989               0.000598218              -0.000400879               0.999999989               0.000584810              -0.000388054               0.999999989               0.000567200              -0.000369393               0.999999989               0.000545455              -0.000344805               0.999999989               0.000519894              -0.000314071               0.999999989               0.000491120              -0.000277731               0.999999989               0.000460154              -0.000236519               0.999999989               0.000428178              -0.000192288               0.999999989               0.000654736              -0.000657256               0.999999989               0.000595024              -0.000542196               0.999999989               0.000565271              -0.000504236               0.999999989               0.000550966              -0.000495010               0.999999989               0.000543702              -0.000496459               0.999999989               0.000538459              -0.000500792               0.999999989               0.000532474              -0.000504803               0.999999989               0.000523856              -0.000505723               0.999999989               0.000511377              -0.000501906               0.999999989               0.000494228              -0.000492683               0.999999989               0.000471879              -0.000477321               0.999999989               0.000444444              -0.000455897               0.999999989               0.000412265              -0.000428594               0.999999989               0.000376154              -0.000395916               0.999999989               0.000337214              -0.000358667               0.999999989               0.000296653              -0.000318497               0.999999989               0.000255603              -0.000277308               0.999999989               0.000604604              -0.000751785               0.999999989               0.000521783              -0.000631184               0.999999989               0.000487480              -0.000594165               0.999999989               0.000473136              -0.000586603               0.999999989               0.000465576              -0.000589487               0.999999989               0.000458799              -0.000594671               0.999999989               0.000449623              -0.000599134               0.999999989               0.000435997              -0.000599902               0.999999989               0.000416443              -0.000595029               0.999999989               0.000390507              -0.000584076               0.999999989               0.000358066              -0.000566704               0.999999989               0.000319612              -0.000543553               0.999999989               0.000275952              -0.000515180               0.999999989               0.000228539              -0.000482485               0.999999989               0.000178703              -0.000446862               0.999999989               0.000127942              -0.000410072               0.999999989               0.000077400              -0.000373693               0.999999989               0.000550115              -0.000838728               0.999999989               0.000447041              -0.000719673               0.999999989               0.000412967              -0.000683928               0.999999989               0.000400348              -0.000677392               0.999999989               0.000393212              -0.000681252               0.999999989               0.000384863              -0.000687356               0.999999989               0.000372086              -0.000691895               0.999999989               0.000352347              -0.000692125               0.999999989               0.000324433              -0.000686210               0.999999989               0.000288349              -0.000673935               0.999999989               0.000244400              -0.000655327               0.999999989               0.000193583              -0.000631537               0.999999989               0.000137399              -0.000603825               0.999999989               0.000077741              -0.000573571               0.999999989               0.000016414              -0.000542381               0.999999989              -0.000045006              -0.000511640               0.999999989              -0.000105742              -0.000482131               0.999999989               0.000493499              -0.000921378               0.999999989               0.000384087              -0.000819767               0.999999989               0.000347865              -0.000781020               0.999999989               0.000334706              -0.000770451               0.999999989               0.000328236              -0.000771929               0.999999989               0.000321615              -0.000777747               0.999999989               0.000311390              -0.000784164               0.999999989               0.000295411              -0.000788638               0.999999989               0.000272277              -0.000789443               0.999999989               0.000241668              -0.000785557               0.999999989               0.000203296              -0.000776883               0.999999989               0.000157388              -0.000763697               0.999999989               0.000105246              -0.000746945               0.999999989               0.000048081              -0.000727718               0.999999989              -0.000012593              -0.000707132               0.999999989              -0.000074997              -0.000686418               0.999999989              -0.000137853              -0.000666554               0.999999989               0.000431638              -0.000997056               0.999999989               0.000323356              -0.000917054               0.999999989               0.000285069              -0.000881288               0.999999989               0.000270801              -0.000868831               0.999999989               0.000264265              -0.000868810               0.999999989               0.000258566              -0.000874651               0.999999989               0.000250422              -0.000882740               0.999999989               0.000237654              -0.000890654               0.999999989               0.000219030              -0.000896761               0.999999989               0.000193590              -0.000900073               0.999999989               0.000161028              -0.000899913               0.999999989               0.000121089              -0.000896243               0.999999989               0.000074168              -0.000889283               0.999999989               0.000020991              -0.000879972               0.999999989              -0.000037096              -0.000869078               0.999999989              -0.000098501              -0.000857796               0.999999989              -0.000161605              -0.000846871               0.999999989               0.000365837              -0.001063806               0.999999989               0.000264895              -0.001008613               0.999999989               0.000226365              -0.000979784               0.999999989               0.000210937              -0.000968676               0.999999989               0.000203702              -0.000968667               0.999999989               0.000198277              -0.000975259               0.999999989               0.000191663              -0.000985239               0.999999989               0.000181632              -0.000996349               0.999999989               0.000166818              -0.001007235               0.999999989               0.000146105              -0.001016787               0.999999989               0.000119231              -0.001024228               0.999999989               0.000085556              -0.001029041               0.999999989               0.000045132              -0.001031094               0.999999989              -0.000002181              -0.001030746               0.999999989              -0.000055920              -0.001028646               0.999999989              -0.000114912              -0.001025836               0.999999989              -0.000177712              -0.001023161               0.999999989               0.000296815              -0.001120201               0.999999989               0.000208893              -0.001090455               0.999999989               0.000172556              -0.001071545               0.999999989               0.000156702              -0.001064482               0.999999989               0.000148777              -0.001066463               0.999999989               0.000143416              -0.001074680               0.999999989               0.000137886              -0.001086927               0.999999989               0.000130003              -0.001101316               0.999999989               0.000118388              -0.001116724               0.999999989               0.000102251              -0.001131934               0.999999989               0.000080798              -0.001146146               0.999999989               0.000053785              -0.001158842               0.999999989               0.000020501              -0.001169632               0.999999989              -0.000019721              -0.001178289               0.999999989              -0.000067349              -0.001185121               0.999999989              -0.000122196              -0.001190754               0.999999989              -0.000183490              -0.001196082               0.999999989               0.000225047              -0.001165344               0.999999989               0.000154982              -0.001158748               0.999999989               0.000123801              -0.001151025               0.999999989               0.000109083              -0.001149658               0.999999989               0.000101313              -0.001154954               0.999999989               0.000096288              -0.001165728               0.999999989               0.000091578              -0.001180588               0.999999989               0.000085416              -0.001198401               0.999999989               0.000076722              -0.001218097               0.999999989               0.000064780              -0.001238567               0.999999989               0.000048809              -0.001259010               0.999999989               0.000028457              -0.001278896               0.999999989               0.000002907              -0.001297757               0.999999989              -0.000029026              -0.001315243               0.999999989              -0.000068454              -0.001331216               0.999999989              -0.000116013              -0.001345779               0.999999989              -0.000172369              -0.001359361               0.999999989               0.000151186              -0.001198236               0.999999989               0.000102568              -0.001210144               0.999999989               0.000079614              -0.001212637               0.999999989               0.000068070              -0.001217172               0.999999989               0.000061781              -0.001226165               0.999999989               0.000057750              -0.001239709               0.999999989               0.000054105              -0.001257276               0.999999989               0.000049769              -0.001278070               0.999999989               0.000043855              -0.001301315               0.999999989               0.000035880              -0.001326204               0.999999989               0.000025268              -0.001352015               0.999999989               0.000011772              -0.001378166               0.999999989              -0.000005509              -0.001404209               0.999999989              -0.000027854              -0.001429670               0.999999989              -0.000056291              -0.001454095               0.999999989              -0.000092229              -0.001477222               0.999999989              -0.000136953              -0.001498845               0.999999989               0.000075939              -0.001218186               0.999999989               0.000051057              -0.001242049               0.999999989               0.000038880              -0.001251739               0.999999989               0.000032490              -0.001260566               0.999999989               0.000029005              -0.001272489               0.999999989               0.000026704              -0.001288358               0.999999989               0.000024682              -0.001307919               0.999999989               0.000022426              -0.001330756               0.999999989               0.000019397              -0.001356402               0.999999989               0.000015306              -0.001384201               0.999999989               0.000010061              -0.001413552               0.999999989               0.000003320              -0.001444016               0.999999989              -0.000005326              -0.001475220               0.999999989              -0.000016738              -0.001506569               0.999999989              -0.000031754              -0.001537365               0.999999989              -0.000051299              -0.001567025               0.999999989              -0.000076658              -0.001594861               0.999999989              -0.000000000              -0.001224900               0.999999989              -0.000000000              -0.001252842               0.999999989               0.000000000              -0.001265141               0.999999989               0.000000000              -0.001275676               0.999999989               0.000000000              -0.001288675               0.999999989              -0.000000000              -0.001305282               0.999999989               0.000000000              -0.001325581               0.999999989               0.000000000              -0.001349190               0.999999989              -0.000000000              -0.001375631               0.999999989              -0.000000000              -0.001404363               0.999999989              -0.000000000              -0.001434941               0.999999989              -0.000000000              -0.001467053               0.999999989               0.000000000              -0.001500299               0.999999989              -0.000000000              -0.001534048               0.999999989              -0.000000000              -0.001567546               0.999999989               0.000000000              -0.001599959               0.999999989               0.000000000              -0.001630244               0.999999989               0.000806106              -0.000000000               0.999999989               0.000850154               0.000000000               0.999999989               0.000868688              -0.000000000               0.999999989               0.000878970              -0.000000000               0.999999989               0.000887272               0.000000000               0.999999989               0.000895651               0.000000000               0.999999989               0.000904771               0.000000000               0.999999989               0.000914641               0.000000000               0.999999989               0.000924878              -0.000000000               0.999999989               0.000935322              -0.000000000               0.999999989               0.000945877               0.000000000               0.999999989               0.000956131               0.000000000               0.999999989               0.000965712               0.000000000               0.999999989               0.000974284              -0.000000000               0.999999989               0.000981382              -0.000000000               0.999999989               0.000986592              -0.000000000               0.999999989               0.000989150               0.000000000               0.999999989               0.000801549               0.000115386               0.999999989               0.000841847               0.000091336               0.999999989               0.000858043               0.000080112               0.999999989               0.000866774               0.000075145               0.999999989               0.000873911               0.000073299               0.999999989               0.000881407               0.000073051               0.999999989               0.000889771               0.000073167               0.999999989               0.000898834               0.000073086               0.999999989               0.000908299               0.000072352               0.999999989               0.000917823               0.000070786               0.999999989               0.000927100               0.000068160               0.999999989               0.000935887               0.000064115               0.999999989               0.000943775               0.000058296               0.999999989               0.000950445               0.000050365               0.999999989               0.000955520               0.000039756               0.999999989               0.000958538               0.000025765               0.999999989               0.000958869               0.000007095               0.999999989               0.000788181               0.000229736               0.999999989               0.000817503               0.000182412               0.999999989               0.000826871               0.000161106               0.999999989               0.000831271               0.000152087               0.999999989               0.000835470               0.000149184               0.999999989               0.000840695               0.000149057               0.999999989               0.000846963               0.000149668               0.999999989               0.000853823               0.000149685               0.999999989               0.000860781               0.000148370               0.999999989               0.000867436               0.000145310               0.999999989               0.000873312               0.000139944               0.999999989               0.000878121               0.000131896               0.999999989               0.000881494               0.000120648               0.999999989               0.000883081               0.000105453               0.999999989               0.000882557               0.000085402               0.999999989               0.000879534               0.000059302               0.999999989               0.000873810               0.000026036               0.999999989               0.000766298               0.000342096               0.999999989               0.000778326               0.000272976               0.999999989               0.000777776               0.000243724               0.999999989               0.000776408               0.000232372               0.999999989               0.000776826               0.000229385               0.999999989               0.000778971               0.000230043               0.999999989               0.000782284               0.000231497               0.999999989               0.000785962               0.000231801               0.999999989               0.000789258               0.000229889               0.999999989               0.000791588               0.000225317               0.999999989               0.000792431               0.000217443               0.999999989               0.000791409               0.000205594               0.999999989               0.000788105               0.000189325               0.999999989               0.000782197               0.000167670               0.999999989               0.000773400               0.000139739               0.999999989               0.000761749               0.000104917               0.999999989               0.000747633               0.000062621               0.999999989               0.000736254               0.000451496               0.999999989               0.000726362               0.000363042               0.999999989               0.000714849               0.000328461               0.999999989               0.000707596               0.000316615               0.999999989               0.000704306               0.000314652               0.999999989               0.000703490               0.000316574               0.999999989               0.000703639               0.000318960               0.999999989               0.000703582               0.000319476               0.999999989               0.000702349               0.000317070               0.999999989               0.000699180               0.000311076               0.999999989               0.000693551               0.000300687               0.999999989               0.000684953               0.000285363               0.999999989               0.000673023               0.000264486               0.999999989               0.000657615               0.000237606               0.999999989               0.000638935               0.000204244               0.999999989               0.000617560               0.000164495               0.999999989               0.000594377               0.000119067               0.999999989               0.000698868               0.000556854               0.999999989               0.000664324               0.000452734               0.999999989               0.000642476               0.000415423               0.999999989               0.000630625               0.000404503               0.999999989               0.000624760               0.000404175               0.999999989               0.000621408               0.000407434               0.999999989               0.000618422               0.000410694               0.999999989               0.000614297               0.000411483               0.999999989               0.000607823               0.000408474               0.999999989               0.000598218               0.000400879               0.999999989               0.000584810               0.000388054               0.999999989               0.000567200               0.000369393               0.999999989               0.000545455               0.000344805               0.999999989               0.000519894               0.000314071               0.999999989               0.000491120               0.000277731               0.999999989               0.000460154               0.000236519               0.999999989               0.000428178               0.000192288               0.999999989               0.000654736               0.000657256               0.999999989               0.000595024               0.000542196               0.999999989               0.000565271               0.000504236               0.999999989               0.000550966               0.000495010               0.999999989               0.000543702               0.000496459               0.999999989               0.000538459               0.000500792               0.999999989               0.000532474               0.000504803               0.999999989               0.000523856               0.000505723               0.999999989               0.000511377               0.000501906               0.999999989               0.000494228               0.000492683               0.999999989               0.000471879               0.000477321               0.999999989               0.000444444               0.000455897               0.999999989               0.000412265               0.000428594               0.999999989               0.000376154               0.000395916               0.999999989               0.000337214               0.000358667               0.999999989               0.000296653               0.000318497               0.999999989               0.000255603               0.000277308               0.999999989               0.000604604               0.000751785               0.999999989               0.000521783               0.000631184               0.999999989               0.000487480               0.000594165               0.999999989               0.000473136               0.000586603               0.999999989               0.000465576               0.000589487               0.999999989               0.000458799               0.000594671               0.999999989               0.000449623               0.000599134               0.999999989               0.000435997               0.000599902               0.999999989               0.000416443               0.000595029               0.999999989               0.000390507               0.000584076               0.999999989               0.000358066               0.000566704               0.999999989               0.000319612               0.000543553               0.999999989               0.000275952               0.000515180               0.999999989               0.000228539               0.000482485               0.999999989               0.000178703               0.000446862               0.999999989               0.000127942               0.000410072               0.999999989               0.000077400               0.000373693               0.999999989               0.000550115               0.000838728               0.999999989               0.000447041               0.000719673               0.999999989               0.000412967               0.000683928               0.999999989               0.000400348               0.000677392               0.999999989               0.000393212               0.000681252               0.999999989               0.000384863               0.000687356               0.999999989               0.000372086               0.000691895               0.999999989               0.000352347               0.000692125               0.999999989               0.000324433               0.000686210               0.999999989               0.000288349               0.000673935               0.999999989               0.000244400               0.000655327               0.999999989               0.000193583               0.000631537               0.999999989               0.000137399               0.000603825               0.999999989               0.000077741               0.000573571               0.999999989               0.000016414               0.000542381               0.999999989              -0.000045006               0.000511640               0.999999989              -0.000105742               0.000482131               0.999999989               0.000493499               0.000921378               0.999999989               0.000384087               0.000819767               0.999999989               0.000347865               0.000781020               0.999999989               0.000334706               0.000770451               0.999999989               0.000328236               0.000771929               0.999999989               0.000321615               0.000777747               0.999999989               0.000311390               0.000784164               0.999999989               0.000295411               0.000788638               0.999999989               0.000272277               0.000789443               0.999999989               0.000241668               0.000785557               0.999999989               0.000203296               0.000776883               0.999999989               0.000157388               0.000763697               0.999999989               0.000105246               0.000746945               0.999999989               0.000048081               0.000727718               0.999999989              -0.000012593               0.000707132               0.999999989              -0.000074997               0.000686418               0.999999989              -0.000137853               0.000666554               0.999999989               0.000431638               0.000997056               0.999999989               0.000323356               0.000917054               0.999999989               0.000285069               0.000881288               0.999999989               0.000270801               0.000868831               0.999999989               0.000264265               0.000868810               0.999999989               0.000258566               0.000874651               0.999999989               0.000250422               0.000882740               0.999999989               0.000237654               0.000890654               0.999999989               0.000219030               0.000896761               0.999999989               0.000193590               0.000900073               0.999999989               0.000161028               0.000899913               0.999999989               0.000121089               0.000896243               0.999999989               0.000074168               0.000889283               0.999999989               0.000020991               0.000879972               0.999999989              -0.000037096               0.000869078               0.999999989              -0.000098501               0.000857796               0.999999989              -0.000161605               0.000846871               0.999999989               0.000365837               0.001063806               0.999999989               0.000264895               0.001008613               0.999999989               0.000226365               0.000979784               0.999999989               0.000210937               0.000968676               0.999999989               0.000203702               0.000968667               0.999999989               0.000198277               0.000975259               0.999999989               0.000191663               0.000985239               0.999999989               0.000181632               0.000996349               0.999999989               0.000166818               0.001007235               0.999999989               0.000146105               0.001016787               0.999999989               0.000119231               0.001024228               0.999999989               0.000085556               0.001029041               0.999999989               0.000045132               0.001031094               0.999999989              -0.000002181               0.001030746               0.999999989              -0.000055920               0.001028646               0.999999989              -0.000114912               0.001025836               0.999999989              -0.000177712               0.001023161               0.999999989               0.000296815               0.001120201               0.999999989               0.000208893               0.001090455               0.999999989               0.000172556               0.001071545               0.999999989               0.000156702               0.001064482               0.999999989               0.000148777               0.001066463               0.999999989               0.000143416               0.001074680               0.999999989               0.000137886               0.001086927               0.999999989               0.000130003               0.001101316               0.999999989               0.000118388               0.001116724               0.999999989               0.000102251               0.001131934               0.999999989               0.000080798               0.001146146               0.999999989               0.000053785               0.001158842               0.999999989               0.000020501               0.001169632               0.999999989              -0.000019721               0.001178289               0.999999989              -0.000067349               0.001185121               0.999999989              -0.000122196               0.001190754               0.999999989              -0.000183490               0.001196082               0.999999989               0.000225047               0.001165344               0.999999989               0.000154982               0.001158748               0.999999989               0.000123801               0.001151025               0.999999989               0.000109083               0.001149658               0.999999989               0.000101313               0.001154954               0.999999989               0.000096288               0.001165728               0.999999989               0.000091578               0.001180588               0.999999989               0.000085416               0.001198401               0.999999989               0.000076722               0.001218097               0.999999989               0.000064780               0.001238567               0.999999989               0.000048809               0.001259010               0.999999989               0.000028457               0.001278896               0.999999989               0.000002907               0.001297757               0.999999989              -0.000029026               0.001315243               0.999999989              -0.000068454               0.001331216               0.999999989              -0.000116013               0.001345779               0.999999989              -0.000172369               0.001359361               0.999999989               0.000151186               0.001198236               0.999999989               0.000102568               0.001210144               0.999999989               0.000079614               0.001212637               0.999999989               0.000068070               0.001217172               0.999999989               0.000061781               0.001226165               0.999999989               0.000057750               0.001239709               0.999999989               0.000054105               0.001257276               0.999999989               0.000049769               0.001278070               0.999999989               0.000043855               0.001301315               0.999999989               0.000035880               0.001326204               0.999999989               0.000025268               0.001352015               0.999999989               0.000011772               0.001378166               0.999999989              -0.000005509               0.001404209               0.999999989              -0.000027854               0.001429670               0.999999989              -0.000056291               0.001454095               0.999999989              -0.000092229               0.001477222               0.999999989              -0.000136953               0.001498845               0.999999989               0.000075939               0.001218186               0.999999989               0.000051057               0.001242049               0.999999989               0.000038880               0.001251739               0.999999989               0.000032490               0.001260566               0.999999989               0.000029005               0.001272489               0.999999989               0.000026704               0.001288358               0.999999989               0.000024682               0.001307919               0.999999989               0.000022426               0.001330756               0.999999989               0.000019397               0.001356402               0.999999989               0.000015306               0.001384201               0.999999989               0.000010061               0.001413552               0.999999989               0.000003320               0.001444016               0.999999989              -0.000005326               0.001475220               0.999999989              -0.000016738               0.001506569               0.999999989              -0.000031754               0.001537365               0.999999989              -0.000051299               0.001567025               0.999999989              -0.000076658               0.001594861               0.999999989              -0.000000000               0.001224900               0.999999989              -0.000000000               0.001252842               0.999999989              -0.000000000               0.001265141               0.999999989               0.000000000               0.001275676               0.999999989              -0.000000000               0.001288675               0.999999989              -0.000000000               0.001305282               0.999999989               0.000000000               0.001325581               0.999999989              -0.000000000               0.001349190               0.999999989               0.000000000               0.001375631               0.999999989              -0.000000000               0.001404363               0.999999989               0.000000000               0.001434941               0.999999989               0.000000000               0.001467053               0.999999989               0.000000000               0.001500299               0.999999989               0.000000000               0.001534048               0.999999989               0.000000000               0.001567546               0.999999989              -0.000000000               0.001599959               0.999999989              -0.000000000               0.001630244               0.999999989 </DataArray>
<DataArray type="Float64"                                    Name="defo"                                                      NumberOfComponents=" 3" format="ascii">
             -0.000806106               0.000000000               0.999999989              -0.000850154              -0.000000000               0.999999989              -0.000868688               0.000000000               0.999999989              -0.000878970               0.000000000               0.999999989              -0.000887272               0.000000000               0.999999989              -0.000895651               0.000000000               0.999999989              -0.000904771               0.000000000               0.999999989              -0.000914641               0.000000000               0.999999989              -0.000924878              -0.000000000               0.999999989              -0.000935322               0.000000000               0.999999989              -0.000945877               0.000000000               0.999999989              -0.000956131               0.000000000               0.999999989              -0.000965712               0.000000000               0.999999989              -0.000974284               0.000000000               0.999999989              -0.000981382               0.000000000               0.999999989              -0.000986592               0.000000000               0.999999989              -0.000989150              -0.000000000               0.999999989              -0.000801549               0.000115386               0.999999989              -0.000841847               0.000091336               0.999999989              -0.000858043               0.000080112               0.999999989              -0.000866774               0.000075145               0.999999989              -0.000873911               0.000073299               0.999999989              -0.000881407               0.000073051               0.999999989              -0.000889771               0.000073167               0.999999989              -0.000898834               0.000073086               0.999999989              -0.000908299               0.000072352               0.999999989              -0.000917823               0.000070786               0.999999989              -0.000927100               0.000068160               0.999999989              -0.000935887               0.000064115               0.999999989              -0.000943775               0.000058296               0.999999989              -0.000950445               0.000050365               0.999999989              -0.000955520               0.000039756               0.999999989              -0.000958538               0.000025765               0.999999989              -0.000958869               0.000007095               0.999999989              -0.000788181               0.000229736               0.999999989              -0.000817503               0.000182412               0.999999989              -0.000826871               0.000161106               0.999999989              -0.000831271               0.000152087               0.999999989              -0.000835470               0.000149184               0.999999989              -0.000840695               0.000149057               0.999999989              -0.000846963               0.000149668               0.999999989              -0.000853823               0.000149685               0.999999989              -0.000860781               0.000148370               0.999999989              -0.000867436               0.000145310               0.999999989              -0.000873312               0.000139944               0.999999989              -0.000878121               0.000131896               0.999999989              -0.000881494               0.000120648               0.999999989              -0.000883081               0.000105453               0.999999989              -0.000882557               0.000085402               0.999999989              -0.000879534               0.000059302               0.999999989              -0.000873810               0.000026036               0.999999989              -0.000766298               0.000342096               0.999999989              -0.000778326               0.000272976               0.999999989              -0.000777776               0.000243724               0.999999989              -0.000776408               0.000232372               0.999999989              -0.000776826               0.000229385               0.999999989              -0.000778971               0.000230043               0.999999989              -0.000782284               0.000231497               0.999999989              -0.000785962               0.000231801               0.999999989              -0.000789258               0.000229889               0.999999989              -0.000791588               0.000225317               0.999999989              -0.000792431               0.000217443               0.999999989              -0.000791409               0.000205594               0.999999989              -0.000788105               0.000189325               0.999999989              -0.000782197               0.000167670               0.999999989              -0.000773400               0.000139739               0.999999989              -0.000761749               0.000104917               0.999999989              -0.000747633               0.000062621               0.999999989              -0.000736254               0.000451496               0.999999989              -0.000726362               0.000363042               0.999999989              -0.000714849               0.000328461               0.999999989              -0.000707596               0.000316615               0.999999989              -0.000704306               0.000314652               0.999999989              -0.000703490               0.000316574               0.999999989              -0.000703639               0.000318960               0.999999989              -0.000703582               0.000319476               0.999999989              -0.000702349               0.000317070               0.999999989              -0.000699180               0.000311076               0.999999989              -0.000693551               0.000300687               0.999999989              -0.000684953               0.000285363               0.999999989              -0.000673023               0.000264486               0.999999989              -0.000657615               0.000237606               0.999999989              -0.000638935               0.000204244               0.999999989              -0.000617560               0.000164495               0.999999989              -0.000594377               0.000119067               0.999999989              -0.000698868               0.000556854               0.999999989              -0.000664324               0.000452734               0.999999989              -0.000642476               0.000415423               0.999999989              -0.000630625               0.000404503               0.999999989              -0.000624760               0.000404175               0.999999989              -0.000621408               0.000407434               0.999999989              -0.000618422               0.000410694               0.999999989              -0.000614297               0.000411483               0.999999989              -0.000607823               0.000408474               0.999999989              -0.000598218               0.000400879               0.999999989              -0.000584810               0.000388054               0.999999989              -0.000567200               0.000369393               0.999999989              -0.000545455               0.000344805               0.999999989              -0.000519894               0.000314071               0.999999989              -0.000491120               0.000277731               0.999999989              -0.000460154               0.000236519               0.999999989              -0.000428178               0.000192288               0.999999989              -0.000654736               0.000657256               0.999999989              -0.000595024               0.000542196               0.999999989              -0.000565271               0.000504236               0.999999989              -0.000550966               0.000495010               0.999999989              -0.000543702               0.000496459               0.999999989              -0.000538459               0.000500792               0.999999989              -0.000532474               0.000504803               0.999999989              -0.000523856               0.000505723               0.999999989              -0.000511377               0.000501906               0.999999989              -0.000494228               0.000492683               0.999999989              -0.000471879               0.000477321               0.999999989              -0.000444444               0.000455897               0.999999989              -0.000412265               0.000428594               0.999999989              -0.000376154               0.000395916               0.999999989              -0.000337214               0.000358667               0.999999989              -0.000296653               0.000318497               0.999999989              -0.000255603               0.000277308               0.999999989              -0.000604604               0.000751785               0.999999989              -0.000521783               0.000631184               0.999999989              -0.000487480               0.000594165               0.999999989              -0.000473136               0.000586603               0.999999989              -0.000465576               0.000589487               0.999999989              -0.000458799               0.000594671               0.999999989              -0.000449623               0.000599134               0.999999989              -0.000435997               0.000599902               0.999999989              -0.000416443               0.000595029               0.999999989              -0.000390507               0.000584076               0.999999989              -0.000358066               0.000566704               0.999999989              -0.000319612               0.000543553               0.999999989              -0.000275952               0.000515180               0.999999989              -0.000228539               0.000482485               0.999999989              -0.000178703               0.000446862               0.999999989              -0.000127942               0.000410072               0.999999989              -0.000077400               0.000373693               0.999999989              -0.000550115               0.000838728               0.999999989              -0.000447041               0.000719673               0.999999989              -0.000412967               0.000683928               0.999999989              -0.000400348               0.000677392               0.999999989              -0.000393212               0.000681252               0.999999989              -0.000384863               0.000687356               0.999999989              -0.000372086               0.000691895               0.999999989              -0.000352347               0.000692125               0.999999989              -0.000324433               0.000686210               0.999999989              -0.000288349               0.000673935               0.999999989              -0.000244400               0.000655327               0.999999989              -0.000193583               0.000631537               0.999999989              -0.000137399               0.000603825               0.999999989              -0.000077741               0.000573571               0.999999989              -0.000016414               0.000542381               0.999999989               0.000045006               0.000511640               0.999999989               0.000105742               0.000482131               0.999999989              -0.000493499               0.000921378               0.999999989              -0.000384087               0.000819767               0.999999989              -0.000347865               0.000781020               0.999999989              -0.000334706               0.000770451               0.999999989              -0.000328236               0.000771929               0.999999989              -0.000321615               0.000777747               0.999999989              -0.000311390               0.000784164               0.999999989              -0.000295411               0.000788638               0.999999989              -0.000272277               0.000789443               0.999999989              -0.000241668               0.000785557               0.999999989              -0.000203296               0.000776883               0.999999989              -0.000157388               0.000763697               0.999999989              -0.000105246               0.000746945               0.999999989              -0.000048081               0.000727718               0.999999989               0.000012593               0.000707132               0.999999989               0.000074997               0.000686418               0.999999989               0.000137853               0.000666554               0.999999989              -0.000431638               0.000997056               0.999999989              -0.000323356               0.000917054               0.999999989              -0.000285069               0.000881288               0.999999989              -0.000270801               0.000868831               0.999999989              -0.000264265               0.000868810               0.999999989              -0.000258566               0.000874651               0.999999989              -0.000250422               0.000882740               0.999999989              -0.000237654               0.000890654               0.999999989              -0.000219030               0.000896761               0.999999989              -0.000193590               0.000900073               0.999999989              -0.000161028               0.000899913               0.999999989              -0.000121089               0.000896243               0.999999989              -0.000074168               0.000889283               0.999999989              -0.000020991               0.000879972               0.999999989               0.000037096               0.000869078               0.999999989               0.000098501               0.000857796               0.999999989               0.000161605               0.000846871               0.999999989              -0.000365837               0.001063806               0.999999989              -0.000264895               0.001008613               0.999999989              -0.000226365               0.000979784               0.999999989              -0.000210937               0.000968676               0.999999989              -0.000203702               0.000968667               0.999999989              -0.000198277               0.000975259               0.999999989              -0.000191663               0.000985239               0.999999989              -0.000181632               0.000996349               0.999999989              -0.000166818               0.001007235               0.999999989              -0.000146105               0.001016787               0.999999989              -0.000119231               0.001024228               0.999999989              -0.000085556               0.001029041               0.999999989              -0.000045132               0.001031094               0.999999989               0.000002181               0.001030746               0.999999989               0.000055920               0.001028646               0.999999989               0.000114912               0.001025836               0.999999989               0.000177712               0.001023161               0.999999989              -0.000296815               0.001120201               0.999999989              -0.000208893               0.001090455               0.999999989              -0.000172556               0.001071545               0.999999989              -0.000156702               0.001064482               0.999999989              -0.000148777               0.001066463               0.999999989              -0.000143416               0.001074680               0.999999989              -0.000137886               0.001086927               0.999999989              -0.000130003               0.001101316               0.999999989              -0.000118388               0.001116724               0.999999989              -0.000102251               0.001131934               0.999999989              -0.000080798               0.001146146               0.999999989              -0.000053785               0.001158842               0.999999989              -0.000020501               0.001169632               0.999999989               0.000019721               0.001178289               0.999999989               0.000067349               0.001185121               0.999999989               0.000122196               0.001190754               0.999999989               0.000183490               0.001196082               0.999999989              -0.000225047               0.001165344               0.999999989              -0.000154982               0.001158748               0.999999989              -0.000123801               0.001151025               0.999999989              -0.000109083               0.001149658               0.999999989              -0.000101313               0.001154954               0.999999989              -0.000096288               0.001165728               0.999999989              -0.000091578               0.001180588               0.999999989              -0.000085416               0.001198401               0.999999989              -0.000076722               0.001218097               0.999999989              -0.000064780               0.001238567               0.999999989              -0.000048809               0.001259010               0.999999989              -0.000028457               0.001278896               0.999999989              -0.000002907               0.001297757               0.999999989               0.000029026               0.001315243               0.999999989               0.000068454               0.001331216               0.999999989               0.000116013               0.001345779               0.999999989               0.000172369               0.001359361               0.999999989              -0.000151186               0.001198236               0.999999989              -0.000102568               0.001210144               0.999999989              -0.000079614               0.001212637               0.999999989              -0.000068070               0.001217172               0.999999989              -0.000061781               0.001226165               0.999999989              -0.000057750               0.001239709               0.999999989              -0.000054105               0.001257276               0.999999989              -0.000049769               0.001278070               0.999999989              -0.000043855               0.001301315               0.999999989              -0.000035880               0.001326204               0.999999989              -0.000025268               0.001352015               0.999999989              -0.000011772               0.001378166               0.999999989               0.000005509               0.001404209               0.999999989               0.000027854               0.001429670               0.999999989               0.000056291               0.001454095               0.999999989               0.000092229               0.001477222               0.999999989               0.000136953               0.001498845               0.999999989              -0.000075939               0.001218186               0.999999989              -0.000051057               0.001242049               0.999999989              -0.000038880               0.001251739               0.999999989              -0.000032490               0.001260566               0.999999989              -0.000029005               0.001272489               0.999999989              -0.000026704               0.001288358               0.999999989              -0.000024682               0.001307919               0.999999989              -0.000022426               0.001330756               0.999999989              -0.000019397               0.001356402               0.999999989              -0.000015306               0.001384201               0.999999989              -0.000010061               0.001413552               0.999999989              -0.000003320               0.001444016               0.999999989               0.000005326               0.001475220               0.999999989               0.000016738               0.001506569               0.999999989               0.000031754               0.001537365               0.999999989               0.000051299               0.001567025               0.999999989               0.000076658               0.001594861               0.999999989              -0.000000000               0.001224900               0.999999989              -0.000000000               0.001252842               0.999999989              -0.000000000               0.001265141               0.999999989               0.000000000               0.001275676               0.999999989              -0.000000000               0.001288675               0.999999989              -0.000000000               0.001305282               0.999999989               0.000000000               0.001325581               0.999999989              -0.000000000               0.001349190               0.999999989               0.000000000               0.001375631               0.999999989              -0.000000000               0.001404363               0.999999989               0.000000000               0.001434941               0.999999989               0.000000000               0.001467053               0.999999989               0.000000000               0.001500299               0.999999989               0.000000000               0.001534048               0.999999989               0.000000000               0.001567546               0.999999989              -0.000000000               0.001599959               0.999999989              -0.000000000               0.001630244               0.999999989              -0.000806106               0.000000000               0.999999989              -0.000850154              -0.000000000               0.999999989              -0.000868688               0.000000000               0.999999989              -0.000878970               0.000000000               0.999999989              -0.000887272               0.000000000               0.999999989              -0.000895651               0.000000000               0.999999989              -0.000904771               0.000000000               0.999999989              -0.000914641               0.000000000               0.999999989              -0.000924878              -0.000000000               0.999999989              -0.000935322               0.000000000               0.999999989              -0.000945877               0.000000000               0.999999989              -0.000956131               0.000000000               0.999999989              -0.000965712               0.000000000               0.999999989              -0.000974284               0.000000000               0.999999989              -0.000981382               0.000000000               0.999999989              -0.000986592               0.000000000               0.999999989              -0.000989150              -0.000000000               0.999999989              -0.000801549              -0.000115386               0.999999989              -0.000841847              -0.000091336               0.999999989              -0.000858043              -0.000080112               0.999999989              -0.000866774              -0.000075145               0.999999989              -0.000873911              -0.000073299               0.999999989              -0.000881407              -0.000073051               0.999999989              -0.000889771              -0.000073167               0.999999989              -0.000898834              -0.000073086               0.999999989              -0.000908299              -0.000072352               0.999999989              -0.000917823              -0.000070786               0.999999989              -0.000927100              -0.000068160               0.999999989              -0.000935887              -0.000064115               0.999999989              -0.000943775              -0.000058296               0.999999989              -0.000950445              -0.000050365               0.999999989              -0.000955520              -0.000039756               0.999999989              -0.000958538              -0.000025765               0.999999989              -0.000958869              -0.000007095               0.999999989              -0.000788181              -0.000229736               0.999999989              -0.000817503              -0.000182412               0.999999989              -0.000826871              -0.000161106               0.999999989              -0.000831271              -0.000152087               0.999999989              -0.000835470              -0.000149184               0.999999989              -0.000840695              -0.000149057               0.999999989              -0.000846963              -0.000149668               0.999999989              -0.000853823              -0.000149685               0.999999989              -0.000860781              -0.000148370               0.999999989              -0.000867436              -0.000145310               0.999999989              -0.000873312              -0.000139944               0.999999989              -0.000878121              -0.000131896               0.999999989              -0.000881494              -0.000120648               0.999999989              -0.000883081              -0.000105453               0.999999989              -0.000882557              -0.000085402               0.999999989              -0.000879534              -0.000059302               0.999999989              -0.000873810              -0.000026036               0.999999989              -0.000766298              -0.000342096               0.999999989              -0.000778326              -0.000272976               0.999999989              -0.000777776              -0.000243724               0.999999989              -0.000776408              -0.000232372               0.999999989              -0.000776826              -0.000229385               0.999999989              -0.000778971              -0.000230043               0.999999989              -0.000782284              -0.000231497               0.999999989              -0.000785962              -0.000231801               0.999999989              -0.000789258              -0.000229889               0.999999989              -0.000791588              -0.000225317               0.999999989              -0.000792431              -0.000217443               0.999999989              -0.000791409              -0.000205594               0.999999989              -0.000788105              -0.000189325               0.999999989              -0.000782197              -0.000167670               0.999999989              -0.000773400              -0.000139739               0.999999989              -0.000761749              -0.000104917               0.999999989              -0.000747633              -0.000062621               0.999999989              -0.000736254              -0.000451496               0.999999989              -0.000726362              -0.000363042               0.999999989              -0.000714849              -0.000328461               0.999999989              -0.000707596              -0.000316615               0.999999989              -0.000704306              -0.000314652               0.999999989              -0.000703490              -0.000316574               0.999999989              -0.000703639              -0.000318960               0.999999989              -0.000703582              -0.000319476               0.999999989              -0.000702349              -0.000317070               0.999999989              -0.000699180              -0.000311076               0.999999989              -0.000693551              -0.000300687               0.999999989              -0.000684953              -0.000285363               0.999999989              -0.000673023              -0.000264486               0.999999989              -0.000657615              -0.000237606               0.999999989              -0.000638935              -0.000204244               0.999999989              -0.000617560              -0.000164495               0.999999989              -0.000594377              -0.000119067               0.999999989              -0.000698868              -0.000556854               0.999999989              -0.000664324              -0.000452734               0.999999989              -0.000642476              -0.000415423               0.999999989              -0.000630625              -0.000404503               0.999999989              -0.000624760              -0.000404175               0.999999989              -0.000621408              -0.000407434               0.999999989              -0.000618422              -0.000410694               0.999999989              -0.000614297              -0.000411483               0.999999989              -0.000607823              -0.000408474               0.999999989              -0.000598218              -0.000400879               0.999999989              -0.000584810              -0.000388054               0.999999989              -0.000567200              -0.000369393               0.999999989              -0.000545455              -0.000344805               0.999999989              -0.000519894              -0.000314071               0.999999989              -0.000491120              -0.000277731               0.999999989              -0.000460154              -0.000236519               0.999999989              -0.000428178              -0.000192288               0.999999989              -0.000654736              -0.000657256               0.999999989              -0.000595024              -0.000542196               0.999999989              -0.000565271              -0.000504236               0.999999989              -0.000550966              -0.000495010               0.999999989              -0.000543702              -0.000496459               0.999999989              -0.000538459              -0.000500792               0.999999989              -0.000532474              -0.000504803               0.999999989              -0.000523856              -0.000505723               0.999999989              -0.000511377              -0.000501906               0.999999989              -0.000494228              -0.000492683               0.999999989              -0.000471879              -0.000477321               0.999999989              -0.000444444              -0.000455897               0.999999989              -0.000412265              -0.000428594               0.999999989              -0.000376154              -0.000395916               0.999999989              -0.000337214              -0.000358667               0.999999989              -0.000296653              -0.000318497               0.999999989              -0.000255603              -0.000277308               0.999999989              -0.000604604              -0.000751785               0.999999989              -0.000521783              -0.000631184               0.999999989              -0.000487480              -0.000594165               0.999999989              -0.000473136              -0.000586603               0.999999989              -0.000465576              -0.000589487               0.999999989              -0.000458799              -0.000594671               0.999999989              -0.000449623              -0.000599134               0.999999989              -0.000435997              -0.000599902               0.999999989              -0.000416443              -0.000595029               0.999999989              -0.000390507              -0.000584076               0.999999989              -0.000358066              -0.000566704               0.999999989              -0.000319612              -0.000543553               0.999999989              -0.000275952              -0.000515180               0.999999989              -0.000228539              -0.000482485               0.999999989              -0.000178703              -0.000446862               0.999999989              -0.000127942              -0.000410072               0.999999989              -0.000077400              -0.000373693               0.999999989              -0.000550115              -0.000838728               0.999999989              -0.000447041              -0.000719673               0.999999989              -0.000412967              -0.000683928               0.999999989              -0.000400348              -0.000677392               0.999999989              -0.000393212              -0.000681252               0.999999989              -0.000384863              -0.000687356               0.999999989              -0.000372086              -0.000691895               0.999999989              -0.000352347              -0.000692125               0.999999989              -0.000324433              -0.000686210               0.999999989              -0.000288349              -0.000673935               0.999999989              -0.000244400              -0.000655327               0.999999989              -0.000193583              -0.000631537               0.999999989              -0.000137399              -0.000603825               0.999999989              -0.000077741              -0.000573571               0.999999989              -0.000016414              -0.000542381               0.999999989               0.000045006              -0.000511640               0.999999989               0.000105742              -0.000482131               0.999999989              -0.000493499              -0.000921378               0.999999989              -0.000384087              -0.000819767               0.999999989              -0.000347865              -0.000781020               0.999999989              -0.000334706              -0.000770451               0.999999989              -0.000328236              -0.000771929               0.999999989              -0.000321615              -0.000777747               0.999999989              -0.000311390              -0.000784164               0.999999989              -0.000295411              -0.000788638               0.999999989              -0.000272277              -0.000789443               0.999999989              -0.000241668              -0.000785557               0.999999989              -0.000203296              -0.000776883               0.999999989              -0.000157388              -0.000763697               0.999999989              -0.000105246              -0.000746945               0.999999989              -0.000048081              -0.000727718               0.999999989               0.000012593              -0.000707132               0.999999989               0.000074997              -0.000686418               0.999999989               0.000137853              -0.000666554               0.999999989              -0.000431638              -0.000997056               0.999999989              -0.000323356              -0.000917054               0.999999989              -0.000285069              -0.000881288               0.999999989              -0.000270801              -0.000868831               0.999999989              -0.000264265              -0.000868810               0.999999989              -0.000258566              -0.000874651               0.999999989              -0.000250422              -0.000882740               0.999999989              -0.000237654              -0.000890654               0.999999989              -0.000219030              -0.000896761               0.999999989              -0.000193590              -0.000900073               0.999999989              -0.000161028              -0.000899913               0.999999989              -0.000121089              -0.000896243               0.999999989              -0.000074168              -0.000889283               0.999999989              -0.000020991              -0.000879972               0.999999989               0.000037096              -0.000869078               0.999999989               0.000098501              -0.000857796               0.999999989               0.000161605              -0.000846871               0.999999989              -0.000365837              -0.001063806               0.999999989              -0.000264895              -0.001008613               0.999999989              -0.000226365              -0.000979784               0.999999989              -0.000210937              -0.000968676               0.999999989              -0.000203702              -0.000968667               0.999999989              -0.000198277              -0.000975259               0.999999989              -0.000191663              -0.000985239               0.999999989              -0.000181632              -0.000996349               0.999999989              -0.000166818              -0.001007235               0.999999989              -0.000146105              -0.001016787               0.999999989              -0.000119231              -0.001024228               0.999999989              -0.000085556              -0.001029041               0.999999989              -0.000045132              -0.001031094               0.999999989               0.000002181              -0.001030746               0.999999989               0.000055920              -0.001028646               0.999999989               0.000114912              -0.001025836               0.999999989               0.000177712              -0.001023161               0.999999989              -0.000296815              -0.001120201               0.999999989              -0.000208893              -0.001090455               0.999999989              -0.000172556              -0.001071545               0.999999989              -0.000156702              -0.001064482               0.999999989              -0.000148777              -0.001066463               0.999999989              -0.000143416              -0.001074680               0.999999989              -0.000137886              -0.001086927               0.999999989              -0.000130003              -0.001101316               0.999999989              -0.000118388              -0.001116724               0.999999989              -0.000102251              -0.001131934               0.999999989              -0.000080798              -0.001146146               0.999999989              -0.000053785              -0.001158842               0.999999989              -0.000020501              -0.001169632               0.999999989               0.000019721              -0.001178289               0.999999989               0.000067349              -0.001185121               0.999999989               0.000122196              -0.001190754               0.999999989               0.000183490              -0.001196082               0.999999989              -0.000225047              -0.001165344               0.999999989              -0.000154982              -0.001158748               0.999999989              -0.000123801              -0.001151025               0.999999989              -0.000109083              -0.001149658               0.999999989              -0.000101313              -0.001154954               0.999999989              -0.000096288              -0.001165728               0.999999989              -0.000091578              -0.001180588               0.999999989              -0.000085416              -0.001198401               0.999999989              -0.000076722              -0.001218097               0.999999989              -0.000064780              -0.001238567               0.999999989              -0.000048809              -0.001259010               0.999999989              -0.000028457              -0.001278896               0.999999989              -0.000002907              -0.001297757               0.999999989               0.000029026              -0.001315243               0.999999989               0.000068454              -0.001331216               0.999999989               0.000116013              -0.001345779               0.999999989               0.000172369              -0.001359361               0.999999989              -0.000151186              -0.001198236               0.999999989              -0.000102568              -0.001210144               0.999999989              -0.000079614              -0.001212637               0.999999989              -0.000068070              -0.001217172               0.999999989              -0.000061781              -0.001226165               0.999999989              -0.000057750              -0.001239709               0.999999989              -0.000054105              -0.001257276               0.999999989              -0.000049769              -0.001278070               0.999999989              -0.000043855              -0.001301315               0.999999989              -0.000035880              -0.001326204               0.999999989              -0.000025268              -0.001352015               0.999999989              -0.000011772              -0.001378166               0.999999989               0.000005509              -0.001404209               0.999999989               0.000027854              -0.001429670               0.999999989               0.000056291              -0.001454095               0.999999989               0.000092229              -0.001477222               0.999999989               0.000136953              -0.001498845               0.999999989              -0.000075939              -0.001218186               0.999999989              -0.000051057              -0.001242049               0.999999989              -0.000038880              -0.001251739               0.999999989              -0.000032490              -0.001260566               0.999999989              -0.000029005              -0.001272489               0.999999989              -0.000026704              -0.001288358               0.999999989              -0.000024682              -0.001307919               0.999999989              -0.000022426              -0.001330756               0.999999989              -0.000019397              -0.001356402               0.999999989              -0.000015306              -0.001384201               0.999999989              -0.000010061              -0.001413552               0.999999989              -0.000003320              -0.001444016               0.999999989               0.000005326              -0.001475220               0.999999989               0.000016738              -0.001506569               0.999999989               0.000031754              -0.001537365               0.999999989               0.000051299              -0.001567025               0.999999989               0.000076658              -0.001594861               0.999999989              -0.000000000              -0.001224900               0.999999989              -0.000000000              -0.001252842               0.999999989               0.000000000              -0.001265141               0.999999989               0.000000000              -0.001275676               0.999999989               0.000000000              -0.001288675               0.999999989              -0.000000000              -0.001305282               0.999999989               0.000000000              -0.001325581               0.999999989               0.000000000              -0.001349190               0.999999989              -0.000000000              -0.001375631               0.999999989              -0.000000000              -0.001404363               0.999999989              -0.000000000              -0.001434941               0.999999989              -0.000000000              -0.001467053               0.999999989               0.000000000              -0.001500299               0.999999989              -0.000000000              -0.001534048               0.999999989              -0.000000000              -0.001567546               0.999999989               0.000000000              -0.001599959               0.999999989               0.000000000              -0.001630244               0.999999989               0.000806106              -0.000000000               0.999999989               0.000850154               0.000000000               0.999999989               0.000868688              -0.000000000               0.999999989               0.000878970              -0.000000000               0.999999989               0.000887272               0.000000000               0.999999989               0.000895651               0.000000000               0.999999989               0.000904771               0.000000000               0.999999989               0.000914641               0.000000000               0.999999989               0.000924878              -0.000000000               0.999999989               0.000935322              -0.000000000               0.999999989               0.000945877               0.000000000               0.999999989               0.000956131               0.000000000               0.999999989               0.000965712               0.000000000               0.999999989               0.000974284              -0.000000000               0.999999989               0.000981382              -0.000000000               0.999999989               0.000986592              -0.000000000               0.999999989               0.000989150               0.000000000               0.999999989               0.000801549              -0.000115386               0.999999989               0.000841847              -0.000091336               0.999999989               0.000858043              -0.000080112               0.999999989               0.000866774              -0.000075145               0.999999989               0.000873911              -0.000073299               0.999999989               0.000881407              -0.000073051               0.999999989               0.000889771              -0.000073167               0.999999989               0.000898834              -0.000073086               0.999999989               0.000908299              -0.000072352               0.999999989               0.000917823              -0.000070786               0.999999989               0.000927100              -0.000068160               0.999999989               0.000935887              -0.000064115               0.999999989               0.000943775              -0.000058296               0.999999989               0.000950445              -0.000050365               0.999999989               0.000955520              -0.000039756               0.999999989               0.000958538              -0.000025765               0.999999989               0.000958869              -0.000007095               0.999999989               0.000788181              -0.000229736               0.999999989               0.000817503              -0.000182412               0.999999989               0.000826871              -0.000161106               0.999999989               0.000831271              -0.000152087               0.999999989               0.000835470              -0.000149184               0.999999989               0.000840695              -0.000149057               0.999999989               0.000846963              -0.000149668               0.999999989               0.000853823              -0.000149685               0.999999989               0.000860781              -0.000148370               0.999999989               0.000867436              -0.000145310               0.999999989               0.000873312              -0.000139944               0.999999989               0.000878121              -0.000131896               0.999999989               0.000881494              -0.000120648               0.999999989               0.000883081              -0.000105453               0.999999989               0.000882557              -0.000085402               0.999999989               0.000879534              -0.000059302               0.999999989               0.000873810              -0.000026036               0.999999989               0.000766298              -0.000342096               0.999999989               0.000778326              -0.000272976               0.999999989               0.000777776              -0.000243724               0.999999989               0.000776408              -0.000232372               0.999999989               0.000776826              -0.000229385               0.999999989               0.000778971              -0.000230043               0.999999989               0.000782284              -0.000231497               0.999999989               0.000785962              -0.000231801               0.999999989               0.000789258              -0.000229889               0.999999989               0.000791588              -0.000225317               0.999999989               0.000792431              -0.000217443               0.999999989               0.000791409              -0.000205594               0.999999989               0.000788105              -0.000189325               0.999999989               0.000782197              -0.000167670               0.999999989               0.000773400              -0.000139739               0.999999989               0.000761749              -0.000104917               0.999999989               0.000747633              -0.000062621               0.999999989               0.000736254              -0.000451496               0.999999989               0.000726362              -0.000363042               0.999999989               0.000714849              -0.000328461               0.999999989               0.000707596              -0.000316615               0.999999989               0.000704306              -0.000314652               0.999999989               0.000703490              -0.000316574               0.999999989               0.000703639              -0.000318960               0.999999989               0.000703582              -0.000319476               0.999999989               0.000702349              -0.000317070               0.999999989               0.000699180              -0.000311076               0.999999989               0.000693551              -0.000300687               0.999999989               0.000684953              -0.000285363               0.999999989               0.000673023              -0.000264486               0.999999989               0.000657615              -0.000237606               0.999999989               0.000638935              -0.000204244               0.999999989               0.000617560              -0.000164495               0.999999989               0.000594377              -0.000119067               0.999999989               0.000698868              -0.000556854               0.999999989               0.000664324              -0.000452734               0.999999989               0.000642476              -0.000415423               0.999999989               0.000630625              -0.000404503               0.999999989               0.000624760              -0.000404175               0.999999989               0.000621408              -0.000407434               0.999999989               0.000618422              -0.000410694               0.999999989               0.000614297              -0.000411483               0.999999989               0.000607823              -0.000408474               0.999999989               0.000598218              -0.000400879               0.999999989               0.000584810              -0.000388054               0.999999989               0.000567200              -0.000369393               0.999999989               0.000545455              -0.000344805               0.999999989               0.000519894              -0.000314071               0.999999989               0.000491120              -0.000277731               0.999999989               0.000460154              -0.000236519               0.999999989               0.000428178              -0.000192288               0.999999989               0.000654736              -0.000657256               0.999999989               0.000595024              -0.000542196               0.999999989               0.000565271              -0.000504236               0.999999989               0.000550966              -0.000495010               0.999999989               0.000543702              -0.000496459               0.999999989               0.000538459              -0.000500792               0.999999989               0.000532474              -0.000504803               0.999999989               0.000523856              -0.000505723               0.999999989               0.000511377              -0.000501906               0.999999989               0.000494228              -0.000492683               0.999999989               0.000471879              -0.000477321               0.999999989               0.000444444              -0.000455897               0.999999989               0.000412265              -0.000428594               0.999999989               0.000376154              -0.000395916               0.999999989               0.000337214              -0.000358667               0.999999989               0.000296653              -0.000318497               0.999999989               0.000255603              -0.000277308               0.999999989               0.000604604              -0.000751785               0.999999989               0.000521783              -0.000631184               0.999999989               0.000487480              -0.000594165               0.999999989               0.000473136              -0.000586603               0.999999989               0.000465576              -0.000589487               0.999999989               0.000458799              -0.000594671               0.999999989               0.000449623              -0.000599134               0.999999989               0.000435997              -0.000599902               0.999999989               0.000416443              -0.000595029               0.999999989               0.000390507              -0.000584076               0.999999989               0.000358066              -0.000566704               0.999999989               0.000319612              -0.000543553               0.999999989               0.000275952              -0.000515180               0.999999989               0.000228539              -0.000482485               0.999999989               0.000178703              -0.000446862               0.999999989               0.000127942              -0.000410072               0.999999989               0.000077400              -0.000373693               0.999999989               0.000550115              -0.000838728               0.999999989               0.000447041              -0.000719673               0.999999989               0.000412967              -0.000683928               0.999999989               0.000400348              -0.000677392               0.999999989               0.000393212              -0.000681252               0.999999989               0.000384863              -0.000687356               0.999999989               0.000372086              -0.000691895               0.999999989               0.000352347              -0.000692125               0.999999989               0.000324433              -0.000686210               0.999999989               0.000288349              -0.000673935               0.999999989               0.000244400              -0.000655327               0.999999989               0.000193583              -0.000631537               0.999999989               0.000137399              -0.000603825               0.999999989               0.000077741              -0.000573571               0.999999989               0.000016414              -0.000542381               0.999999989              -0.000045006              -0.000511640               0.999999989              -0.000105742              -0.000482131               0.999999989               0.000493499              -0.000921378               0.999999989               0.000384087              -0.000819767               0.999999989               0.000347865              -0.000781020               0.999999989               0.000334706              -0.000770451               0.999999989               0.000328236              -0.000771929               0.999999989               0.000321615              -0.000777747               0.999999989               0.000311390              -0.000784164               0.999999989               0.000295411              -0.000788638               0.999999989               0.000272277              -0.000789443               0.999999989               0.000241668              -0.000785557               0.999999989               0.000203296              -0.000776883               0.999999989               0.000157388              -0.000763697               0.999999989               0.000105246              -0.000746945               0.999999989               0.000048081              -0.000727718               0.999999989              -0.000012593              -0.000707132               0.999999989              -0.000074997              -0.000686418               0.999999989              -0.000137853              -0.000666554               0.999999989               0.000431638              -0.000997056               0.999999989               0.000323356              -0.000917054               0.999999989               0.000285069              -0.000881288               0.999999989               0.000270801              -0.000868831               0.999999989               0.000264265              -0.000868810               0.999999989               0.000258566              -0.000874651               0.999999989               0.000250422              -0.000882740               0.999999989               0.000237654              -0.000890654               0.999999989               0.000219030              -0.000896761               0.999999989               0.000193590              -0.000900073               0.999999989               0.000161028              -0.000899913               0.999999989               0.000121089              -0.000896243               0.999999989               0.000074168              -0.000889283               0.999999989               0.000020991              -0.000879972               0.999999989              -0.000037096              -0.000869078               0.999999989              -0.000098501              -0.000857796               0.999999989              -0.000161605              -0.000846871               0.999999989               0.000365837              -0.001063806               0.999999989               0.000264895              -0.001008613               0.999999989               0.000226365              -0.000979784               0.999999989               0.000210937              -0.000968676               0.999999989               0.000203702              -0.000968667               0.999999989               0.000198277              -0.000975259               0.999999989               0.000191663              -0.000985239               0.999999989               0.000181632              -0.000996349               0.999999989               0.000166818              -0.001007235               0.999999989               0.000146105              -0.001016787               0.999999989               0.000119231              -0.001024228               0.999999989               0.000085556              -0.001029041               0.999999989               0.000045132              -0.001031094               0.999999989              -0.000002181              -0.001030746               0.999999989              -0.000055920              -0.001028646               0.999999989              -0.000114912              -0.001025836               0.999999989              -0.000177712              -0.001023161               0.999999989               0.000296815              -0.001120201               0.999999989               0.000208893              -0.001090455               0.999999989               0.000172556              -0.001071545               0.999999989               0.000156702              -0.001064482               0.999999989               0.000148777              -0.001066463               0.999999989               0.000143416              -0.001074680               0.999999989               0.000137886              -0.001086927               0.999999989               0.000130003              -0.001101316               0.999999989               0.000118388              -0.001116724               0.999999989               0.000102251              -0.001131934               0.999999989               0.000080798              -0.001146146               0.999999989               0.000053785              -0.001158842               0.999999989               0.000020501              -0.001169632               0.999999989              -0.000019721              -0.001178289               0.999999989              -0.000067349              -0.001185121               0.999999989              -0.000122196              -0.001190754               0.999999989              -0.000183490              -0.001196082               0.999999989               0.000225047              -0.001165344               0.999999989               0.000154982              -0.001158748               0.999999989               0.000123801              -0.001151025               0.999999989               0.000109083              -0.001149658               0.999999989               0.000101313              -0.001154954               0.999999989               0.000096288              -0.001165728               0.999999989               0.000091578              -0.001180588               0.999999989               0.000085416              -0.001198401               0.999999989               0.000076722              -0.001218097               0.999999989               0.000064780              -0.001238567               0.999999989               0.000048809              -0.001259010               0.999999989               0.000028457              -0.001278896               0.999999989               0.000002907              -0.001297757               0.999999989              -0.000029026              -0.001315243               0.999999989              -0.000068454              -0.001331216               0.999999989              -0.000116013              -0.001345779               0.999999989              -0.000172369              -0.001359361               0.999999989               0.000151186              -0.001198236               0.999999989               0.000102568              -0.001210144               0.999999989               0.000079614              -0.001212637               0.999999989               0.000068070              -0.001217172               0.999999989               0.000061781              -0.001226165               0.999999989               0.000057750              -0.001239709               0.999999989               0.000054105              -0.001257276               0.999999989               0.000049769              -0.001278070               0.999999989               0.000043855              -0.001301315               0.999999989               0.000035880              -0.001326204               0.999999989               0.000025268              -0.001352015               0.999999989               0.000011772              -0.001378166               0.999999989              -0.000005509              -0.001404209               0.999999989              -0.000027854              -0.001429670               0.999999989              -0.000056291              -0.001454095               0.999999989              -0.000092229              -0.001477222               0.999999989              -0.000136953              -0.001498845               0.999999989               0.000075939              -0.001218186               0.999999989               0.000051057              -0.001242049               0.999999989               0.000038880              -0.001251739               0.999999989               0.000032490              -0.001260566               0.999999989               0.000029005              -0.001272489               0.999999989               0.000026704              -0.001288358               0.999999989               0.000024682              -0.001307919               0.999999989               0.000022426              -0.001330756               0.999999989               0.000019397              -0.001356402               0.999999989               0.000015306              -0.001384201               0.999999989               0.000010061              -0.001413552               0.999999989               0.000003320              -0.001444016               0.999999989              -0.000005326              -0.001475220               0.999999989              -0.000016738              -0.001506569               0.999999989              -0.000031754              -0.001537365               0.999999989              -0.000051299              -0.001567025               0.999999989              -0.000076658              -0.001594861               0.999999989              -0.000000000              -0.001224900               0.999999989              -0.000000000              -0.001252842               0.999999989               0.000000000              -0.001265141               0.999999989               0.000000000              -0.001275676               0.999999989               0.000000000              -0.001288675               0.999999989              -0.000000000              -0.001305282               0.999999989               0.000000000              -0.001325581               0.999999989               0.000000000              -0.001349190               0.999999989              -0.000000000              -0.001375631               0.999999989              -0.000000000              -0.001404363               0.999999989              -0.000000000              -0.001434941               0.999999989              -0.000000000              -0.001467053               0.999999989               0.000000000              -0.001500299               0.999999989              -0.000000000              -0.001534048               0.999999989              -0.000000000              -0.001567546               0.999999989               0.000000000              -0.001599959               0.999999989               0.000000000              -0.001630244               0.999999989               0.000806106              -0.000000000               0.999999989               0.000850154               0.000000000               0.999999989               0.000868688              -0.000000000               0.999999989               0.000878970              -0.000000000               0.999999989               0.000887272               0.000000000               0.999999989               0.000895651               0.000000000               0.999999989               0.000904771               0.000000000               0.999999989               0.000914641               0.000000000               0.999999989               0.000924878              -0.000000000               0.999999989               0.000935322              -0.000000000               0.999999989               0.000945877               0.000000000               0.999999989               0.000956131               0.000000000               0.999999989               0.000965712               0.000000000               0.999999989               0.000974284              -0.000000000               0.999999989               0.000981382              -0.000000000               0.999999989               0.000986592              -0.000000000               0.999999989               0.000989150               0.000000000               0.999999989               0.000801549               0.000115386               0.999999989               0.000841847               0.000091336               0.999999989               0.000858043               0.000080112               0.999999989               0.000866774               0.000075145               0.999999989               0.000873911               0.000073299               0.999999989               0.000881407               0.000073051               0.999999989               0.000889771               0.000073167               0.999999989               0.000898834               0.000073086               0.999999989               0.000908299               0.000072352               0.999999989               0.000917823               0.000070786               0.999999989               0.000927100               0.000068160               0.999999989               0.000935887               0.000064115               0.999999989               0.000943775               0.000058296               0.999999989               0.000950445               0.000050365               0.999999989               0.000955520               0.000039756               0.999999989               0.000958538               0.000025765               0.999999989               0.000958869               0.000007095               0.999999989               0.000788181               0.000229736               0.999999989               0.000817503               0.000182412               0.999999989               0.000826871               0.000161106               0.999999989               0.000831271               0.000152087               0.999999989               0.000835470               0.000149184               0.999999989               0.000840695               0.000149057               0.999999989               0.000846963               0.000149668               0.999999989               0.000853823               0.000149685               0.999999989               0.000860781               0.000148370               0.999999989               0.000867436               0.000145310               0.999999989               0.000873312               0.000139944               0.999999989               0.000878121               0.000131896               0.999999989               0.000881494               0.000120648               0.999999989               0.000883081               0.000105453               0.999999989               0.000882557               0.000085402               0.999999989               0.000879534               0.000059302               0.999999989               0.000873810               0.000026036               0.999999989               0.000766298               0.000342096               0.999999989               0.000778326               0.000272976               0.999999989               0.000777776               0.000243724               0.999999989               0.000776408               0.000232372               0.999999989               0.000776826               0.000229385               0.999999989               0.000778971               0.000230043               0.999999989               0.000782284               0.000231497               0.999999989               0.000785962               0.000231801               0.999999989               0.000789258               0.000229889               0.999999989               0.000791588               0.000225317               0.999999989               0.000792431               0.000217443               0.999999989               0.000791409               0.000205594               0.999999989               0.000788105               0.000189325               0.999999989               0.000782197               0.000167670               0.999999989               0.000773400               0.000139739               0.999999989               0.000761749               0.000104917               0.999999989               0.000747633               0.000062621               0.999999989               0.000736254               0.000451496               0.999999989               0.000726362               0.000363042               0.999999989               0.000714849               0.000328461               0.999999989               0.000707596               0.000316615               0.999999989               0.000704306               0.000314652               0.999999989               0.000703490               0.000316574               0.999999989               0.000703639               0.000318960               0.999999989               0.000703582               0.000319476               0.999999989               0.000702349               0.000317070               0.999999989               0.000699180               0.000311076               0.999999989               0.000693551               0.000300687               0.999999989               0.000684953               0.000285363               0.999999989               0.000673023               0.000264486               0.999999989               0.000657615               0.000237606               0.999999989               0.000638935               0.000204244               0.999999989               0.000617560               0.000164495               0.999999989               0.000594377               0.000119067               0.999999989               0.000698868               0.000556854               0.999999989               0.000664324               0.000452734               0.999999989               0.000642476               0.000415423               0.999999989               0.000630625               0.000404503               0.999999989               0.000624760               0.000404175               0.999999989               0.000621408               0.000407434               0.999999989               0.000618422               0.000410694               0.999999989               0.000614297               0.000411483               0.999999989               0.000607823               0.000408474               0.999999989               0.000598218               0.000400879               0.999999989               0.000584810               0.000388054               0.999999989               0.000567200               0.000369393               0.999999989               0.000545455               0.000344805               0.999999989               0.000519894               0.000314071               0.999999989               0.000491120               0.000277731               0.999999989               0.000460154               0.000236519               0.999999989               0.000428178               0.000192288               0.999999989               0.000654736               0.000657256               0.999999989               0.000595024               0.000542196               0.999999989               0.000565271               0.000504236               0.999999989               0.000550966               0.000495010               0.999999989               0.000543702               0.000496459               0.999999989               0.000538459               0.000500792               0.999999989               0.000532474               0.000504803               0.999999989               0.000523856               0.000505723               0.999999989               0.000511377               0.000501906               0.999999989               0.000494228               0.000492683               0.999999989               0.000471879               0.000477321               0.999999989               0.000444444               0.000455897               0.999999989               0.000412265               0.000428594               0.999999989               0.000376154               0.000395916               0.999999989               0.000337214               0.000358667               0.999999989               0.000296653               0.000318497               0.999999989               0.000255603               0.000277308               0.999999989               0.000604604               0.000751785               0.999999989               0.000521783               0.000631184               0.999999989               0.000487480               0.000594165               0.999999989               0.000473136               0.000586603               0.999999989               0.000465576               0.000589487               0.999999989               0.000458799               0.000594671               0.999999989               0.000449623               0.000599134               0.999999989               0.000435997               0.000599902               0.999999989               0.000416443               0.000595029               0.999999989               0.000390507               0.000584076               0.999999989               0.000358066               0.000566704               0.999999989               0.000319612               0.000543553               0.999999989               0.000275952               0.000515180               0.999999989               0.000228539               0.000482485               0.999999989               0.000178703               0.000446862               0.999999989               0.000127942               0.000410072               0.999999989               0.000077400               0.000373693               0.999999989               0.000550115               0.000838728               0.999999989               0.000447041               0.000719673               0.999999989               0.000412967               0.000683928               0.999999989               0.000400348               0.000677392               0.999999989               0.000393212               0.000681252               0.999999989               0.000384863               0.000687356               0.999999989               0.000372086               0.000691895               0.999999989               0.000352347               0.000692125               0.999999989               0.000324433               0.000686210               0.999999989               0.000288349               0.000673935               0.999999989               0.000244400               0.000655327               0.999999989               0.000193583               0.000631537               0.999999989               0.000137399               0.000603825               0.999999989               0.000077741               0.000573571               0.999999989               0.000016414               0.000542381               0.999999989              -0.000045006               0.000511640               0.999999989              -0.000105742               0.000482131               0.999999989               0.000493499               0.000921378               0.999999989               0.000384087               0.000819767               0.999999989               0.000347865               0.000781020               0.999999989               0.000334706               0.000770451               0.999999989               0.000328236               0.000771929               0.999999989               0.000321615               0.000777747               0.999999989               0.000311390               0.000784164               0.999999989               0.000295411               0.000788638               0.999999989               0.000272277               0.000789443               0.999999989               0.000241668               0.000785557               0.999999989               0.000203296               0.000776883               0.999999989               0.000157388               0.000763697               0.999999989               0.000105246               0.000746945               0.999999989               0.000048081               0.000727718               0.999999989              -0.000012593               0.000707132               0.999999989              -0.000074997               0.000686418               0.999999989              -0.000137853               0.000666554               0.999999989               0.000431638               0.000997056               0.999999989               0.000323356               0.000917054               0.999999989               0.000285069               0.000881288               0.999999989               0.000270801               0.000868831               0.999999989               0.000264265               0.000868810               0.999999989               0.000258566               0.000874651               0.999999989               0.000250422               0.000882740               0.999999989               0.000237654               0.000890654               0.999999989               0.000219030               0.000896761               0.999999989               0.000193590               0.000900073               0.999999989               0.000161028               0.000899913               0.999999989               0.000121089               0.000896243               0.999999989               0.000074168               0.000889283               0.999999989               0.000020991               0.000879972               0.999999989              -0.000037096               0.000869078               0.999999989              -0.000098501               0.000857796               0.999999989              -0.000161605               0.000846871               0.999999989               0.000365837               0.001063806               0.999999989               0.000264895               0.001008613               0.999999989               0.000226365               0.000979784               0.999999989               0.000210937               0.000968676               0.999999989               0.000203702               0.000968667               0.999999989               0.000198277               0.000975259               0.999999989               0.000191663               0.000985239               0.999999989               0.000181632               0.000996349               0.999999989               0.000166818               0.001007235               0.999999989               0.000146105               0.001016787               0.999999989               0.000119231               0.001024228               0.999999989               0.000085556               0.001029041               0.999999989               0.000045132               0.001031094               0.999999989              -0.000002181               0.001030746               0.999999989              -0.000055920               0.001028646               0.999999989              -0.000114912               0.001025836               0.999999989              -0.000177712               0.001023161               0.999999989               0.000296815               0.001120201               0.999999989               0.000208893               0.001090455               0.999999989               0.000172556               0.001071545               0.999999989               0.000156702               0.001064482               0.999999989               0.000148777               0.001066463               0.999999989               0.000143416               0.001074680               0.999999989               0.000137886               0.001086927               0.999999989               0.000130003               0.001101316               0.999999989               0.000118388               0.001116724               0.999999989               0.000102251               0.001131934               0.999999989               0.000080798               0.001146146               0.999999989               0.000053785               0.001158842               0.999999989               0.000020501               0.001169632               0.999999989              -0.000019721               0.001178289               0.999999989              -0.000067349               0.001185121               0.999999989              -0.000122196               0.001190754               0.999999989              -0.000183490               0.001196082               0.999999989               0.000225047               0.001165344               0.999999989               0.000154982               0.001158748               0.999999989               0.000123801               0.001151025               0.999999989               0.000109083               0.001149658               0.999999989               0.000101313               0.001154954               0.999999989               0.000096288               0.001165728               0.999999989               0.000091578               0.001180588               0.999999989               0.000085416               0.001198401               0.999999989               0.000076722               0.001218097               0.999999989               0.000064780               0.001238567               0.999999989               0.000048809               0.001259010               0.999999989               0.000028457               0.001278896               0.999999989               0.000002907               0.001297757               0.999999989              -0.000029026               0.001315243               0.999999989              -0.000068454               0.001331216               0.999999989              -0.000116013               0.001345779               0.999999989              -0.000172369               0.001359361               0.999999989               0.000151186               0.001198236               0.999999989               0.000102568               0.001210144               0.999999989               0.000079614               0.001212637               0.999999989               0.000068070               0.001217172               0.999999989               0.000061781               0.001226165               0.999999989               0.000057750               0.001239709               0.999999989               0.000054105               0.001257276               0.999999989               0.000049769               0.001278070               0.999999989               0.000043855               0.001301315               0.999999989               0.000035880               0.001326204               0.999999989               0.000025268               0.001352015               0.999999989               0.000011772               0.001378166               0.999999989              -0.000005509               0.001404209               0.999999989              -0.000027854               0.001429670               0.999999989              -0.000056291               0.001454095               0.999999989              -0.000092229               0.001477222               0.999999989              -0.000136953               0.001498845               0.999999989               0.000075939               0.001218186               0.999999989               0.000051057               0.001242049               0.999999989               0.000038880               0.001251739               0.999999989               0.000032490               0.001260566               0.999999989               0.000029005               0.001272489               0.999999989               0.000026704               0.001288358               0.999999989               0.000024682               0.001307919               0.999999989               0.000022426               0.001330756               0.999999989               0.000019397               0.001356402               0.999999989               0.000015306               0.001384201               0.999999989               0.000010061               0.001413552               0.999999989               0.000003320               0.001444016               0.999999989              -0.000005326               0.001475220               0.999999989              -0.000016738               0.001506569               0.999999989              -0.000031754               0.001537365               0.999999989              -0.000051299               0.001567025               0.999999989              -0.000076658               0.001594861               0.999999989              -0.000000000               0.001224900               0.999999989              -0.000000000               0.001252842               0.999999989              -0.000000000               0.001265141               0.999999989               0.000000000               0.001275676               0.999999989              -0.000000000               0.001288675               0.999999989              -0.000000000               0.001305282               0.999999989               0.000000000               0.001325581               0.999999989              -0.000000000               0.001349190               0.999999989               0.000000000               0.001375631               0.999999989              -0.000000000               0.001404363               0.999999989               0.000000000               0.001434941               0.999999989               0.000000000               0.001467053               0.999999989               0.000000000               0.001500299               0.999999989               0.000000000               0.001534048               0.999999989               0.000000000               0.001567546               0.999999989              -0.000000000               0.001599959               0.999999989              -0.000000000               0.001630244               0.999999989 </DataArray>
<DataArray type="Float64"                                    Name="stress"                                                      NumberOfComponents="10" format="ascii">
              0.001963486               0.020926808              -0.000000000              -0.001879539               0.007602046               0.005722507               0.000000000               0.000000000               0.000000000               0.000000000               0.001862776               0.016025189              -0.000000000              -0.001304604               0.005776544               0.004471940               0.000000000               0.000000000               0.000000000               0.000000000               0.002371777               0.012026941              -0.000000000              -0.000613950               0.004213590               0.003599640               0.000000000               0.000000000               0.000000000               0.000000000               0.002164928               0.009752914               0.000000000              -0.000407265               0.003386694               0.002979429               0.000000000               0.000000000               0.000000000               0.000000000               0.001777559               0.008307958               0.000000000              -0.000371909               0.002893261               0.002521352               0.000000000               0.000000000               0.000000000               0.000000000               0.001387839               0.007300246              -0.000000000              -0.000392090               0.002564088               0.002171997               0.000000000               0.000000000               0.000000000               0.000000000               0.001042229               0.006518530              -0.000000000              -0.000423979               0.002314148               0.001890169               0.000000000               0.000000000               0.000000000               0.000000000               0.000762247               0.005863389              -0.000000000              -0.000447080               0.002103470               0.001656390               0.000000000               0.000000000               0.000000000               0.000000000               0.000537439               0.005275603              -0.000000000              -0.000457910               0.001911153               0.001453244               0.000000000               0.000000000               0.000000000               0.000000000               0.000345398               0.004721441               0.000000000              -0.000460655               0.001727350               0.001266695               0.000000000               0.000000000               0.000000000               0.000000000               0.000187820               0.004182074              -0.000000000              -0.000452326               0.001544786               0.001092460               0.000000000               0.000000000               0.000000000               0.000000000               0.000071818               0.003640171              -0.000000000              -0.000428089               0.001356074               0.000927986               0.000000000               0.000000000               0.000000000               0.000000000              -0.000010220               0.003077436              -0.000000000              -0.000388511               0.001155305               0.000766794               0.000000000               0.000000000               0.000000000               0.000000000              -0.000059525               0.002480138              -0.000000000              -0.000332338               0.000937484               0.000605145               0.000000000               0.000000000               0.000000000               0.000000000              -0.000076482               0.001829555              -0.000000000              -0.000257375               0.000695637               0.000438262               0.000000000               0.000000000               0.000000000               0.000000000              -0.000051611               0.001103873              -0.000000000              -0.000157338               0.000420400               0.000263062               0.000000000               0.000000000               0.000000000               0.000000000              -0.000085498               0.000549118              -0.000000000              -0.000100701               0.000216604               0.000115903               0.000000000               0.000000000               0.000000000               0.000000000               0.002016553               0.020475708              -0.001377458              -0.001803252               0.007426252               0.005623000               0.000000000               0.000000000               0.000000000               0.000000000               0.001799388               0.015741272              -0.000613853              -0.001292885               0.005678000               0.004385115               0.000000000               0.000000000               0.000000000               0.000000000               0.002185117               0.011914678               0.000136690              -0.000669914               0.004194824               0.003524910               0.000000000               0.000000000               0.000000000               0.000000000               0.001935899               0.009729355               0.000444394              -0.000490206               0.003406488               0.002916282               0.000000000               0.000000000               0.000000000               0.000000000               0.001541123               0.008332120               0.000565371              -0.000463593               0.002931877               0.002468284               0.000000000               0.000000000               0.000000000               0.000000000               0.001156906               0.007343500               0.000597708              -0.000484097               0.002609174               0.002125078               0.000000000               0.000000000               0.000000000               0.000000000               0.000829445               0.006573712               0.000587165              -0.000510671               0.002361439               0.001850768               0.000000000               0.000000000               0.000000000               0.000000000               0.000568230               0.005922738               0.000559845              -0.000527255               0.002149978               0.001622723               0.000000000               0.000000000               0.000000000               0.000000000               0.000362765               0.005336729               0.000527116              -0.000531053               0.001955909               0.001424856               0.000000000               0.000000000               0.000000000               0.000000000               0.000200419               0.004785412               0.000494637              -0.000523018               0.001769461               0.001246442               0.000000000               0.000000000               0.000000000               0.000000000               0.000070850               0.004245827               0.000461704              -0.000504159               0.001583314               0.001079156               0.000000000               0.000000000               0.000000000               0.000000000              -0.000022919               0.003706800               0.000424575              -0.000471944               0.001392902               0.000920959               0.000000000               0.000000000               0.000000000               0.000000000              -0.000081680               0.003156171               0.000380863              -0.000425150               0.001193763               0.000768613               0.000000000               0.000000000               0.000000000               0.000000000              -0.000110825               0.002577906               0.000325343              -0.000363797               0.000980559               0.000616762               0.000000000               0.000000000               0.000000000               0.000000000              -0.000107841               0.001957202               0.000250003              -0.000285090               0.000747424               0.000462334               0.000000000               0.000000000               0.000000000               0.000000000              -0.000065243               0.001279698               0.000142378              -0.000184428               0.000488038               0.000303610               0.000000000               0.000000000               0.000000000               0.000000000              -0.000086445               0.000775650               0.000089305              -0.000129373               0.000301672               0.000172299               0.000000000               0.000000000               0.000000000               0.000000000               0.002142551               0.019189206              -0.002550190              -0.001595191               0.006928068               0.005332877               0.000000000               0.000000000               0.000000000               0.000000000               0.001608269               0.014933879              -0.001131622              -0.001263631               0.005399120               0.004135489               0.000000000               0.000000000               0.000000000               0.000000000               0.001657123               0.011600095               0.000248953              -0.000828589               0.004142856               0.003314267               0.000000000               0.000000000               0.000000000               0.000000000               0.001292644               0.009661785               0.000792611              -0.000722980               0.003461556               0.002738576               0.000000000               0.000000000               0.000000000               0.000000000               0.000883819               0.008383968               0.000994183              -0.000716562               0.003033482               0.002316920               0.000000000               0.000000000               0.000000000               0.000000000               0.000531058               0.007449325               0.001043704              -0.000732018               0.002727089               0.001995072               0.000000000               0.000000000               0.000000000               0.000000000               0.000257754               0.006705762               0.001020697              -0.000741561               0.002482418               0.001740858               0.000000000               0.000000000               0.000000000               0.000000000               0.000058447               0.006064681               0.000967286              -0.000736166               0.002266929               0.001530763               0.000000000               0.000000000               0.000000000               0.000000000              -0.000084783               0.005480855               0.000907634              -0.000716899               0.002065899               0.001349000               0.000000000               0.000000000               0.000000000               0.000000000              -0.000180256               0.004932784               0.000846277              -0.000684193               0.001872309               0.001188116               0.000000000               0.000000000               0.000000000               0.000000000              -0.000240173               0.004401501               0.000781772              -0.000640251               0.001680569               0.001040318               0.000000000               0.000000000               0.000000000               0.000000000              -0.000270059               0.003876536               0.000713523              -0.000585838               0.001487445               0.000901607               0.000000000               0.000000000               0.000000000               0.000000000              -0.000266889               0.003354134               0.000632865              -0.000519349               0.001291150               0.000771801               0.000000000               0.000000000               0.000000000               0.000000000              -0.000236124               0.002822180               0.000530371              -0.000441318               0.001087823               0.000646505               0.000000000               0.000000000               0.000000000               0.000000000              -0.000177023               0.002277455               0.000396630              -0.000351065               0.000876166               0.000525101               0.000000000               0.000000000               0.000000000               0.000000000              -0.000092146               0.001726214               0.000220633              -0.000250331               0.000658843               0.000408512               0.000000000               0.000000000               0.000000000               0.000000000              -0.000085711               0.001343929               0.000136909              -0.000200132               0.000514682               0.000314550               0.000000000               0.000000000               0.000000000               0.000000000               0.002236019               0.017239311              -0.003354840              -0.001316405               0.006185181               0.004868775               0.000000000               0.000000000               0.000000000               0.000000000               0.001264811               0.013726083              -0.001486641              -0.001241454               0.004989133               0.003747679               0.000000000               0.000000000               0.000000000               0.000000000               0.000850891               0.011131395               0.000301659              -0.001072338               0.004067874               0.002995536               0.000000000               0.000000000               0.000000000               0.000000000               0.000356352               0.009543142               0.000962568              -0.001059258               0.003534102               0.002474843               0.000000000               0.000000000               0.000000000               0.000000000              -0.000037105               0.008426792               0.001191162              -0.001067261               0.003164656               0.002097395               0.000000000               0.000000000               0.000000000               0.000000000              -0.000315479               0.007563648               0.001238681              -0.001063758               0.002875777               0.001812018               0.000000000               0.000000000               0.000000000               0.000000000              -0.000499375               0.006844366               0.001201486              -0.001042809               0.002629036               0.001586226               0.000000000               0.000000000               0.000000000               0.000000000              -0.000604644               0.006210562               0.001128436              -0.001003060               0.002404520               0.001401460               0.000000000               0.000000000               0.000000000               0.000000000              -0.000650230               0.005634621               0.001050269              -0.000948162               0.002194242               0.001246080               0.000000000               0.000000000               0.000000000               0.000000000              -0.000651131               0.005097044               0.000972474              -0.000881303               0.001992765               0.001111462               0.000000000               0.000000000               0.000000000               0.000000000              -0.000618270               0.004583137               0.000889301              -0.000804742               0.001795944               0.000991202               0.000000000               0.000000000               0.000000000               0.000000000              -0.000556965               0.004085391               0.000801933              -0.000719534               0.001601628               0.000882094               0.000000000               0.000000000               0.000000000               0.000000000              -0.000468705               0.003601611               0.000701307              -0.000625965               0.001409180               0.000783215               0.000000000               0.000000000               0.000000000               0.000000000              -0.000356970               0.003136897               0.000574070              -0.000525975               0.001220947               0.000694972               0.000000000               0.000000000               0.000000000               0.000000000              -0.000231359               0.002700563               0.000416798              -0.000424329               0.001041621               0.000617292               0.000000000               0.000000000               0.000000000               0.000000000              -0.000109671               0.002311777               0.000225158              -0.000330098               0.000880617               0.000550519               0.000000000               0.000000000               0.000000000               0.000000000              -0.000077147               0.002074671               0.000133063              -0.000288263               0.000787638               0.000499375               0.000000000               0.000000000               0.000000000               0.000000000               0.002163460               0.014854298              -0.003722126              -0.001045490               0.005299879               0.004254389               0.000000000               0.000000000               0.000000000               0.000000000               0.000745366               0.012281216              -0.001667030              -0.001255638               0.004512243               0.003256606               0.000000000               0.000000000               0.000000000               0.000000000              -0.000140347               0.010562336               0.000266564              -0.001372919               0.003978383               0.002605464               0.000000000               0.000000000               0.000000000               0.000000000              -0.000708801               0.009351615               0.000926786              -0.001434749               0.003595424               0.002160675               0.000000000               0.000000000               0.000000000               0.000000000              -0.001032869               0.008401062               0.001133366              -0.001437455               0.003279477               0.001842022               0.000000000               0.000000000               0.000000000               0.000000000              -0.001194167               0.007605531               0.001167099              -0.001398501               0.003001318               0.001602818               0.000000000               0.000000000               0.000000000               0.000000000              -0.001250024               0.006914528               0.001122185              -0.001333072               0.002749177               0.001416105               0.000000000               0.000000000               0.000000000               0.000000000              -0.001230093               0.006299864               0.001045244              -0.001248765               0.002516189               0.001267423               0.000000000               0.000000000               0.000000000               0.000000000              -0.001154711               0.005742620               0.000965782              -0.001150841               0.002297801               0.001146960               0.000000000               0.000000000               0.000000000               0.000000000              -0.001043623               0.005222448               0.000885935              -0.001044162               0.002088852               0.001044690               0.000000000               0.000000000               0.000000000               0.000000000              -0.000905324               0.004731930               0.000802101              -0.000930986               0.001887623               0.000956637               0.000000000               0.000000000               0.000000000               0.000000000              -0.000744878               0.004270339               0.000712984              -0.000813120               0.001694472               0.000881352               0.000000000               0.000000000               0.000000000               0.000000000              -0.000569077               0.003842704               0.000609983              -0.000693740               0.001512135               0.000818395               0.000000000               0.000000000               0.000000000               0.000000000              -0.000389241               0.003461310               0.000483922              -0.000578628               0.001346634               0.000768007               0.000000000               0.000000000               0.000000000               0.000000000              -0.000224778               0.003144456               0.000333753              -0.000477348               0.001207257               0.000729910               0.000000000               0.000000000               0.000000000               0.000000000              -0.000097344               0.002909550               0.000170106              -0.000400197               0.001103239               0.000703043               0.000000000               0.000000000               0.000000000               0.000000000              -0.000052948               0.002800298               0.000091951              -0.000369892               0.001056721               0.000686829               0.000000000               0.000000000               0.000000000               0.000000000               0.001819650               0.012292916              -0.003656906              -0.000854247               0.004382346               0.003528099               0.000000000               0.000000000               0.000000000               0.000000000               0.000056305               0.010760893              -0.001694252              -0.001323995               0.004028260               0.002704265               0.000000000               0.000000000               0.000000000               0.000000000              -0.001206327               0.009933926               0.000124519              -0.001694109               0.003875978               0.002181869               0.000000000               0.000000000               0.000000000               0.000000000              -0.001754312               0.009067654               0.000695161              -0.001791319               0.003619628               0.001828308               0.000000000               0.000000000               0.000000000               0.000000000              -0.001941091               0.008261027               0.000859192              -0.001760533               0.003340492               0.001579959               0.000000000               0.000000000               0.000000000               0.000000000              -0.001941456               0.007529319               0.000886831              -0.001669207               0.003066150               0.001396943               0.000000000               0.000000000               0.000000000               0.000000000              -0.001842600               0.006880846               0.000852288              -0.001551077               0.002810618               0.001259541               0.000000000               0.000000000               0.000000000               0.000000000              -0.001680746               0.006300318               0.000788859              -0.001417816               0.002572690               0.001154874               0.000000000               0.000000000               0.000000000               0.000000000              -0.001480433               0.005767070               0.000722676              -0.001276043               0.002347685               0.001071642               0.000000000               0.000000000               0.000000000               0.000000000              -0.001254936               0.005272290               0.000656769              -0.001129635               0.002133957               0.001004323               0.000000000               0.000000000               0.000000000               0.000000000              -0.001012716               0.004814602               0.000586756              -0.000981592               0.001932048               0.000950457               0.000000000               0.000000000               0.000000000               0.000000000              -0.000767466               0.004402008               0.000509200              -0.000838049               0.001746671               0.000908622               0.000000000               0.000000000               0.000000000               0.000000000              -0.000533989               0.004044225               0.000417008              -0.000705772               0.001583319               0.000877546               0.000000000               0.000000000               0.000000000               0.000000000              -0.000324100               0.003752987               0.000308501              -0.000590659               0.001447870               0.000857210               0.000000000               0.000000000               0.000000000               0.000000000              -0.000158629               0.003540110               0.000191560              -0.000501998               0.001347358               0.000845359               0.000000000               0.000000000               0.000000000               0.000000000              -0.000056743               0.003416923               0.000085331              -0.000448393               0.001288427               0.000840034               0.000000000               0.000000000               0.000000000               0.000000000              -0.000022866               0.003382418               0.000039109              -0.000431376               0.001271253               0.000839877               0.000000000               0.000000000               0.000000000               0.000000000               0.001140663               0.009779472              -0.003232757              -0.000794686               0.003524686               0.002730000               0.000000000               0.000000000               0.000000000               0.000000000              -0.000771391               0.009282977              -0.001621647              -0.001449641               0.003577508               0.002127867               0.000000000               0.000000000               0.000000000               0.000000000              -0.002232081               0.009271917              -0.000135427              -0.001996015               0.003755946               0.001759932               0.000000000               0.000000000               0.000000000               0.000000000              -0.002640378               0.008691912               0.000308760              -0.002076626               0.003589484               0.001512858               0.000000000               0.000000000               0.000000000               0.000000000              -0.002637684               0.008004898               0.000442162              -0.001989739               0.003331519               0.001341780               0.000000000               0.000000000               0.000000000               0.000000000              -0.002458971               0.007341694               0.000482871              -0.001839821               0.003060481               0.001220659               0.000000000               0.000000000               0.000000000               0.000000000              -0.002196826               0.006746165               0.000480286              -0.001667076               0.002804391               0.001137315               0.000000000               0.000000000               0.000000000               0.000000000              -0.001892636               0.006204273               0.000447044              -0.001485269               0.002563160               0.001077891               0.000000000               0.000000000               0.000000000               0.000000000              -0.001576528               0.005701451               0.000410413              -0.001303876               0.002335090               0.001031214               0.000000000               0.000000000               0.000000000               0.000000000              -0.001254517               0.005242611               0.000371489              -0.001125767               0.002122775               0.000997008               0.000000000               0.000000000               0.000000000               0.000000000              -0.000939337               0.004833695               0.000326926              -0.000956461               0.001930036               0.000973575               0.000000000               0.000000000               0.000000000               0.000000000              -0.000644506               0.004491481               0.000274422              -0.000803123               0.001764853               0.000961730               0.000000000               0.000000000               0.000000000               0.000000000              -0.000389720               0.004218904               0.000209558              -0.000673506               0.001630789               0.000957283               0.000000000               0.000000000               0.000000000               0.000000000              -0.000192054               0.004021553               0.000133935              -0.000574713               0.001532075               0.000957362               0.000000000               0.000000000               0.000000000               0.000000000              -0.000063205               0.003902138               0.000063361              -0.000511468               0.001471189               0.000959721               0.000000000               0.000000000               0.000000000               0.000000000              -0.000007094               0.003859586               0.000017506              -0.000485107               0.001448218               0.000963111               0.000000000               0.000000000               0.000000000               0.000000000               0.000005566               0.003865967               0.000000852              -0.000481157               0.001449029               0.000967871               0.000000000               0.000000000               0.000000000               0.000000000               0.000154477               0.007462560              -0.002562583              -0.000874891               0.002779124               0.001904234               0.000000000               0.000000000               0.000000000               0.000000000              -0.001685723               0.007932648              -0.001503775              -0.001623724               0.003185431               0.001561707               0.000000000               0.000000000               0.000000000               0.000000000              -0.003111982               0.008585797              -0.000501181              -0.002240212               0.003608641               0.001368429               0.000000000               0.000000000               0.000000000               0.000000000              -0.003282202               0.008223181              -0.000170216              -0.002258718               0.003493939               0.001235221               0.000000000               0.000000000               0.000000000               0.000000000              -0.003059174               0.007649178              -0.000035164              -0.002103332               0.003250811               0.001147479               0.000000000               0.000000000               0.000000000               0.000000000              -0.002703924               0.007073085               0.000038202              -0.001898102               0.002990372               0.001092270               0.000000000               0.000000000               0.000000000               0.000000000              -0.002296243               0.006532271               0.000083646              -0.001677621               0.002736609               0.001058988               0.000000000               0.000000000               0.000000000               0.000000000              -0.001867926               0.006030250               0.000098111              -0.001454250               0.002494813               0.001040563               0.000000000               0.000000000               0.000000000               0.000000000              -0.001453182               0.005570963               0.000103301              -0.001241311               0.002270739               0.001029429               0.000000000               0.000000000               0.000000000               0.000000000              -0.001063317               0.005165489               0.000102468              -0.001044427               0.002069955               0.001025528               0.000000000               0.000000000               0.000000000               0.000000000              -0.000705964               0.004827212               0.000095729              -0.000868136               0.001898433               0.001030297               0.000000000               0.000000000               0.000000000               0.000000000              -0.000398359               0.004567333               0.000083489              -0.000720300               0.001762529               0.001042229               0.000000000               0.000000000               0.000000000               0.000000000              -0.000162740               0.004388483               0.000057284              -0.000609586               0.001666009               0.001056422               0.000000000               0.000000000               0.000000000               0.000000000              -0.000009810               0.004291498               0.000023115              -0.000540115               0.001610523               0.001070409               0.000000000               0.000000000               0.000000000               0.000000000               0.000062224               0.004273033              -0.000004422              -0.000510794               0.001594595               0.001083801               0.000000000               0.000000000               0.000000000               0.000000000               0.000057624               0.004310326              -0.000012235              -0.000517180               0.001609155               0.001091974               0.000000000               0.000000000               0.000000000               0.000000000               0.000042414               0.004356946              -0.000014770              -0.000528712               0.001628538               0.001099826               0.000000000               0.000000000               0.000000000               0.000000000              -0.001013267               0.005511743              -0.001754680              -0.001068941               0.002193542               0.001124601               0.000000000               0.000000000               0.000000000               0.000000000              -0.002585483               0.006730218              -0.001378656              -0.001810829               0.002846993               0.001036164               0.000000000               0.000000000               0.000000000               0.000000000              -0.003803716               0.007897187              -0.000942888              -0.002413536               0.003436881               0.001023345               0.000000000               0.000000000               0.000000000               0.000000000              -0.003723415               0.007764543              -0.000682544              -0.002366843               0.003377103               0.001010260               0.000000000               0.000000000               0.000000000               0.000000000              -0.003308986               0.007334539              -0.000516662              -0.002157682               0.003164049               0.001006367               0.000000000               0.000000000               0.000000000               0.000000000              -0.002805907               0.006860354              -0.000399136              -0.001909755               0.002923347               0.001013592               0.000000000               0.000000000               0.000000000               0.000000000              -0.002283828               0.006388820              -0.000302833              -0.001655034               0.002681263               0.001026229               0.000000000               0.000000000               0.000000000               0.000000000              -0.001763757               0.005934589              -0.000228579              -0.001403229               0.002445919               0.001042690               0.000000000               0.000000000               0.000000000               0.000000000              -0.001273088               0.005524296              -0.000174032              -0.001167942               0.002230728               0.001062786               0.000000000               0.000000000               0.000000000               0.000000000              -0.000828869               0.005168082              -0.000130382              -0.000956834               0.002041621               0.001084788               0.000000000               0.000000000               0.000000000               0.000000000              -0.000443974               0.004882753              -0.000090697              -0.000776832               0.001886512               0.001109680               0.000000000               0.000000000               0.000000000               0.000000000              -0.000139283               0.004677156              -0.000053674              -0.000636874               0.001771328               0.001134454               0.000000000               0.000000000               0.000000000               0.000000000               0.000076970               0.004557152              -0.000030325              -0.000540779               0.001699295               0.001158516               0.000000000               0.000000000               0.000000000               0.000000000               0.000200232               0.004525259              -0.000018571              -0.000490569               0.001671927               0.001181359               0.000000000               0.000000000               0.000000000               0.000000000               0.000240611               0.004573900              -0.000013572              -0.000481507               0.001685120               0.001203613               0.000000000               0.000000000               0.000000000               0.000000000               0.000218748               0.004677975              -0.000009895              -0.000502715               0.001726881               0.001224166               0.000000000               0.000000000               0.000000000               0.000000000               0.000188840               0.004749515              -0.000008128              -0.000522873               0.001757447               0.001234574               0.000000000               0.000000000               0.000000000               0.000000000              -0.002367182               0.003707703              -0.000907557              -0.001351153               0.001686273               0.000335120               0.000000000               0.000000000               0.000000000               0.000000000              -0.003351509               0.005338719              -0.001243401              -0.001924151               0.002420939               0.000496788               0.000000000               0.000000000               0.000000000               0.000000000              -0.004229651               0.006883338              -0.001407298              -0.002446531               0.003109933               0.000663402               0.000000000               0.000000000               0.000000000               0.000000000              -0.004004998               0.007103507              -0.001227848              -0.002389807               0.003164414               0.000774607               0.000000000               0.000000000               0.000000000               0.000000000              -0.003511277               0.006918721              -0.001034911              -0.002181564               0.003033405               0.000851841               0.000000000               0.000000000               0.000000000               0.000000000              -0.002955155               0.006622248              -0.000868701              -0.001935959               0.002852713               0.000916754               0.000000000               0.000000000               0.000000000               0.000000000              -0.002396748               0.006297245              -0.000722877              -0.001685932               0.002661038               0.000975106               0.000000000               0.000000000               0.000000000               0.000000000              -0.001851667               0.005959817              -0.000595511              -0.001439349               0.002466369               0.001027020               0.000000000               0.000000000               0.000000000               0.000000000              -0.001331374               0.005634443              -0.000491389              -0.001203568               0.002279318               0.001075750               0.000000000               0.000000000               0.000000000               0.000000000              -0.000856719               0.005337805              -0.000399649              -0.000988493               0.002108748               0.001120255               0.000000000               0.000000000               0.000000000               0.000000000              -0.000437310               0.005088660              -0.000308997              -0.000800072               0.001962894               0.001162822               0.000000000               0.000000000               0.000000000               0.000000000              -0.000091542               0.004898312              -0.000223603              -0.000646616               0.001848293               0.001201677               0.000000000               0.000000000               0.000000000               0.000000000               0.000170456               0.004778656              -0.000147730              -0.000533410               0.001770673               0.001237263               0.000000000               0.000000000               0.000000000               0.000000000               0.000343984               0.004732320              -0.000082571              -0.000462545               0.001731606               0.001269061               0.000000000               0.000000000               0.000000000               0.000000000               0.000438450               0.004761414              -0.000036936              -0.000430757               0.001730708               0.001299951               0.000000000               0.000000000               0.000000000               0.000000000               0.000473198               0.004860831              -0.000012590              -0.000430154               0.001763646               0.001333492               0.000000000               0.000000000               0.000000000               0.000000000               0.000465678               0.004922620              -0.000002018              -0.000440697               0.001787756               0.001347059               0.000000000               0.000000000               0.000000000               0.000000000              -0.004076106               0.002076452              -0.000092023              -0.001788093               0.001288173              -0.000499920               0.000000000               0.000000000               0.000000000               0.000000000              -0.004206598               0.003938114              -0.001054179              -0.002069734               0.002002602              -0.000067132               0.000000000               0.000000000               0.000000000               0.000000000              -0.004575445               0.005680683              -0.001783838              -0.002425872               0.002702165               0.000276294               0.000000000               0.000000000               0.000000000               0.000000000              -0.004215864               0.006234247              -0.001752991              -0.002360224               0.002864803               0.000504578               0.000000000               0.000000000               0.000000000               0.000000000              -0.003678167               0.006333192              -0.001563386              -0.002170957               0.002834695               0.000663738               0.000000000               0.000000000               0.000000000               0.000000000              -0.003105935               0.006253346              -0.001365770              -0.001946389               0.002733224               0.000786835               0.000000000               0.000000000               0.000000000               0.000000000              -0.002531717               0.006096529              -0.001184478              -0.001711456               0.002602641               0.000891185               0.000000000               0.000000000               0.000000000               0.000000000              -0.001973169               0.005895718              -0.001019006              -0.001476900               0.002457519               0.000980620               0.000000000               0.000000000               0.000000000               0.000000000              -0.001437245               0.005681184              -0.000869890              -0.001249112               0.002310080               0.001060968               0.000000000               0.000000000               0.000000000               0.000000000              -0.000940608               0.005464736              -0.000733321              -0.001035818               0.002166833               0.001131015               0.000000000               0.000000000               0.000000000               0.000000000              -0.000482785               0.005261090              -0.000602962              -0.000838678               0.002033238               0.001194560               0.000000000               0.000000000               0.000000000               0.000000000              -0.000076330               0.005082695              -0.000475141              -0.000663959               0.001915534               0.001251575               0.000000000               0.000000000               0.000000000               0.000000000               0.000262548               0.004949444              -0.000348841              -0.000520224               0.001823206               0.001302982               0.000000000               0.000000000               0.000000000               0.000000000               0.000518930               0.004870118              -0.000227367              -0.000414165               0.001761411               0.001347246               0.000000000               0.000000000               0.000000000               0.000000000               0.000689383               0.004855491              -0.000124511              -0.000348417               0.001734620               0.001386203               0.000000000               0.000000000               0.000000000               0.000000000               0.000781006               0.004907082              -0.000048523              -0.000320507               0.001742513               0.001422006               0.000000000               0.000000000               0.000000000               0.000000000               0.000798984               0.004941129              -0.000016015              -0.000318021               0.001753034               0.001435012               0.000000000               0.000000000               0.000000000               0.000000000              -0.006015076               0.000752385               0.000616096              -0.002349699               0.001034021              -0.001315678               0.000000000               0.000000000               0.000000000               0.000000000              -0.005185958               0.002609911              -0.000801514              -0.002270969               0.001626949              -0.000644020               0.000000000               0.000000000               0.000000000               0.000000000              -0.004860581               0.004294272              -0.001971831              -0.002359497               0.002217907              -0.000141590               0.000000000               0.000000000               0.000000000               0.000000000              -0.004297051               0.005082346              -0.002119624              -0.002246682               0.002442992               0.000196309               0.000000000               0.000000000               0.000000000               0.000000000              -0.003698654               0.005444621              -0.001983510              -0.002067568               0.002504044               0.000436476               0.000000000               0.000000000               0.000000000               0.000000000              -0.003107707               0.005593456              -0.001792195              -0.001864568               0.002485989               0.000621421               0.000000000               0.000000000               0.000000000               0.000000000              -0.002530554               0.005621358              -0.001600961              -0.001651624               0.002424308               0.000772684               0.000000000               0.000000000               0.000000000               0.000000000              -0.001970992               0.005583937              -0.001416151              -0.001437111               0.002340330               0.000903219               0.000000000               0.000000000               0.000000000               0.000000000              -0.001433631               0.005510760              -0.001241260              -0.001226454               0.002245720               0.001019265               0.000000000               0.000000000               0.000000000               0.000000000              -0.000922057               0.005405376              -0.001079467              -0.001021441               0.002142254               0.001120813               0.000000000               0.000000000               0.000000000               0.000000000              -0.000441480               0.005280428              -0.000926223              -0.000825607               0.002035327               0.001209721               0.000000000               0.000000000               0.000000000               0.000000000               0.000008581               0.005151130              -0.000775794              -0.000640672               0.001930584               0.001289911               0.000000000               0.000000000               0.000000000               0.000000000               0.000412897               0.005037334              -0.000620428              -0.000474829               0.001837371               0.001362542               0.000000000               0.000000000               0.000000000               0.000000000               0.000748779               0.004953112              -0.000452796              -0.000338346               0.001763803               0.001425457               0.000000000               0.000000000               0.000000000               0.000000000               0.000995454               0.004919125              -0.000285614              -0.000241595               0.001720223               0.001478629               0.000000000               0.000000000               0.000000000               0.000000000               0.001140480               0.004939560              -0.000132292              -0.000189764               0.001709758               0.001519994               0.000000000               0.000000000               0.000000000               0.000000000               0.001178223               0.004956698              -0.000059332              -0.000177753               0.001711467               0.001533714               0.000000000               0.000000000               0.000000000               0.000000000              -0.008059937              -0.000190211               0.001108789              -0.002998698               0.000936155              -0.002062542               0.000000000               0.000000000               0.000000000               0.000000000              -0.006236991               0.001431193              -0.000524520              -0.002517768               0.001316311              -0.001201457               0.000000000               0.000000000               0.000000000               0.000000000              -0.005113449               0.002853633              -0.001940104              -0.002274244               0.001709280              -0.000564964               0.000000000               0.000000000               0.000000000               0.000000000              -0.004273115               0.003751557              -0.002240323              -0.002071359               0.001940958              -0.000130401               0.000000000               0.000000000               0.000000000               0.000000000              -0.003574358               0.004311711              -0.002188148              -0.001879344               0.002063670               0.000184326               0.000000000               0.000000000               0.000000000               0.000000000              -0.002952009               0.004664247              -0.002037160              -0.001690031               0.002118076               0.000428046               0.000000000               0.000000000               0.000000000               0.000000000              -0.002377832               0.004880898              -0.001859507              -0.001501796               0.002127548               0.000625752               0.000000000               0.000000000               0.000000000               0.000000000              -0.001828567               0.005019263              -0.001677604              -0.001313118               0.002110776               0.000797658               0.000000000               0.000000000               0.000000000               0.000000000              -0.001296383               0.005097729              -0.001505253              -0.001123358               0.002073678               0.000950321               0.000000000               0.000000000               0.000000000               0.000000000              -0.000778133               0.005119691              -0.001343117              -0.000931759               0.002017133               0.001085373               0.000000000               0.000000000               0.000000000               0.000000000              -0.000277600               0.005106708              -0.001189671              -0.000742437               0.001949698               0.001207261               0.000000000               0.000000000               0.000000000               0.000000000               0.000208865               0.005073737              -0.001038977              -0.000555892               0.001876526               0.001320634               0.000000000               0.000000000               0.000000000               0.000000000               0.000664578               0.005024266              -0.000872093              -0.000378816               0.001801010               0.001422194               0.000000000               0.000000000               0.000000000               0.000000000               0.001070641               0.004975575              -0.000678829              -0.000220456               0.001731994               0.001511537               0.000000000               0.000000000               0.000000000               0.000000000               0.001405469               0.004951662              -0.000463801              -0.000091907               0.001681173               0.001589266               0.000000000               0.000000000               0.000000000               0.000000000               0.001643695               0.004964285              -0.000237272              -0.000004150               0.001656129               0.001651978               0.000000000               0.000000000               0.000000000               0.000000000               0.001739886               0.004981518              -0.000124547               0.000029767               0.001650567               0.001680334               0.000000000               0.000000000               0.000000000               0.000000000              -0.010031369              -0.000779683               0.001287847              -0.003664300               0.000961532              -0.002702768               0.000000000               0.000000000               0.000000000               0.000000000              -0.007279664               0.000470387              -0.000277769              -0.002788670               0.001086344              -0.001702325               0.000000000               0.000000000               0.000000000               0.000000000              -0.005340751               0.001502078              -0.001683959              -0.002190539               0.001230863              -0.000959676               0.000000000               0.000000000               0.000000000               0.000000000              -0.004175009               0.002392014              -0.002065112              -0.001864627               0.001418870              -0.000445757               0.000000000               0.000000000               0.000000000               0.000000000              -0.003339906               0.003071939              -0.002089437              -0.001636454               0.001569453              -0.000067001               0.000000000               0.000000000               0.000000000               0.000000000              -0.002669645               0.003583250              -0.001991402              -0.001449020               0.001677410               0.000228390               0.000000000               0.000000000               0.000000000               0.000000000              -0.002089764               0.003971469              -0.001848394              -0.001280093               0.001750507               0.000470414               0.000000000               0.000000000               0.000000000               0.000000000              -0.001547565               0.004275037              -0.001694306              -0.001114714               0.001796569               0.000681854               0.000000000               0.000000000               0.000000000               0.000000000              -0.001025630               0.004498686              -0.001546635              -0.000946945               0.001815195               0.000868250               0.000000000               0.000000000               0.000000000               0.000000000              -0.000514128               0.004652722              -0.001407044              -0.000774387               0.001809020               0.001034633               0.000000000               0.000000000               0.000000000               0.000000000              -0.000003169               0.004763054              -0.001276511              -0.000596569               0.001786525               0.001189956               0.000000000               0.000000000               0.000000000               0.000000000               0.000507661               0.004841605              -0.001145839              -0.000414827               0.001752128               0.001337300               0.000000000               0.000000000               0.000000000               0.000000000               0.001011142               0.004890726              -0.000991388              -0.000232162               0.001707613               0.001475450               0.000000000               0.000000000               0.000000000               0.000000000               0.001495054               0.004918969              -0.000801043              -0.000054227               0.001657715               0.001603489               0.000000000               0.000000000               0.000000000               0.000000000               0.001947015               0.004940901              -0.000574361               0.000112517               0.001609445               0.001721962               0.000000000               0.000000000               0.000000000               0.000000000               0.002340729               0.004968463              -0.000308412               0.000256713               0.001570567               0.001827280               0.000000000               0.000000000               0.000000000               0.000000000               0.002563057               0.005001540              -0.000174073               0.000335950               0.001555180               0.001891130               0.000000000               0.000000000               0.000000000               0.000000000              -0.011683390              -0.001088264               0.001120991              -0.004245236               0.001052316              -0.003192919               0.000000000               0.000000000               0.000000000               0.000000000              -0.008181085              -0.000227502              -0.000106020              -0.003039467               0.000937315              -0.002102152               0.000000000               0.000000000               0.000000000               0.000000000              -0.005530784               0.000394490              -0.001235317              -0.002123353               0.000839275              -0.001284078               0.000000000               0.000000000               0.000000000               0.000000000              -0.004047153               0.001203087              -0.001587693              -0.001668066               0.000957044              -0.000711022               0.000000000               0.000000000               0.000000000               0.000000000              -0.003069711               0.001935165              -0.001650997              -0.001393035               0.001109392              -0.000283643               0.000000000               0.000000000               0.000000000               0.000000000              -0.002343287               0.002553882              -0.001600456              -0.001197965               0.001250606               0.000052641               0.000000000               0.000000000               0.000000000               0.000000000              -0.001744684               0.003068481              -0.001504906              -0.001037815               0.001368754               0.000330940               0.000000000               0.000000000               0.000000000               0.000000000              -0.001203169               0.003496817              -0.001394487              -0.000888289               0.001461690               0.000573401               0.000000000               0.000000000               0.000000000               0.000000000              -0.000689807               0.003845703              -0.001285143              -0.000739389               0.001528351               0.000788962               0.000000000               0.000000000               0.000000000               0.000000000              -0.000187148               0.004123172              -0.001183316              -0.000585576               0.001569569               0.000983992               0.000000000               0.000000000               0.000000000               0.000000000               0.000323765               0.004348736              -0.001091021              -0.000422180               0.001590291               0.001168111               0.000000000               0.000000000               0.000000000               0.000000000               0.000847762               0.004536745              -0.000997948              -0.000249182               0.001595294               0.001346111               0.000000000               0.000000000               0.000000000               0.000000000               0.001390008               0.004690406              -0.000881044              -0.000065048               0.001585136               0.001520087               0.000000000               0.000000000               0.000000000               0.000000000               0.001951439               0.004805943              -0.000730874               0.000131045               0.001558283               0.001689328               0.000000000               0.000000000               0.000000000               0.000000000               0.002532937               0.004891686              -0.000540151               0.000338387               0.001517750               0.001856137               0.000000000               0.000000000               0.000000000               0.000000000               0.003125460               0.004954313              -0.000296758               0.000552753               0.001467170               0.002019923               0.000000000               0.000000000               0.000000000               0.000000000               0.003527689               0.005018001              -0.000175622               0.000695626               0.001440775               0.002136401               0.000000000               0.000000000               0.000000000               0.000000000              -0.012782136              -0.001208827               0.000650098              -0.004642195               0.001144448              -0.003497747               0.000000000               0.000000000               0.000000000               0.000000000              -0.008793374              -0.000640722              -0.000022860              -0.003217423               0.000858894              -0.002358529               0.000000000               0.000000000               0.000000000               0.000000000              -0.005660101              -0.000332874              -0.000652395              -0.002080927               0.000582680              -0.001498247               0.000000000               0.000000000               0.000000000               0.000000000              -0.003940889               0.000387768              -0.000865505              -0.001526303               0.000638019              -0.000888284               0.000000000               0.000000000               0.000000000               0.000000000              -0.002856996               0.001135454              -0.000914658              -0.001213303               0.000782913              -0.000430390               0.000000000               0.000000000               0.000000000               0.000000000              -0.002085548               0.001807570              -0.000894333              -0.001008025               0.000938525              -0.000069500               0.000000000               0.000000000               0.000000000               0.000000000              -0.001469236               0.002390529              -0.000847703              -0.000849778               0.001080094               0.000230316               0.000000000               0.000000000               0.000000000               0.000000000              -0.000926458               0.002897334              -0.000790500              -0.000709587               0.001202297               0.000492710               0.000000000               0.000000000               0.000000000               0.000000000              -0.000415033               0.003331410              -0.000730772              -0.000572063               0.001301146               0.000729084               0.000000000               0.000000000               0.000000000               0.000000000               0.000085335               0.003695324              -0.000676896              -0.000429914               0.001375067               0.000945153               0.000000000               0.000000000               0.000000000               0.000000000               0.000593467               0.004007835              -0.000629394              -0.000278429               0.001428741               0.001150312               0.000000000               0.000000000               0.000000000               0.000000000               0.001121208               0.004284351              -0.000582209              -0.000115091               0.001466466               0.001351375               0.000000000               0.000000000               0.000000000               0.000000000               0.001684143               0.004520911              -0.000522696               0.000066439               0.001484809               0.001551248               0.000000000               0.000000000               0.000000000               0.000000000               0.002299039               0.004705707              -0.000441763               0.000273923               0.001477245               0.001751169               0.000000000               0.000000000               0.000000000               0.000000000               0.002982448               0.004843304              -0.000334191               0.000513000               0.001443419               0.001956419               0.000000000               0.000000000               0.000000000               0.000000000               0.003751683               0.004937065              -0.000187667               0.000789740               0.001382425               0.002172165               0.000000000               0.000000000               0.000000000               0.000000000               0.004324932               0.005030087              -0.000114185               0.000993079               0.001345653               0.002338731               0.000000000               0.000000000               0.000000000               0.000000000              -0.013167834              -0.001238204              -0.000000000              -0.004783159               0.001181644              -0.003601516               0.000000000               0.000000000               0.000000000               0.000000000              -0.009009530              -0.000776539              -0.000000000              -0.003281504               0.000834983              -0.002446521               0.000000000               0.000000000               0.000000000               0.000000000              -0.005704763              -0.000582359               0.000000000              -0.002066490               0.000494707              -0.001571783               0.000000000               0.000000000               0.000000000               0.000000000              -0.003899324               0.000099793              -0.000000000              -0.001474719               0.000524834              -0.000949886               0.000000000               0.000000000               0.000000000               0.000000000              -0.002780429               0.000841319               0.000000000              -0.001147824               0.000663043              -0.000484781               0.000000000               0.000000000               0.000000000               0.000000000              -0.001990774               0.001529228               0.000000000              -0.000937692               0.000822301              -0.000115391               0.000000000               0.000000000               0.000000000               0.000000000              -0.001365619               0.002138160               0.000000000              -0.000779375               0.000972505               0.000193129               0.000000000               0.000000000               0.000000000               0.000000000              -0.000822717               0.002670280               0.000000000              -0.000642302               0.001104185               0.000461883               0.000000000               0.000000000               0.000000000               0.000000000              -0.000311591               0.003131378              -0.000000000              -0.000508268               0.001213205               0.000704937               0.000000000               0.000000000               0.000000000               0.000000000               0.000191280               0.003528346               0.000000000              -0.000369312               0.001299208               0.000929895               0.000000000               0.000000000               0.000000000               0.000000000               0.000699022               0.003878815               0.000000000              -0.000222718               0.001367165               0.001144447               0.000000000               0.000000000               0.000000000               0.000000000               0.001229301               0.004194650              -0.000000000              -0.000063344               0.001419317               0.001355974               0.000000000               0.000000000               0.000000000               0.000000000               0.001797379               0.004465177              -0.000000000               0.000115869               0.001449754               0.001565623               0.000000000               0.000000000               0.000000000               0.000000000               0.002429376               0.004678924              -0.000000000               0.000326147               0.001450910               0.001777057               0.000000000               0.000000000               0.000000000               0.000000000               0.003152552               0.004837122              -0.000000000               0.000577561               0.001419837               0.001997399               0.000000000               0.000000000               0.000000000               0.000000000               0.003992206               0.004936595              -0.000000000               0.000879994               0.001352184               0.002232178               0.000000000               0.000000000               0.000000000               0.000000000               0.004638200               0.005037382               0.000000000               0.001109641               0.001309230               0.002418871               0.000000000               0.000000000               0.000000000               0.000000000               0.000000000               0.000000000               0.000000000               0.000000000               0.000000000               0.000000000               0.000000000               0.000000000               0.000000000               0.000000000               0.000000000               0.000000000               0.000000000               0.000000000               0.000000000               0.000000000               0.000000000               0.000000000               0.000000000               0.000000000               0.000000000               0.000000000               0.000000000               0.000000000               0.000000000               0.000000000               0.000000000               0.000000000               0.000000000               0.000000000               0.000000000               0.000000000               0.000000000               0.000000000               0.000000000               0.000000000               0.000000000               0.000000000               0.000000000               0.000000000               0.000000000               0.000000000               0.000000000               0.000000000               0.000000000               0.000000000               0.000000000               0.000000000               0.000000000               0.000000000               0.000000000               0.000000000               0.000000000               0.000000000               0.000000000               0.000000000               0.000000000               0.000000000               0.000000000               0.000000000               0.000000000               0.000000000               0.000000000               0.000000000               0.000000000               0.000000000               0.000000000               0.000000000               0.000000000               0.000000000               0.000000000               0.000000000               0.000000000               0.000000000               0.000000000               0.000000000               0.000000000               0.000000000               0.000000000               0.000000000               0.000000000               0.000000000               0.000000000               0.000000000               0.000000000               0.000000000               0.000000000               0.000000000               0.000000000               0.000000000               0.000000000               0.000000000               0.000000000               0.000000000               0.000000000               0.000000000               0.000000000               0.000000000               0.000000000               0.000000000               0.000000000               0.000000000               0.000000000               0.000000000               0.000000000               0.000000000               0.000000000               0.000000000               0.000000000               0.000000000               0.000000000               0.000000000               0.000000000               0.000000000               0.000000000               0.000000000               0.000000000               0.000000000               0.000000000               0.000000000               0.000000000               0.000000000               0.000000000               0.000000000               0.000000000               0.000000000               0.000000000               0.000000000               0.000000000               0.000000000               0.000000000               0.000000000               0.000000000               0.000000000               0.000000000               0.000000000               0.000000000               0.000000000               0.000000000               0.000000000               0.000000000               0.000000000               0.000000000               0.000000000               0.000000000               0.000000000               0.000000000               0.000000000               0.000000000               0.000000000               0.000000000               0.000000000               0.000000000               0.000000000               0.000000000               0.000000000               0.000000000               0.000000000               0.000000000               0.000000000               0.000000000               0.000000000               0.000000000               0.000000000               0.000000000               0.000000000               0.000000000               0.000000000               0.000000000               0.000000000               0.002016553               0.020475708               0.001377458              -0.001803252               0.007426252               0.005623000               0.000000000               0.000000000               0.000000000               0.000000000               0.001799388               0.015741272               0.000613853              -0.001292885               0.005678000               0.004385115               0.000000000               0.000000000               0.000000000               0.000000000               0.002185117               0.011914678              -0.000136690              -0.000669914               0.004194824               0.003524910               0.000000000               0.000000000               0.000000000               0.000000000               0.001935899               0.009729355              -0.000444394              -0.000490206               0.003406488               0.002916282               0.000000000               0.000000000               0.000000000               0.000000000               0.001541123               0.008332120              -0.000565371              -0.000463593               0.002931877               0.002468284               0.000000000               0.000000000               0.000000000               0.000000000               0.001156906               0.007343500              -0.000597708              -0.000484097               0.002609174               0.002125078               0.000000000               0.000000000               0.000000000               0.000000000               0.000829445               0.006573712              -0.000587165              -0.000510671               0.002361439               0.001850768               0.000000000               0.000000000               0.000000000               0.000000000               0.000568230               0.005922738              -0.000559845              -0.000527255               0.002149978               0.001622723               0.000000000               0.000000000               0.000000000               0.000000000               0.000362765               0.005336729              -0.000527116              -0.000531053               0.001955909               0.001424856               0.000000000               0.000000000               0.000000000               0.000000000               0.000200419               0.004785412              -0.000494637              -0.000523018               0.001769461               0.001246442               0.000000000               0.000000000               0.000000000               0.000000000               0.000070850               0.004245827              -0.000461704              -0.000504159               0.001583314               0.001079156               0.000000000               0.000000000               0.000000000               0.000000000              -0.000022919               0.003706800              -0.000424575              -0.000471944               0.001392902               0.000920959               0.000000000               0.000000000               0.000000000               0.000000000              -0.000081680               0.003156171              -0.000380863              -0.000425150               0.001193763               0.000768613               0.000000000               0.000000000               0.000000000               0.000000000              -0.000110825               0.002577906              -0.000325343              -0.000363797               0.000980559               0.000616762               0.000000000               0.000000000               0.000000000               0.000000000              -0.000107841               0.001957202              -0.000250003              -0.000285090               0.000747424               0.000462334               0.000000000               0.000000000               0.000000000               0.000000000              -0.000065243               0.001279698              -0.000142378              -0.000184428               0.000488038               0.000303610               0.000000000               0.000000000               0.000000000               0.000000000              -0.000086445               0.000775650              -0.000089305              -0.000129373               0.000301672               0.000172299               0.000000000               0.000000000               0.000000000               0.000000000               0.002142551               0.019189206               0.002550190              -0.001595191               0.006928068               0.005332877               0.000000000               0.000000000               0.000000000               0.000000000               0.001608269               0.014933879               0.001131622              -0.001263631               0.005399120               0.004135489               0.000000000               0.000000000               0.000000000               0.000000000               0.001657123               0.011600095              -0.000248953              -0.000828589               0.004142856               0.003314267               0.000000000               0.000000000               0.000000000               0.000000000               0.001292644               0.009661785              -0.000792611              -0.000722980               0.003461556               0.002738576               0.000000000               0.000000000               0.000000000               0.000000000               0.000883819               0.008383968              -0.000994183              -0.000716562               0.003033482               0.002316920               0.000000000               0.000000000               0.000000000               0.000000000               0.000531058               0.007449325              -0.001043704              -0.000732018               0.002727089               0.001995072               0.000000000               0.000000000               0.000000000               0.000000000               0.000257754               0.006705762              -0.001020697              -0.000741561               0.002482418               0.001740858               0.000000000               0.000000000               0.000000000               0.000000000               0.000058447               0.006064681              -0.000967286              -0.000736166               0.002266929               0.001530763               0.000000000               0.000000000               0.000000000               0.000000000              -0.000084783               0.005480855              -0.000907634              -0.000716899               0.002065899               0.001349000               0.000000000               0.000000000               0.000000000               0.000000000              -0.000180256               0.004932784              -0.000846277              -0.000684193               0.001872309               0.001188116               0.000000000               0.000000000               0.000000000               0.000000000              -0.000240173               0.004401501              -0.000781772              -0.000640251               0.001680569               0.001040318               0.000000000               0.000000000               0.000000000               0.000000000              -0.000270059               0.003876536              -0.000713523              -0.000585838               0.001487445               0.000901607               0.000000000               0.000000000               0.000000000               0.000000000              -0.000266889               0.003354134              -0.000632865              -0.000519349               0.001291150               0.000771801               0.000000000               0.000000000               0.000000000               0.000000000              -0.000236124               0.002822180              -0.000530371              -0.000441318               0.001087823               0.000646505               0.000000000               0.000000000               0.000000000               0.000000000              -0.000177023               0.002277455              -0.000396630              -0.000351065               0.000876166               0.000525101               0.000000000               0.000000000               0.000000000               0.000000000              -0.000092146               0.001726214              -0.000220633              -0.000250331               0.000658843               0.000408512               0.000000000               0.000000000               0.000000000               0.000000000              -0.000085711               0.001343929              -0.000136909              -0.000200132               0.000514682               0.000314550               0.000000000               0.000000000               0.000000000               0.000000000               0.002236019               0.017239311               0.003354840              -0.001316405               0.006185181               0.004868775               0.000000000               0.000000000               0.000000000               0.000000000               0.001264811               0.013726083               0.001486641              -0.001241454               0.004989133               0.003747679               0.000000000               0.000000000               0.000000000               0.000000000               0.000850891               0.011131395              -0.000301659              -0.001072338               0.004067874               0.002995536               0.000000000               0.000000000               0.000000000               0.000000000               0.000356352               0.009543142              -0.000962568              -0.001059258               0.003534102               0.002474843               0.000000000               0.000000000               0.000000000               0.000000000              -0.000037105               0.008426792              -0.001191162              -0.001067261               0.003164656               0.002097395               0.000000000               0.000000000               0.000000000               0.000000000              -0.000315479               0.007563648              -0.001238681              -0.001063758               0.002875777               0.001812018               0.000000000               0.000000000               0.000000000               0.000000000              -0.000499375               0.006844366              -0.001201486              -0.001042809               0.002629036               0.001586226               0.000000000               0.000000000               0.000000000               0.000000000              -0.000604644               0.006210562              -0.001128436              -0.001003060               0.002404520               0.001401460               0.000000000               0.000000000               0.000000000               0.000000000              -0.000650230               0.005634621              -0.001050269              -0.000948162               0.002194242               0.001246080               0.000000000               0.000000000               0.000000000               0.000000000              -0.000651131               0.005097044              -0.000972474              -0.000881303               0.001992765               0.001111462               0.000000000               0.000000000               0.000000000               0.000000000              -0.000618270               0.004583137              -0.000889301              -0.000804742               0.001795944               0.000991202               0.000000000               0.000000000               0.000000000               0.000000000              -0.000556965               0.004085391              -0.000801933              -0.000719534               0.001601628               0.000882094               0.000000000               0.000000000               0.000000000               0.000000000              -0.000468705               0.003601611              -0.000701307              -0.000625965               0.001409180               0.000783215               0.000000000               0.000000000               0.000000000               0.000000000              -0.000356970               0.003136897              -0.000574070              -0.000525975               0.001220947               0.000694972               0.000000000               0.000000000               0.000000000               0.000000000              -0.000231359               0.002700563              -0.000416798              -0.000424329               0.001041621               0.000617292               0.000000000               0.000000000               0.000000000               0.000000000              -0.000109671               0.002311777              -0.000225158              -0.000330098               0.000880617               0.000550519               0.000000000               0.000000000               0.000000000               0.000000000              -0.000077147               0.002074671              -0.000133063              -0.000288263               0.000787638               0.000499375               0.000000000               0.000000000               0.000000000               0.000000000               0.002163460               0.014854298               0.003722126              -0.001045490               0.005299879               0.004254389               0.000000000               0.000000000               0.000000000               0.000000000               0.000745366               0.012281216               0.001667030              -0.001255638               0.004512243               0.003256606               0.000000000               0.000000000               0.000000000               0.000000000              -0.000140347               0.010562336              -0.000266564              -0.001372919               0.003978383               0.002605464               0.000000000               0.000000000               0.000000000               0.000000000              -0.000708801               0.009351615              -0.000926786              -0.001434749               0.003595424               0.002160675               0.000000000               0.000000000               0.000000000               0.000000000              -0.001032869               0.008401062              -0.001133366              -0.001437455               0.003279477               0.001842022               0.000000000               0.000000000               0.000000000               0.000000000              -0.001194167               0.007605531              -0.001167099              -0.001398501               0.003001318               0.001602818               0.000000000               0.000000000               0.000000000               0.000000000              -0.001250024               0.006914528              -0.001122185              -0.001333072               0.002749177               0.001416105               0.000000000               0.000000000               0.000000000               0.000000000              -0.001230093               0.006299864              -0.001045244              -0.001248765               0.002516189               0.001267423               0.000000000               0.000000000               0.000000000               0.000000000              -0.001154711               0.005742620              -0.000965782              -0.001150841               0.002297801               0.001146960               0.000000000               0.000000000               0.000000000               0.000000000              -0.001043623               0.005222448              -0.000885935              -0.001044162               0.002088852               0.001044690               0.000000000               0.000000000               0.000000000               0.000000000              -0.000905324               0.004731930              -0.000802101              -0.000930986               0.001887623               0.000956637               0.000000000               0.000000000               0.000000000               0.000000000              -0.000744878               0.004270339              -0.000712984              -0.000813120               0.001694472               0.000881352               0.000000000               0.000000000               0.000000000               0.000000000              -0.000569077               0.003842704              -0.000609983              -0.000693740               0.001512135               0.000818395               0.000000000               0.000000000               0.000000000               0.000000000              -0.000389241               0.003461310              -0.000483922              -0.000578628               0.001346634               0.000768007               0.000000000               0.000000000               0.000000000               0.000000000              -0.000224778               0.003144456              -0.000333753              -0.000477348               0.001207257               0.000729910               0.000000000               0.000000000               0.000000000               0.000000000              -0.000097344               0.002909550              -0.000170106              -0.000400197               0.001103239               0.000703043               0.000000000               0.000000000               0.000000000               0.000000000              -0.000052948               0.002800298              -0.000091951              -0.000369892               0.001056721               0.000686829               0.000000000               0.000000000               0.000000000               0.000000000               0.001819650               0.012292916               0.003656906              -0.000854247               0.004382346               0.003528099               0.000000000               0.000000000               0.000000000               0.000000000               0.000056305               0.010760893               0.001694252              -0.001323995               0.004028260               0.002704265               0.000000000               0.000000000               0.000000000               0.000000000              -0.001206327               0.009933926              -0.000124519              -0.001694109               0.003875978               0.002181869               0.000000000               0.000000000               0.000000000               0.000000000              -0.001754312               0.009067654              -0.000695161              -0.001791319               0.003619628               0.001828308               0.000000000               0.000000000               0.000000000               0.000000000              -0.001941091               0.008261027              -0.000859192              -0.001760533               0.003340492               0.001579959               0.000000000               0.000000000               0.000000000               0.000000000              -0.001941456               0.007529319              -0.000886831              -0.001669207               0.003066150               0.001396943               0.000000000               0.000000000               0.000000000               0.000000000              -0.001842600               0.006880846              -0.000852288              -0.001551077               0.002810618               0.001259541               0.000000000               0.000000000               0.000000000               0.000000000              -0.001680746               0.006300318              -0.000788859              -0.001417816               0.002572690               0.001154874               0.000000000               0.000000000               0.000000000               0.000000000              -0.001480433               0.005767070              -0.000722676              -0.001276043               0.002347685               0.001071642               0.000000000               0.000000000               0.000000000               0.000000000              -0.001254936               0.005272290              -0.000656769              -0.001129635               0.002133957               0.001004323               0.000000000               0.000000000               0.000000000               0.000000000              -0.001012716               0.004814602              -0.000586756              -0.000981592               0.001932048               0.000950457               0.000000000               0.000000000               0.000000000               0.000000000              -0.000767466               0.004402008              -0.000509200              -0.000838049               0.001746671               0.000908622               0.000000000               0.000000000               0.000000000               0.000000000              -0.000533989               0.004044225              -0.000417008              -0.000705772               0.001583319               0.000877546               0.000000000               0.000000000               0.000000000               0.000000000              -0.000324100               0.003752987              -0.000308501              -0.000590659               0.001447870               0.000857210               0.000000000               0.000000000               0.000000000               0.000000000              -0.000158629               0.003540110              -0.000191560              -0.000501998               0.001347358               0.000845359               0.000000000               0.000000000               0.000000000               0.000000000              -0.000056743               0.003416923              -0.000085331              -0.000448393               0.001288427               0.000840034               0.000000000               0.000000000               0.000000000               0.000000000              -0.000022866               0.003382418              -0.000039109              -0.000431376               0.001271253               0.000839877               0.000000000               0.000000000               0.000000000               0.000000000               0.001140663               0.009779472               0.003232757              -0.000794686               0.003524686               0.002730000               0.000000000               0.000000000               0.000000000               0.000000000              -0.000771391               0.009282977               0.001621647              -0.001449641               0.003577508               0.002127867               0.000000000               0.000000000               0.000000000               0.000000000              -0.002232081               0.009271917               0.000135427              -0.001996015               0.003755946               0.001759932               0.000000000               0.000000000               0.000000000               0.000000000              -0.002640378               0.008691912              -0.000308760              -0.002076626               0.003589484               0.001512858               0.000000000               0.000000000               0.000000000               0.000000000              -0.002637684               0.008004898              -0.000442162              -0.001989739               0.003331519               0.001341780               0.000000000               0.000000000               0.000000000               0.000000000              -0.002458971               0.007341694              -0.000482871              -0.001839821               0.003060481               0.001220659               0.000000000               0.000000000               0.000000000               0.000000000              -0.002196826               0.006746165              -0.000480286              -0.001667076               0.002804391               0.001137315               0.000000000               0.000000000               0.000000000               0.000000000              -0.001892636               0.006204273              -0.000447044              -0.001485269               0.002563160               0.001077891               0.000000000               0.000000000               0.000000000               0.000000000              -0.001576528               0.005701451              -0.000410413              -0.001303876               0.002335090               0.001031214               0.000000000               0.000000000               0.000000000               0.000000000              -0.001254517               0.005242611              -0.000371489              -0.001125767               0.002122775               0.000997008               0.000000000               0.000000000               0.000000000               0.000000000              -0.000939337               0.004833695              -0.000326926              -0.000956461               0.001930036               0.000973575               0.000000000               0.000000000               0.000000000               0.000000000              -0.000644506               0.004491481              -0.000274422              -0.000803123               0.001764853               0.000961730               0.000000000               0.000000000               0.000000000               0.000000000              -0.000389720               0.004218904              -0.000209558              -0.000673506               0.001630789               0.000957283               0.000000000               0.000000000               0.000000000               0.000000000              -0.000192054               0.004021553              -0.000133935              -0.000574713               0.001532075               0.000957362               0.000000000               0.000000000               0.000000000               0.000000000              -0.000063205               0.003902138              -0.000063361              -0.000511468               0.001471189               0.000959721               0.000000000               0.000000000               0.000000000               0.000000000              -0.000007094               0.003859586              -0.000017506              -0.000485107               0.001448218               0.000963111               0.000000000               0.000000000               0.000000000               0.000000000               0.000005566               0.003865967              -0.000000852              -0.000481157               0.001449029               0.000967871               0.000000000               0.000000000               0.000000000               0.000000000               0.000154477               0.007462560               0.002562583              -0.000874891               0.002779124               0.001904234               0.000000000               0.000000000               0.000000000               0.000000000              -0.001685723               0.007932648               0.001503775              -0.001623724               0.003185431               0.001561707               0.000000000               0.000000000               0.000000000               0.000000000              -0.003111982               0.008585797               0.000501181              -0.002240212               0.003608641               0.001368429               0.000000000               0.000000000               0.000000000               0.000000000              -0.003282202               0.008223181               0.000170216              -0.002258718               0.003493939               0.001235221               0.000000000               0.000000000               0.000000000               0.000000000              -0.003059174               0.007649178               0.000035164              -0.002103332               0.003250811               0.001147479               0.000000000               0.000000000               0.000000000               0.000000000              -0.002703924               0.007073085              -0.000038202              -0.001898102               0.002990372               0.001092270               0.000000000               0.000000000               0.000000000               0.000000000              -0.002296243               0.006532271              -0.000083646              -0.001677621               0.002736609               0.001058988               0.000000000               0.000000000               0.000000000               0.000000000              -0.001867926               0.006030250              -0.000098111              -0.001454250               0.002494813               0.001040563               0.000000000               0.000000000               0.000000000               0.000000000              -0.001453182               0.005570963              -0.000103301              -0.001241311               0.002270739               0.001029429               0.000000000               0.000000000               0.000000000               0.000000000              -0.001063317               0.005165489              -0.000102468              -0.001044427               0.002069955               0.001025528               0.000000000               0.000000000               0.000000000               0.000000000              -0.000705964               0.004827212              -0.000095729              -0.000868136               0.001898433               0.001030297               0.000000000               0.000000000               0.000000000               0.000000000              -0.000398359               0.004567333              -0.000083489              -0.000720300               0.001762529               0.001042229               0.000000000               0.000000000               0.000000000               0.000000000              -0.000162740               0.004388483              -0.000057284              -0.000609586               0.001666009               0.001056422               0.000000000               0.000000000               0.000000000               0.000000000              -0.000009810               0.004291498              -0.000023115              -0.000540115               0.001610523               0.001070409               0.000000000               0.000000000               0.000000000               0.000000000               0.000062224               0.004273033               0.000004422              -0.000510794               0.001594595               0.001083801               0.000000000               0.000000000               0.000000000               0.000000000               0.000057624               0.004310326               0.000012235              -0.000517180               0.001609155               0.001091974               0.000000000               0.000000000               0.000000000               0.000000000               0.000042414               0.004356946               0.000014770              -0.000528712               0.001628538               0.001099826               0.000000000               0.000000000               0.000000000               0.000000000              -0.001013267               0.005511743               0.001754680              -0.001068941               0.002193542               0.001124601               0.000000000               0.000000000               0.000000000               0.000000000              -0.002585483               0.006730218               0.001378656              -0.001810829               0.002846993               0.001036164               0.000000000               0.000000000               0.000000000               0.000000000              -0.003803716               0.007897187               0.000942888              -0.002413536               0.003436881               0.001023345               0.000000000               0.000000000               0.000000000               0.000000000              -0.003723415               0.007764543               0.000682544              -0.002366843               0.003377103               0.001010260               0.000000000               0.000000000               0.000000000               0.000000000              -0.003308986               0.007334539               0.000516662              -0.002157682               0.003164049               0.001006367               0.000000000               0.000000000               0.000000000               0.000000000              -0.002805907               0.006860354               0.000399136              -0.001909755               0.002923347               0.001013592               0.000000000               0.000000000               0.000000000               0.000000000              -0.002283828               0.006388820               0.000302833              -0.001655034               0.002681263               0.001026229               0.000000000               0.000000000               0.000000000               0.000000000              -0.001763757               0.005934589               0.000228579              -0.001403229               0.002445919               0.001042690               0.000000000               0.000000000               0.000000000               0.000000000              -0.001273088               0.005524296               0.000174032              -0.001167942               0.002230728               0.001062786               0.000000000               0.000000000               0.000000000               0.000000000              -0.000828869               0.005168082               0.000130382              -0.000956834               0.002041621               0.001084788               0.000000000               0.000000000               0.000000000               0.000000000              -0.000443974               0.004882753               0.000090697              -0.000776832               0.001886512               0.001109680               0.000000000               0.000000000               0.000000000               0.000000000              -0.000139283               0.004677156               0.000053674              -0.000636874               0.001771328               0.001134454               0.000000000               0.000000000               0.000000000               0.000000000               0.000076970               0.004557152               0.000030325              -0.000540779               0.001699295               0.001158516               0.000000000               0.000000000               0.000000000               0.000000000               0.000200232               0.004525259               0.000018571              -0.000490569               0.001671927               0.001181359               0.000000000               0.000000000               0.000000000               0.000000000               0.000240611               0.004573900               0.000013572              -0.000481507               0.001685120               0.001203613               0.000000000               0.000000000               0.000000000               0.000000000               0.000218748               0.004677975               0.000009895              -0.000502715               0.001726881               0.001224166               0.000000000               0.000000000               0.000000000               0.000000000               0.000188840               0.004749515               0.000008128              -0.000522873               0.001757447               0.001234574               0.000000000               0.000000000               0.000000000               0.000000000              -0.002367182               0.003707703               0.000907557              -0.001351153               0.001686273               0.000335120               0.000000000               0.000000000               0.000000000               0.000000000              -0.003351509               0.005338719               0.001243401              -0.001924151               0.002420939               0.000496788               0.000000000               0.000000000               0.000000000               0.000000000              -0.004229651               0.006883338               0.001407298              -0.002446531               0.003109933               0.000663402               0.000000000               0.000000000               0.000000000               0.000000000              -0.004004998               0.007103507               0.001227848              -0.002389807               0.003164414               0.000774607               0.000000000               0.000000000               0.000000000               0.000000000              -0.003511277               0.006918721               0.001034911              -0.002181564               0.003033405               0.000851841               0.000000000               0.000000000               0.000000000               0.000000000              -0.002955155               0.006622248               0.000868701              -0.001935959               0.002852713               0.000916754               0.000000000               0.000000000               0.000000000               0.000000000              -0.002396748               0.006297245               0.000722877              -0.001685932               0.002661038               0.000975106               0.000000000               0.000000000               0.000000000               0.000000000              -0.001851667               0.005959817               0.000595511              -0.001439349               0.002466369               0.001027020               0.000000000               0.000000000               0.000000000               0.000000000              -0.001331374               0.005634443               0.000491389              -0.001203568               0.002279318               0.001075750               0.000000000               0.000000000               0.000000000               0.000000000              -0.000856719               0.005337805               0.000399649              -0.000988493               0.002108748               0.001120255               0.000000000               0.000000000               0.000000000               0.000000000              -0.000437310               0.005088660               0.000308997              -0.000800072               0.001962894               0.001162822               0.000000000               0.000000000               0.000000000               0.000000000              -0.000091542               0.004898312               0.000223603              -0.000646616               0.001848293               0.001201677               0.000000000               0.000000000               0.000000000               0.000000000               0.000170456               0.004778656               0.000147730              -0.000533410               0.001770673               0.001237263               0.000000000               0.000000000               0.000000000               0.000000000               0.000343984               0.004732320               0.000082571              -0.000462545               0.001731606               0.001269061               0.000000000               0.000000000               0.000000000               0.000000000               0.000438450               0.004761414               0.000036936              -0.000430757               0.001730708               0.001299951               0.000000000               0.000000000               0.000000000               0.000000000               0.000473198               0.004860831               0.000012590              -0.000430154               0.001763646               0.001333492               0.000000000               0.000000000               0.000000000               0.000000000               0.000465678               0.004922620               0.000002018              -0.000440697               0.001787756               0.001347059               0.000000000               0.000000000               0.000000000               0.000000000              -0.004076106               0.002076452               0.000092023              -0.001788093               0.001288173              -0.000499920               0.000000000               0.000000000               0.000000000               0.000000000              -0.004206598               0.003938114               0.001054179              -0.002069734               0.002002602              -0.000067132               0.000000000               0.000000000               0.000000000               0.000000000              -0.004575445               0.005680683               0.001783838              -0.002425872               0.002702165               0.000276294               0.000000000               0.000000000               0.000000000               0.000000000              -0.004215864               0.006234247               0.001752991              -0.002360224               0.002864803               0.000504578               0.000000000               0.000000000               0.000000000               0.000000000              -0.003678167               0.006333192               0.001563386              -0.002170957               0.002834695               0.000663738               0.000000000               0.000000000               0.000000000               0.000000000              -0.003105935               0.006253346               0.001365770              -0.001946389               0.002733224               0.000786835               0.000000000               0.000000000               0.000000000               0.000000000              -0.002531717               0.006096529               0.001184478              -0.001711456               0.002602641               0.000891185               0.000000000               0.000000000               0.000000000               0.000000000              -0.001973169               0.005895718               0.001019006              -0.001476900               0.002457519               0.000980620               0.000000000               0.000000000               0.000000000               0.000000000              -0.001437245               0.005681184               0.000869890              -0.001249112               0.002310080               0.001060968               0.000000000               0.000000000               0.000000000               0.000000000              -0.000940608               0.005464736               0.000733321              -0.001035818               0.002166833               0.001131015               0.000000000               0.000000000               0.000000000               0.000000000              -0.000482785               0.005261090               0.000602962              -0.000838678               0.002033238               0.001194560               0.000000000               0.000000000               0.000000000               0.000000000              -0.000076330               0.005082695               0.000475141              -0.000663959               0.001915534               0.001251575               0.000000000               0.000000000               0.000000000               0.000000000               0.000262548               0.004949444               0.000348841              -0.000520224               0.001823206               0.001302982               0.000000000               0.000000000               0.000000000               0.000000000               0.000518930               0.004870118               0.000227367              -0.000414165               0.001761411               0.001347246               0.000000000               0.000000000               0.000000000               0.000000000               0.000689383               0.004855491               0.000124511              -0.000348417               0.001734620               0.001386203               0.000000000               0.000000000               0.000000000               0.000000000               0.000781006               0.004907082               0.000048523              -0.000320507               0.001742513               0.001422006               0.000000000               0.000000000               0.000000000               0.000000000               0.000798984               0.004941129               0.000016015              -0.000318021               0.001753034               0.001435012               0.000000000               0.000000000               0.000000000               0.000000000              -0.006015076               0.000752385              -0.000616096              -0.002349699               0.001034021              -0.001315678               0.000000000               0.000000000               0.000000000               0.000000000              -0.005185958               0.002609911               0.000801514              -0.002270969               0.001626949              -0.000644020               0.000000000               0.000000000               0.000000000               0.000000000              -0.004860581               0.004294272               0.001971831              -0.002359497               0.002217907              -0.000141590               0.000000000               0.000000000               0.000000000               0.000000000              -0.004297051               0.005082346               0.002119624              -0.002246682               0.002442992               0.000196309               0.000000000               0.000000000               0.000000000               0.000000000              -0.003698654               0.005444621               0.001983510              -0.002067568               0.002504044               0.000436476               0.000000000               0.000000000               0.000000000               0.000000000              -0.003107707               0.005593456               0.001792195              -0.001864568               0.002485989               0.000621421               0.000000000               0.000000000               0.000000000               0.000000000              -0.002530554               0.005621358               0.001600961              -0.001651624               0.002424308               0.000772684               0.000000000               0.000000000               0.000000000               0.000000000              -0.001970992               0.005583937               0.001416151              -0.001437111               0.002340330               0.000903219               0.000000000               0.000000000               0.000000000               0.000000000              -0.001433631               0.005510760               0.001241260              -0.001226454               0.002245720               0.001019265               0.000000000               0.000000000               0.000000000               0.000000000              -0.000922057               0.005405376               0.001079467              -0.001021441               0.002142254               0.001120813               0.000000000               0.000000000               0.000000000               0.000000000              -0.000441480               0.005280428               0.000926223              -0.000825607               0.002035327               0.001209721               0.000000000               0.000000000               0.000000000               0.000000000               0.000008581               0.005151130               0.000775794              -0.000640672               0.001930584               0.001289911               0.000000000               0.000000000               0.000000000               0.000000000               0.000412897               0.005037334               0.000620428              -0.000474829               0.001837371               0.001362542               0.000000000               0.000000000               0.000000000               0.000000000               0.000748779               0.004953112               0.000452796              -0.000338346               0.001763803               0.001425457               0.000000000               0.000000000               0.000000000               0.000000000               0.000995454               0.004919125               0.000285614              -0.000241595               0.001720223               0.001478629               0.000000000               0.000000000               0.000000000               0.000000000               0.001140480               0.004939560               0.000132292              -0.000189764               0.001709758               0.001519994               0.000000000               0.000000000               0.000000000               0.000000000               0.001178223               0.004956698               0.000059332              -0.000177753               0.001711467               0.001533714               0.000000000               0.000000000               0.000000000               0.000000000              -0.008059937              -0.000190211              -0.001108789              -0.002998698               0.000936155              -0.002062542               0.000000000               0.000000000               0.000000000               0.000000000              -0.006236991               0.001431193               0.000524520              -0.002517768               0.001316311              -0.001201457               0.000000000               0.000000000               0.000000000               0.000000000              -0.005113449               0.002853633               0.001940104              -0.002274244               0.001709280              -0.000564964               0.000000000               0.000000000               0.000000000               0.000000000              -0.004273115               0.003751557               0.002240323              -0.002071359               0.001940958              -0.000130401               0.000000000               0.000000000               0.000000000               0.000000000              -0.003574358               0.004311711               0.002188148              -0.001879344               0.002063670               0.000184326               0.000000000               0.000000000               0.000000000               0.000000000              -0.002952009               0.004664247               0.002037160              -0.001690031               0.002118076               0.000428046               0.000000000               0.000000000               0.000000000               0.000000000              -0.002377832               0.004880898               0.001859507              -0.001501796               0.002127548               0.000625752               0.000000000               0.000000000               0.000000000               0.000000000              -0.001828567               0.005019263               0.001677604              -0.001313118               0.002110776               0.000797658               0.000000000               0.000000000               0.000000000               0.000000000              -0.001296383               0.005097729               0.001505253              -0.001123358               0.002073678               0.000950321               0.000000000               0.000000000               0.000000000               0.000000000              -0.000778133               0.005119691               0.001343117              -0.000931759               0.002017133               0.001085373               0.000000000               0.000000000               0.000000000               0.000000000              -0.000277600               0.005106708               0.001189671              -0.000742437               0.001949698               0.001207261               0.000000000               0.000000000               0.000000000               0.000000000               0.000208865               0.005073737               0.001038977              -0.000555892               0.001876526               0.001320634               0.000000000               0.000000000               0.000000000               0.000000000               0.000664578               0.005024266               0.000872093              -0.000378816               0.001801010               0.001422194               0.000000000               0.000000000               0.000000000               0.000000000               0.001070641               0.004975575               0.000678829              -0.000220456               0.001731994               0.001511537               0.000000000               0.000000000               0.000000000               0.000000000               0.001405469               0.004951662               0.000463801              -0.000091907               0.001681173               0.001589266               0.000000000               0.000000000               0.000000000               0.000000000               0.001643695               0.004964285               0.000237272              -0.000004150               0.001656129               0.001651978               0.000000000               0.000000000               0.000000000               0.000000000               0.001739886               0.004981518               0.000124547               0.000029767               0.001650567               0.001680334               0.000000000               0.000000000               0.000000000               0.000000000              -0.010031369              -0.000779683              -0.001287847              -0.003664300               0.000961532              -0.002702768               0.000000000               0.000000000               0.000000000               0.000000000              -0.007279664               0.000470387               0.000277769              -0.002788670               0.001086344              -0.001702325               0.000000000               0.000000000               0.000000000               0.000000000              -0.005340751               0.001502078               0.001683959              -0.002190539               0.001230863              -0.000959676               0.000000000               0.000000000               0.000000000               0.000000000              -0.004175009               0.002392014               0.002065112              -0.001864627               0.001418870              -0.000445757               0.000000000               0.000000000               0.000000000               0.000000000              -0.003339906               0.003071939               0.002089437              -0.001636454               0.001569453              -0.000067001               0.000000000               0.000000000               0.000000000               0.000000000              -0.002669645               0.003583250               0.001991402              -0.001449020               0.001677410               0.000228390               0.000000000               0.000000000               0.000000000               0.000000000              -0.002089764               0.003971469               0.001848394              -0.001280093               0.001750507               0.000470414               0.000000000               0.000000000               0.000000000               0.000000000              -0.001547565               0.004275037               0.001694306              -0.001114714               0.001796569               0.000681854               0.000000000               0.000000000               0.000000000               0.000000000              -0.001025630               0.004498686               0.001546635              -0.000946945               0.001815195               0.000868250               0.000000000               0.000000000               0.000000000               0.000000000              -0.000514128               0.004652722               0.001407044              -0.000774387               0.001809020               0.001034633               0.000000000               0.000000000               0.000000000               0.000000000              -0.000003169               0.004763054               0.001276511              -0.000596569               0.001786525               0.001189956               0.000000000               0.000000000               0.000000000               0.000000000               0.000507661               0.004841605               0.001145839              -0.000414827               0.001752128               0.001337300               0.000000000               0.000000000               0.000000000               0.000000000               0.001011142               0.004890726               0.000991388              -0.000232162               0.001707613               0.001475450               0.000000000               0.000000000               0.000000000               0.000000000               0.001495054               0.004918969               0.000801043              -0.000054227               0.001657715               0.001603489               0.000000000               0.000000000               0.000000000               0.000000000               0.001947015               0.004940901               0.000574361               0.000112517               0.001609445               0.001721962               0.000000000               0.000000000               0.000000000               0.000000000               0.002340729               0.004968463               0.000308412               0.000256713               0.001570567               0.001827280               0.000000000               0.000000000               0.000000000               0.000000000               0.002563057               0.005001540               0.000174073               0.000335950               0.001555180               0.001891130               0.000000000               0.000000000               0.000000000               0.000000000              -0.011683390              -0.001088264              -0.001120991              -0.004245236               0.001052316              -0.003192919               0.000000000               0.000000000               0.000000000               0.000000000              -0.008181085              -0.000227502               0.000106020              -0.003039467               0.000937315              -0.002102152               0.000000000               0.000000000               0.000000000               0.000000000              -0.005530784               0.000394490               0.001235317              -0.002123353               0.000839275              -0.001284078               0.000000000               0.000000000               0.000000000               0.000000000              -0.004047153               0.001203087               0.001587693              -0.001668066               0.000957044              -0.000711022               0.000000000               0.000000000               0.000000000               0.000000000              -0.003069711               0.001935165               0.001650997              -0.001393035               0.001109392              -0.000283643               0.000000000               0.000000000               0.000000000               0.000000000              -0.002343287               0.002553882               0.001600456              -0.001197965               0.001250606               0.000052641               0.000000000               0.000000000               0.000000000               0.000000000              -0.001744684               0.003068481               0.001504906              -0.001037815               0.001368754               0.000330940               0.000000000               0.000000000               0.000000000               0.000000000              -0.001203169               0.003496817               0.001394487              -0.000888289               0.001461690               0.000573401               0.000000000               0.000000000               0.000000000               0.000000000              -0.000689807               0.003845703               0.001285143              -0.000739389               0.001528351               0.000788962               0.000000000               0.000000000               0.000000000               0.000000000              -0.000187148               0.004123172               0.001183316              -0.000585576               0.001569569               0.000983992               0.000000000               0.000000000               0.000000000               0.000000000               0.000323765               0.004348736               0.001091021              -0.000422180               0.001590291               0.001168111               0.000000000               0.000000000               0.000000000               0.000000000               0.000847762               0.004536745               0.000997948              -0.000249182               0.001595294               0.001346111               0.000000000               0.000000000               0.000000000               0.000000000               0.001390008               0.004690406               0.000881044              -0.000065048               0.001585136               0.001520087               0.000000000               0.000000000               0.000000000               0.000000000               0.001951439               0.004805943               0.000730874               0.000131045               0.001558283               0.001689328               0.000000000               0.000000000               0.000000000               0.000000000               0.002532937               0.004891686               0.000540151               0.000338387               0.001517750               0.001856137               0.000000000               0.000000000               0.000000000               0.000000000               0.003125460               0.004954313               0.000296758               0.000552753               0.001467170               0.002019923               0.000000000               0.000000000               0.000000000               0.000000000               0.003527689               0.005018001               0.000175622               0.000695626               0.001440775               0.002136401               0.000000000               0.000000000               0.000000000               0.000000000              -0.012782136              -0.001208827              -0.000650098              -0.004642195               0.001144448              -0.003497747               0.000000000               0.000000000               0.000000000               0.000000000              -0.008793374              -0.000640722               0.000022860              -0.003217423               0.000858894              -0.002358529               0.000000000               0.000000000               0.000000000               0.000000000              -0.005660101              -0.000332874               0.000652395              -0.002080927               0.000582680              -0.001498247               0.000000000               0.000000000               0.000000000               0.000000000              -0.003940889               0.000387768               0.000865505              -0.001526303               0.000638019              -0.000888284               0.000000000               0.000000000               0.000000000               0.000000000              -0.002856996               0.001135454               0.000914658              -0.001213303               0.000782913              -0.000430390               0.000000000               0.000000000               0.000000000               0.000000000              -0.002085548               0.001807570               0.000894333              -0.001008025               0.000938525              -0.000069500               0.000000000               0.000000000               0.000000000               0.000000000              -0.001469236               0.002390529               0.000847703              -0.000849778               0.001080094               0.000230316               0.000000000               0.000000000               0.000000000               0.000000000              -0.000926458               0.002897334               0.000790500              -0.000709587               0.001202297               0.000492710               0.000000000               0.000000000               0.000000000               0.000000000              -0.000415033               0.003331410               0.000730772              -0.000572063               0.001301146               0.000729084               0.000000000               0.000000000               0.000000000               0.000000000               0.000085335               0.003695324               0.000676896              -0.000429914               0.001375067               0.000945153               0.000000000               0.000000000               0.000000000               0.000000000               0.000593467               0.004007835               0.000629394              -0.000278429               0.001428741               0.001150312               0.000000000               0.000000000               0.000000000               0.000000000               0.001121208               0.004284351               0.000582209              -0.000115091               0.001466466               0.001351375               0.000000000               0.000000000               0.000000000               0.000000000               0.001684143               0.004520911               0.000522696               0.000066439               0.001484809               0.001551248               0.000000000               0.000000000               0.000000000               0.000000000               0.002299039               0.004705707               0.000441763               0.000273923               0.001477245               0.001751169               0.000000000               0.000000000               0.000000000               0.000000000               0.002982448               0.004843304               0.000334191               0.000513000               0.001443419               0.001956419               0.000000000               0.000000000               0.000000000               0.000000000               0.003751683               0.004937065               0.000187667               0.000789740               0.001382425               0.002172165               0.000000000               0.000000000               0.000000000               0.000000000               0.004324932               0.005030087               0.000114185               0.000993079               0.001345653               0.002338731               0.000000000               0.000000000               0.000000000               0.000000000              -0.013167834              -0.001238204               0.000000000              -0.004783159               0.001181644              -0.003601516               0.000000000               0.000000000               0.000000000               0.000000000              -0.009009530              -0.000776539               0.000000000              -0.003281504               0.000834983              -0.002446521               0.000000000               0.000000000               0.000000000               0.000000000              -0.005704763              -0.000582359              -0.000000000              -0.002066490               0.000494707              -0.001571783               0.000000000               0.000000000               0.000000000               0.000000000              -0.003899324               0.000099793               0.000000000              -0.001474719               0.000524834              -0.000949886               0.000000000               0.000000000               0.000000000               0.000000000              -0.002780429               0.000841319               0.000000000              -0.001147824               0.000663043              -0.000484781               0.000000000               0.000000000               0.000000000               0.000000000              -0.001990774               0.001529228               0.000000000              -0.000937692               0.000822301              -0.000115391               0.000000000               0.000000000               0.000000000               0.000000000              -0.001365619               0.002138160               0.000000000              -0.000779375               0.000972505               0.000193129               0.000000000               0.000000000               0.000000000               0.000000000              -0.000822717               0.002670280               0.000000000              -0.000642302               0.001104185               0.000461883               0.000000000               0.000000000               0.000000000               0.000000000              -0.000311591               0.003131378               0.000000000              -0.000508268               0.001213205               0.000704937               0.000000000               0.000000000               0.000000000               0.000000000               0.000191280               0.003528346               0.000000000              -0.000369312               0.001299208               0.000929895               0.000000000               0.000000000               0.000000000               0.000000000               0.000699022               0.003878815              -0.000000000              -0.000222718               0.001367165               0.001144447               0.000000000               0.000000000               0.000000000               0.000000000               0.001229301               0.004194650              -0.000000000              -0.000063344               0.001419317               0.001355974               0.000000000               0.000000000               0.000000000               0.000000000               0.001797379               0.004465177               0.000000000               0.000115869               0.001449754               0.001565623               0.000000000               0.000000000               0.000000000               0.000000000               0.002429376               0.004678924               0.000000000               0.000326147               0.001450910               0.001777057               0.000000000               0.000000000               0.000000000               0.000000000               0.003152552               0.004837122              -0.000000000               0.000577561               0.001419837               0.001997399               0.000000000               0.000000000               0.000000000               0.000000000               0.003992206               0.004936595              -0.000000000               0.000879994               0.001352184               0.002232178               0.000000000               0.000000000               0.000000000               0.000000000               0.004638200               0.005037382              -0.000000000               0.001109641               0.001309230               0.002418871               0.000000000               0.000000000               0.000000000               0.000000000               0.001963486               0.020926808              -0.000000000              -0.001879539               0.007602046               0.005722507               0.000000000               0.000000000               0.000000000               0.000000000               0.001862776               0.016025189              -0.000000000              -0.001304604               0.005776544               0.004471940               0.000000000               0.000000000               0.000000000               0.000000000               0.002371777               0.012026941               0.000000000              -0.000613950               0.004213590               0.003599640               0.000000000               0.000000000               0.000000000               0.000000000               0.002164928               0.009752914               0.000000000              -0.000407265               0.003386694               0.002979429               0.000000000               0.000000000               0.000000000               0.000000000               0.001777559               0.008307958              -0.000000000              -0.000371909               0.002893261               0.002521352               0.000000000               0.000000000               0.000000000               0.000000000               0.001387839               0.007300246              -0.000000000              -0.000392090               0.002564088               0.002171997               0.000000000               0.000000000               0.000000000               0.000000000               0.001042229               0.006518530               0.000000000              -0.000423979               0.002314148               0.001890169               0.000000000               0.000000000               0.000000000               0.000000000               0.000762247               0.005863389              -0.000000000              -0.000447080               0.002103470               0.001656390               0.000000000               0.000000000               0.000000000               0.000000000               0.000537439               0.005275603              -0.000000000              -0.000457910               0.001911153               0.001453244               0.000000000               0.000000000               0.000000000               0.000000000               0.000345398               0.004721441              -0.000000000              -0.000460655               0.001727350               0.001266695               0.000000000               0.000000000               0.000000000               0.000000000               0.000187820               0.004182074              -0.000000000              -0.000452326               0.001544786               0.001092460               0.000000000               0.000000000               0.000000000               0.000000000               0.000071818               0.003640171               0.000000000              -0.000428089               0.001356074               0.000927986               0.000000000               0.000000000               0.000000000               0.000000000              -0.000010220               0.003077436               0.000000000              -0.000388511               0.001155305               0.000766794               0.000000000               0.000000000               0.000000000               0.000000000              -0.000059525               0.002480138               0.000000000              -0.000332338               0.000937484               0.000605145               0.000000000               0.000000000               0.000000000               0.000000000              -0.000076482               0.001829555              -0.000000000              -0.000257375               0.000695637               0.000438262               0.000000000               0.000000000               0.000000000               0.000000000              -0.000051611               0.001103873              -0.000000000              -0.000157338               0.000420400               0.000263062               0.000000000               0.000000000               0.000000000               0.000000000              -0.000085498               0.000549118              -0.000000000              -0.000100701               0.000216604               0.000115903               0.000000000               0.000000000               0.000000000               0.000000000               0.002016553               0.020475708              -0.001377458              -0.001803252               0.007426252               0.005623000               0.000000000               0.000000000               0.000000000               0.000000000               0.001799388               0.015741272              -0.000613853              -0.001292885               0.005678000               0.004385115               0.000000000               0.000000000               0.000000000               0.000000000               0.002185117               0.011914678               0.000136690              -0.000669914               0.004194824               0.003524910               0.000000000               0.000000000               0.000000000               0.000000000               0.001935899               0.009729355               0.000444394              -0.000490206               0.003406488               0.002916282               0.000000000               0.000000000               0.000000000               0.000000000               0.001541123               0.008332120               0.000565371              -0.000463593               0.002931877               0.002468284               0.000000000               0.000000000               0.000000000               0.000000000               0.001156906               0.007343500               0.000597708              -0.000484097               0.002609174               0.002125078               0.000000000               0.000000000               0.000000000               0.000000000               0.000829445               0.006573712               0.000587165              -0.000510671               0.002361439               0.001850768               0.000000000               0.000000000               0.000000000               0.000000000               0.000568230               0.005922738               0.000559845              -0.000527255               0.002149978               0.001622723               0.000000000               0.000000000               0.000000000               0.000000000               0.000362765               0.005336729               0.000527116              -0.000531053               0.001955909               0.001424856               0.000000000               0.000000000               0.000000000               0.000000000               0.000200419               0.004785412               0.000494637              -0.000523018               0.001769461               0.001246442               0.000000000               0.000000000               0.000000000               0.000000000               0.000070850               0.004245827               0.000461704              -0.000504159               0.001583314               0.001079156               0.000000000               0.000000000               0.000000000               0.000000000              -0.000022919               0.003706800               0.000424575              -0.000471944               0.001392902               0.000920959               0.000000000               0.000000000               0.000000000               0.000000000              -0.000081680               0.003156171               0.000380863              -0.000425150               0.001193763               0.000768613               0.000000000               0.000000000               0.000000000               0.000000000              -0.000110825               0.002577906               0.000325343              -0.000363797               0.000980559               0.000616762               0.000000000               0.000000000               0.000000000               0.000000000              -0.000107841               0.001957202               0.000250003              -0.000285090               0.000747424               0.000462334               0.000000000               0.000000000               0.000000000               0.000000000              -0.000065243               0.001279698               0.000142378              -0.000184428               0.000488038               0.000303610               0.000000000               0.000000000               0.000000000               0.000000000              -0.000086445               0.000775650               0.000089305              -0.000129373               0.000301672               0.000172299               0.000000000               0.000000000               0.000000000               0.000000000               0.002142551               0.019189206              -0.002550190              -0.001595191               0.006928068               0.005332877               0.000000000               0.000000000               0.000000000               0.000000000               0.001608269               0.014933879              -0.001131622              -0.001263631               0.005399120               0.004135489               0.000000000               0.000000000               0.000000000               0.000000000               0.001657123               0.011600095               0.000248953              -0.000828589               0.004142856               0.003314267               0.000000000               0.000000000               0.000000000               0.000000000               0.001292644               0.009661785               0.000792611              -0.000722980               0.003461556               0.002738576               0.000000000               0.000000000               0.000000000               0.000000000               0.000883819               0.008383968               0.000994183              -0.000716562               0.003033482               0.002316920               0.000000000               0.000000000               0.000000000               0.000000000               0.000531058               0.007449325               0.001043704              -0.000732018               0.002727089               0.001995072               0.000000000               0.000000000               0.000000000               0.000000000               0.000257754               0.006705762               0.001020697              -0.000741561               0.002482418               0.001740858               0.000000000               0.000000000               0.000000000               0.000000000               0.000058447               0.006064681               0.000967286              -0.000736166               0.002266929               0.001530763               0.000000000               0.000000000               0.000000000               0.000000000              -0.000084783               0.005480855               0.000907634              -0.000716899               0.002065899               0.001349000               0.000000000               0.000000000               0.000000000               0.000000000              -0.000180256               0.004932784               0.000846277              -0.000684193               0.001872309               0.001188116               0.000000000               0.000000000               0.000000000               0.000000000              -0.000240173               0.004401501               0.000781772              -0.000640251               0.001680569               0.001040318               0.000000000               0.000000000               0.000000000               0.000000000              -0.000270059               0.003876536               0.000713523              -0.000585838               0.001487445               0.000901607               0.000000000               0.000000000               0.000000000               0.000000000              -0.000266889               0.003354134               0.000632865              -0.000519349               0.001291150               0.000771801               0.000000000               0.000000000               0.000000000               0.000000000              -0.000236124               0.002822180               0.000530371              -0.000441318               0.001087823               0.000646505               0.000000000               0.000000000               0.000000000               0.000000000              -0.000177023               0.002277455               0.000396630              -0.000351065               0.000876166               0.000525101               0.000000000               0.000000000               0.000000000               0.000000000              -0.000092146               0.001726214               0.000220633              -0.000250331               0.000658843               0.000408512               0.000000000               0.000000000               0.000000000               0.000000000              -0.000085711               0.001343929               0.000136909              -0.000200132               0.000514682               0.000314550               0.000000000               0.000000000               0.000000000               0.000000000               0.002236019               0.017239311              -0.003354840              -0.001316405               0.006185181               0.004868775               0.000000000               0.000000000               0.000000000               0.000000000               0.001264811               0.013726083              -0.001486641              -0.001241454               0.004989133               0.003747679               0.000000000               0.000000000               0.000000000               0.000000000               0.000850891               0.011131395               0.000301659              -0.001072338               0.004067874               0.002995536               0.000000000               0.000000000               0.000000000               0.000000000               0.000356352               0.009543142               0.000962568              -0.001059258               0.003534102               0.002474843               0.000000000               0.000000000               0.000000000               0.000000000              -0.000037105               0.008426792               0.001191162              -0.001067261               0.003164656               0.002097395               0.000000000               0.000000000               0.000000000               0.000000000              -0.000315479               0.007563648               0.001238681              -0.001063758               0.002875777               0.001812018               0.000000000               0.000000000               0.000000000               0.000000000              -0.000499375               0.006844366               0.001201486              -0.001042809               0.002629036               0.001586226               0.000000000               0.000000000               0.000000000               0.000000000              -0.000604644               0.006210562               0.001128436              -0.001003060               0.002404520               0.001401460               0.000000000               0.000000000               0.000000000               0.000000000              -0.000650230               0.005634621               0.001050269              -0.000948162               0.002194242               0.001246080               0.000000000               0.000000000               0.000000000               0.000000000              -0.000651131               0.005097044               0.000972474              -0.000881303               0.001992765               0.001111462               0.000000000               0.000000000               0.000000000               0.000000000              -0.000618270               0.004583137               0.000889301              -0.000804742               0.001795944               0.000991202               0.000000000               0.000000000               0.000000000               0.000000000              -0.000556965               0.004085391               0.000801933              -0.000719534               0.001601628               0.000882094               0.000000000               0.000000000               0.000000000               0.000000000              -0.000468705               0.003601611               0.000701307              -0.000625965               0.001409180               0.000783215               0.000000000               0.000000000               0.000000000               0.000000000              -0.000356970               0.003136897               0.000574070              -0.000525975               0.001220947               0.000694972               0.000000000               0.000000000               0.000000000               0.000000000              -0.000231359               0.002700563               0.000416798              -0.000424329               0.001041621               0.000617292               0.000000000               0.000000000               0.000000000               0.000000000              -0.000109671               0.002311777               0.000225158              -0.000330098               0.000880617               0.000550519               0.000000000               0.000000000               0.000000000               0.000000000              -0.000077147               0.002074671               0.000133063              -0.000288263               0.000787638               0.000499375               0.000000000               0.000000000               0.000000000               0.000000000               0.002163460               0.014854298              -0.003722126              -0.001045490               0.005299879               0.004254389               0.000000000               0.000000000               0.000000000               0.000000000               0.000745366               0.012281216              -0.001667030              -0.001255638               0.004512243               0.003256606               0.000000000               0.000000000               0.000000000               0.000000000              -0.000140347               0.010562336               0.000266564              -0.001372919               0.003978383               0.002605464               0.000000000               0.000000000               0.000000000               0.000000000              -0.000708801               0.009351615               0.000926786              -0.001434749               0.003595424               0.002160675               0.000000000               0.000000000               0.000000000               0.000000000              -0.001032869               0.008401062               0.001133366              -0.001437455               0.003279477               0.001842022               0.000000000               0.000000000               0.000000000               0.000000000              -0.001194167               0.007605531               0.001167099              -0.001398501               0.003001318               0.001602818               0.000000000               0.000000000               0.000000000               0.000000000              -0.001250024               0.006914528               0.001122185              -0.001333072               0.002749177               0.001416105               0.000000000               0.000000000               0.000000000               0.000000000              -0.001230093               0.006299864               0.001045244              -0.001248765               0.002516189               0.001267423               0.000000000               0.000000000               0.000000000               0.000000000              -0.001154711               0.005742620               0.000965782              -0.001150841               0.002297801               0.001146960               0.000000000               0.000000000               0.000000000               0.000000000              -0.001043623               0.005222448               0.000885935              -0.001044162               0.002088852               0.001044690               0.000000000               0.000000000               0.000000000               0.000000000              -0.000905324               0.004731930               0.000802101              -0.000930986               0.001887623               0.000956637               0.000000000               0.000000000               0.000000000               0.000000000              -0.000744878               0.004270339               0.000712984              -0.000813120               0.001694472               0.000881352               0.000000000               0.000000000               0.000000000               0.000000000              -0.000569077               0.003842704               0.000609983              -0.000693740               0.001512135               0.000818395               0.000000000               0.000000000               0.000000000               0.000000000              -0.000389241               0.003461310               0.000483922              -0.000578628               0.001346634               0.000768007               0.000000000               0.000000000               0.000000000               0.000000000              -0.000224778               0.003144456               0.000333753              -0.000477348               0.001207257               0.000729910               0.000000000               0.000000000               0.000000000               0.000000000              -0.000097344               0.002909550               0.000170106              -0.000400197               0.001103239               0.000703043               0.000000000               0.000000000               0.000000000               0.000000000              -0.000052948               0.002800298               0.000091951              -0.000369892               0.001056721               0.000686829               0.000000000               0.000000000               0.000000000               0.000000000               0.001819650               0.012292916              -0.003656906              -0.000854247               0.004382346               0.003528099               0.000000000               0.000000000               0.000000000               0.000000000               0.000056305               0.010760893              -0.001694252              -0.001323995               0.004028260               0.002704265               0.000000000               0.000000000               0.000000000               0.000000000              -0.001206327               0.009933926               0.000124519              -0.001694109               0.003875978               0.002181869               0.000000000               0.000000000               0.000000000               0.000000000              -0.001754312               0.009067654               0.000695161              -0.001791319               0.003619628               0.001828308               0.000000000               0.000000000               0.000000000               0.000000000              -0.001941091               0.008261027               0.000859192              -0.001760533               0.003340492               0.001579959               0.000000000               0.000000000               0.000000000               0.000000000              -0.001941456               0.007529319               0.000886831              -0.001669207               0.003066150               0.001396943               0.000000000               0.000000000               0.000000000               0.000000000              -0.001842600               0.006880846               0.000852288              -0.001551077               0.002810618               0.001259541               0.000000000               0.000000000               0.000000000               0.000000000              -0.001680746               0.006300318               0.000788859              -0.001417816               0.002572690               0.001154874               0.000000000               0.000000000               0.000000000               0.000000000              -0.001480433               0.005767070               0.000722676              -0.001276043               0.002347685               0.001071642               0.000000000               0.000000000               0.000000000               0.000000000              -0.001254936               0.005272290               0.000656769              -0.001129635               0.002133957               0.001004323               0.000000000               0.000000000               0.000000000               0.000000000              -0.001012716               0.004814602               0.000586756              -0.000981592               0.001932048               0.000950457               0.000000000               0.000000000               0.000000000               0.000000000              -0.000767466               0.004402008               0.000509200              -0.000838049               0.001746671               0.000908622               0.000000000               0.000000000               0.000000000               0.000000000              -0.000533989               0.004044225               0.000417008              -0.000705772               0.001583319               0.000877546               0.000000000               0.000000000               0.000000000               0.000000000              -0.000324100               0.003752987               0.000308501              -0.000590659               0.001447870               0.000857210               0.000000000               0.000000000               0.000000000               0.000000000              -0.000158629               0.003540110               0.000191560              -0.000501998               0.001347358               0.000845359               0.000000000               0.000000000               0.000000000               0.000000000              -0.000056743               0.003416923               0.000085331              -0.000448393               0.001288427               0.000840034               0.000000000               0.000000000               0.000000000               0.000000000              -0.000022866               0.003382418               0.000039109              -0.000431376               0.001271253               0.000839877               0.000000000               0.000000000               0.000000000               0.000000000               0.001140663               0.009779472              -0.003232757              -0.000794686               0.003524686               0.002730000               0.000000000               0.000000000               0.000000000               0.000000000              -0.000771391               0.009282977              -0.001621647              -0.001449641               0.003577508               0.002127867               0.000000000               0.000000000               0.000000000               0.000000000              -0.002232081               0.009271917              -0.000135427              -0.001996015               0.003755946               0.001759932               0.000000000               0.000000000               0.000000000               0.000000000              -0.002640378               0.008691912               0.000308760              -0.002076626               0.003589484               0.001512858               0.000000000               0.000000000               0.000000000               0.000000000              -0.002637684               0.008004898               0.000442162              -0.001989739               0.003331519               0.001341780               0.000000000               0.000000000               0.000000000               0.000000000              -0.002458971               0.007341694               0.000482871              -0.001839821               0.003060481               0.001220659               0.000000000               0.000000000               0.000000000               0.000000000              -0.002196826               0.006746165               0.000480286              -0.001667076               0.002804391               0.001137315               0.000000000               0.000000000               0.000000000               0.000000000              -0.001892636               0.006204273               0.000447044              -0.001485269               0.002563160               0.001077891               0.000000000               0.000000000               0.000000000               0.000000000              -0.001576528               0.005701451               0.000410413              -0.001303876               0.002335090               0.001031214               0.000000000               0.000000000               0.000000000               0.000000000              -0.001254517               0.005242611               0.000371489              -0.001125767               0.002122775               0.000997008               0.000000000               0.000000000               0.000000000               0.000000000              -0.000939337               0.004833695               0.000326926              -0.000956461               0.001930036               0.000973575               0.000000000               0.000000000               0.000000000               0.000000000              -0.000644506               0.004491481               0.000274422              -0.000803123               0.001764853               0.000961730               0.000000000               0.000000000               0.000000000               0.000000000              -0.000389720               0.004218904               0.000209558              -0.000673506               0.001630789               0.000957283               0.000000000               0.000000000               0.000000000               0.000000000              -0.000192054               0.004021553               0.000133935              -0.000574713               0.001532075               0.000957362               0.000000000               0.000000000               0.000000000               0.000000000              -0.000063205               0.003902138               0.000063361              -0.000511468               0.001471189               0.000959721               0.000000000               0.000000000               0.000000000               0.000000000              -0.000007094               0.003859586               0.000017506              -0.000485107               0.001448218               0.000963111               0.000000000               0.000000000               0.000000000               0.000000000               0.000005566               0.003865967               0.000000852              -0.000481157               0.001449029               0.000967871               0.000000000               0.000000000               0.000000000               0.000000000               0.000154477               0.007462560              -0.002562583              -0.000874891               0.002779124               0.001904234               0.000000000               0.000000000               0.000000000               0.000000000              -0.001685723               0.007932648              -0.001503775              -0.001623724               0.003185431               0.001561707               0.000000000               0.000000000               0.000000000               0.000000000              -0.003111982               0.008585797              -0.000501181              -0.002240212               0.003608641               0.001368429               0.000000000               0.000000000               0.000000000               0.000000000              -0.003282202               0.008223181              -0.000170216              -0.002258718               0.003493939               0.001235221               0.000000000               0.000000000               0.000000000               0.000000000              -0.003059174               0.007649178              -0.000035164              -0.002103332               0.003250811               0.001147479               0.000000000               0.000000000               0.000000000               0.000000000              -0.002703924               0.007073085               0.000038202              -0.001898102               0.002990372               0.001092270               0.000000000               0.000000000               0.000000000               0.000000000              -0.002296243               0.006532271               0.000083646              -0.001677621               0.002736609               0.001058988               0.000000000               0.000000000               0.000000000               0.000000000              -0.001867926               0.006030250               0.000098111              -0.001454250               0.002494813               0.001040563               0.000000000               0.000000000               0.000000000               0.000000000              -0.001453182               0.005570963               0.000103301              -0.001241311               0.002270739               0.001029429               0.000000000               0.000000000               0.000000000               0.000000000              -0.001063317               0.005165489               0.000102468              -0.001044427               0.002069955               0.001025528               0.000000000               0.000000000               0.000000000               0.000000000              -0.000705964               0.004827212               0.000095729              -0.000868136               0.001898433               0.001030297               0.000000000               0.000000000               0.000000000               0.000000000              -0.000398359               0.004567333               0.000083489              -0.000720300               0.001762529               0.001042229               0.000000000               0.000000000               0.000000000               0.000000000              -0.000162740               0.004388483               0.000057284              -0.000609586               0.001666009               0.001056422               0.000000000               0.000000000               0.000000000               0.000000000              -0.000009810               0.004291498               0.000023115              -0.000540115               0.001610523               0.001070409               0.000000000               0.000000000               0.000000000               0.000000000               0.000062224               0.004273033              -0.000004422              -0.000510794               0.001594595               0.001083801               0.000000000               0.000000000               0.000000000               0.000000000               0.000057624               0.004310326              -0.000012235              -0.000517180               0.001609155               0.001091974               0.000000000               0.000000000               0.000000000               0.000000000               0.000042414               0.004356946              -0.000014770              -0.000528712               0.001628538               0.001099826               0.000000000               0.000000000               0.000000000               0.000000000              -0.001013267               0.005511743              -0.001754680              -0.001068941               0.002193542               0.001124601               0.000000000               0.000000000               0.000000000               0.000000000              -0.002585483               0.006730218              -0.001378656              -0.001810829               0.002846993               0.001036164               0.000000000               0.000000000               0.000000000               0.000000000              -0.003803716               0.007897187              -0.000942888              -0.002413536               0.003436881               0.001023345               0.000000000               0.000000000               0.000000000               0.000000000              -0.003723415               0.007764543              -0.000682544              -0.002366843               0.003377103               0.001010260               0.000000000               0.000000000               0.000000000               0.000000000              -0.003308986               0.007334539              -0.000516662              -0.002157682               0.003164049               0.001006367               0.000000000               0.000000000               0.000000000               0.000000000              -0.002805907               0.006860354              -0.000399136              -0.001909755               0.002923347               0.001013592               0.000000000               0.000000000               0.000000000               0.000000000              -0.002283828               0.006388820              -0.000302833              -0.001655034               0.002681263               0.001026229               0.000000000               0.000000000               0.000000000               0.000000000              -0.001763757               0.005934589              -0.000228579              -0.001403229               0.002445919               0.001042690               0.000000000               0.000000000               0.000000000               0.000000000              -0.001273088               0.005524296              -0.000174032              -0.001167942               0.002230728               0.001062786               0.000000000               0.000000000               0.000000000               0.000000000              -0.000828869               0.005168082              -0.000130382              -0.000956834               0.002041621               0.001084788               0.000000000               0.000000000               0.000000000               0.000000000              -0.000443974               0.004882753              -0.000090697              -0.000776832               0.001886512               0.001109680               0.000000000               0.000000000               0.000000000               0.000000000              -0.000139283               0.004677156              -0.000053674              -0.000636874               0.001771328               0.001134454               0.000000000               0.000000000               0.000000000               0.000000000               0.000076970               0.004557152              -0.000030325              -0.000540779               0.001699295               0.001158516               0.000000000               0.000000000               0.000000000               0.000000000               0.000200232               0.004525259              -0.000018571              -0.000490569               0.001671927               0.001181359               0.000000000               0.000000000               0.000000000               0.000000000               0.000240611               0.004573900              -0.000013572              -0.000481507               0.001685120               0.001203613               0.000000000               0.000000000               0.000000000               0.000000000               0.000218748               0.004677975              -0.000009895              -0.000502715               0.001726881               0.001224166               0.000000000               0.000000000               0.000000000               0.000000000               0.000188840               0.004749515              -0.000008128              -0.000522873               0.001757447               0.001234574               0.000000000               0.000000000               0.000000000               0.000000000              -0.002367182               0.003707703              -0.000907557              -0.001351153               0.001686273               0.000335120               0.000000000               0.000000000               0.000000000               0.000000000              -0.003351509               0.005338719              -0.001243401              -0.001924151               0.002420939               0.000496788               0.000000000               0.000000000               0.000000000               0.000000000              -0.004229651               0.006883338              -0.001407298              -0.002446531               0.003109933               0.000663402               0.000000000               0.000000000               0.000000000               0.000000000              -0.004004998               0.007103507              -0.001227848              -0.002389807               0.003164414               0.000774607               0.000000000               0.000000000               0.000000000               0.000000000              -0.003511277               0.006918721              -0.001034911              -0.002181564               0.003033405               0.000851841               0.000000000               0.000000000               0.000000000               0.000000000              -0.002955155               0.006622248              -0.000868701              -0.001935959               0.002852713               0.000916754               0.000000000               0.000000000               0.000000000               0.000000000              -0.002396748               0.006297245              -0.000722877              -0.001685932               0.002661038               0.000975106               0.000000000               0.000000000               0.000000000               0.000000000              -0.001851667               0.005959817              -0.000595511              -0.001439349               0.002466369               0.001027020               0.000000000               0.000000000               0.000000000               0.000000000              -0.001331374               0.005634443              -0.000491389              -0.001203568               0.002279318               0.001075750               0.000000000               0.000000000               0.000000000               0.000000000              -0.000856719               0.005337805              -0.000399649              -0.000988493               0.002108748               0.001120255               0.000000000               0.000000000               0.000000000               0.000000000              -0.000437310               0.005088660              -0.000308997              -0.000800072               0.001962894               0.001162822               0.000000000               0.000000000               0.000000000               0.000000000              -0.000091542               0.004898312              -0.000223603              -0.000646616               0.001848293               0.001201677               0.000000000               0.000000000               0.000000000               0.000000000               0.000170456               0.004778656              -0.000147730              -0.000533410               0.001770673               0.001237263               0.000000000               0.000000000               0.000000000               0.000000000               0.000343984               0.004732320              -0.000082571              -0.000462545               0.001731606               0.001269061               0.000000000               0.000000000               0.000000000               0.000000000               0.000438450               0.004761414              -0.000036936              -0.000430757               0.001730708               0.001299951               0.000000000               0.000000000               0.000000000               0.000000000               0.000473198               0.004860831              -0.000012590              -0.000430154               0.001763646               0.001333492               0.000000000               0.000000000               0.000000000               0.000000000               0.000465678               0.004922620              -0.000002018              -0.000440697               0.001787756               0.001347059               0.000000000               0.000000000               0.000000000               0.000000000              -0.004076106               0.002076452              -0.000092023              -0.001788093               0.001288173              -0.000499920               0.000000000               0.000000000               0.000000000               0.000000000              -0.004206598               0.003938114              -0.001054179              -0.002069734               0.002002602              -0.000067132               0.000000000               0.000000000               0.000000000               0.000000000              -0.004575445               0.005680683              -0.001783838              -0.002425872               0.002702165               0.000276294               0.000000000               0.000000000               0.000000000               0.000000000              -0.004215864               0.006234247              -0.001752991              -0.002360224               0.002864803               0.000504578               0.000000000               0.000000000               0.000000000               0.000000000              -0.003678167               0.006333192              -0.001563386              -0.002170957               0.002834695               0.000663738               0.000000000               0.000000000               0.000000000               0.000000000              -0.003105935               0.006253346              -0.001365770              -0.001946389               0.002733224               0.000786835               0.000000000               0.000000000               0.000000000               0.000000000              -0.002531717               0.006096529              -0.001184478              -0.001711456               0.002602641               0.000891185               0.000000000               0.000000000               0.000000000               0.000000000              -0.001973169               0.005895718              -0.001019006              -0.001476900               0.002457519               0.000980620               0.000000000               0.000000000               0.000000000               0.000000000              -0.001437245               0.005681184              -0.000869890              -0.001249112               0.002310080               0.001060968               0.000000000               0.000000000               0.000000000               0.000000000              -0.000940608               0.005464736              -0.000733321              -0.001035818               0.002166833               0.001131015               0.000000000               0.000000000               0.000000000               0.000000000              -0.000482785               0.005261090              -0.000602962              -0.000838678               0.002033238               0.001194560               0.000000000               0.000000000               0.000000000               0.000000000              -0.000076330               0.005082695              -0.000475141              -0.000663959               0.001915534               0.001251575               0.000000000               0.000000000               0.000000000               0.000000000               0.000262548               0.004949444              -0.000348841              -0.000520224               0.001823206               0.001302982               0.000000000               0.000000000               0.000000000               0.000000000               0.000518930               0.004870118              -0.000227367              -0.000414165               0.001761411               0.001347246               0.000000000               0.000000000               0.000000000               0.000000000               0.000689383               0.004855491              -0.000124511              -0.000348417               0.001734620               0.001386203               0.000000000               0.000000000               0.000000000               0.000000000               0.000781006               0.004907082              -0.000048523              -0.000320507               0.001742513               0.001422006               0.000000000               0.000000000               0.000000000               0.000000000               0.000798984               0.004941129              -0.000016015              -0.000318021               0.001753034               0.001435012               0.000000000               0.000000000               0.000000000               0.000000000              -0.006015076               0.000752385               0.000616096              -0.002349699               0.001034021              -0.001315678               0.000000000               0.000000000               0.000000000               0.000000000              -0.005185958               0.002609911              -0.000801514              -0.002270969               0.001626949              -0.000644020               0.000000000               0.000000000               0.000000000               0.000000000              -0.004860581               0.004294272              -0.001971831              -0.002359497               0.002217907              -0.000141590               0.000000000               0.000000000               0.000000000               0.000000000              -0.004297051               0.005082346              -0.002119624              -0.002246682               0.002442992               0.000196309               0.000000000               0.000000000               0.000000000               0.000000000              -0.003698654               0.005444621              -0.001983510              -0.002067568               0.002504044               0.000436476               0.000000000               0.000000000               0.000000000               0.000000000              -0.003107707               0.005593456              -0.001792195              -0.001864568               0.002485989               0.000621421               0.000000000               0.000000000               0.000000000               0.000000000              -0.002530554               0.005621358              -0.001600961              -0.001651624               0.002424308               0.000772684               0.000000000               0.000000000               0.000000000               0.000000000              -0.001970992               0.005583937              -0.001416151              -0.001437111               0.002340330               0.000903219               0.000000000               0.000000000               0.000000000               0.000000000              -0.001433631               0.005510760              -0.001241260              -0.001226454               0.002245720               0.001019265               0.000000000               0.000000000               0.000000000               0.000000000              -0.000922057               0.005405376              -0.001079467              -0.001021441               0.002142254               0.001120813               0.000000000               0.000000000               0.000000000               0.000000000              -0.000441480               0.005280428              -0.000926223              -0.000825607               0.002035327               0.001209721               0.000000000               0.000000000               0.000000000               0.000000000               0.000008581               0.005151130              -0.000775794              -0.000640672               0.001930584               0.001289911               0.000000000               0.000000000               0.000000000               0.000000000               0.000412897               0.005037334              -0.000620428              -0.000474829               0.001837371               0.001362542               0.000000000               0.000000000               0.000000000               0.000000000               0.000748779               0.004953112              -0.000452796              -0.000338346               0.001763803               0.001425457               0.000000000               0.000000000               0.000000000               0.000000000               0.000995454               0.004919125              -0.000285614              -0.000241595               0.001720223               0.001478629               0.000000000               0.000000000               0.000000000               0.000000000               0.001140480               0.004939560              -0.000132292              -0.000189764               0.001709758               0.001519994               0.000000000               0.000000000               0.000000000               0.000000000               0.001178223               0.004956698              -0.000059332              -0.000177753               0.001711467               0.001533714               0.000000000               0.000000000               0.000000000               0.000000000              -0.008059937              -0.000190211               0.001108789              -0.002998698               0.000936155              -0.002062542               0.000000000               0.000000000               0.000000000               0.000000000              -0.006236991               0.001431193              -0.000524520              -0.002517768               0.001316311              -0.001201457               0.000000000               0.000000000               0.000000000               0.000000000              -0.005113449               0.002853633              -0.001940104              -0.002274244               0.001709280              -0.000564964               0.000000000               0.000000000               0.000000000               0.000000000              -0.004273115               0.003751557              -0.002240323              -0.002071359               0.001940958              -0.000130401               0.000000000               0.000000000               0.000000000               0.000000000              -0.003574358               0.004311711              -0.002188148              -0.001879344               0.002063670               0.000184326               0.000000000               0.000000000               0.000000000               0.000000000              -0.002952009               0.004664247              -0.002037160              -0.001690031               0.002118076               0.000428046               0.000000000               0.000000000               0.000000000               0.000000000              -0.002377832               0.004880898              -0.001859507              -0.001501796               0.002127548               0.000625752               0.000000000               0.000000000               0.000000000               0.000000000              -0.001828567               0.005019263              -0.001677604              -0.001313118               0.002110776               0.000797658               0.000000000               0.000000000               0.000000000               0.000000000              -0.001296383               0.005097729              -0.001505253              -0.001123358               0.002073678               0.000950321               0.000000000               0.000000000               0.000000000               0.000000000              -0.000778133               0.005119691              -0.001343117              -0.000931759               0.002017133               0.001085373               0.000000000               0.000000000               0.000000000               0.000000000              -0.000277600               0.005106708              -0.001189671              -0.000742437               0.001949698               0.001207261               0.000000000               0.000000000               0.000000000               0.000000000               0.000208865               0.005073737              -0.001038977              -0.000555892               0.001876526               0.001320634               0.000000000               0.000000000               0.000000000               0.000000000               0.000664578               0.005024266              -0.000872093              -0.000378816               0.001801010               0.001422194               0.000000000               0.000000000               0.000000000               0.000000000               0.001070641               0.004975575              -0.000678829              -0.000220456               0.001731994               0.001511537               0.000000000               0.000000000               0.000000000               0.000000000               0.001405469               0.004951662              -0.000463801              -0.000091907               0.001681173               0.001589266               0.000000000               0.000000000               0.000000000               0.000000000               0.001643695               0.004964285              -0.000237272              -0.000004150               0.001656129               0.001651978               0.000000000               0.000000000               0.000000000               0.000000000               0.001739886               0.004981518              -0.000124547               0.000029767               0.001650567               0.001680334               0.000000000               0.000000000               0.000000000               0.000000000              -0.010031369              -0.000779683               0.001287847              -0.003664300               0.000961532              -0.002702768               0.000000000               0.000000000               0.000000000               0.000000000              -0.007279664               0.000470387              -0.000277769              -0.002788670               0.001086344              -0.001702325               0.000000000               0.000000000               0.000000000               0.000000000              -0.005340751               0.001502078              -0.001683959              -0.002190539               0.001230863              -0.000959676               0.000000000               0.000000000               0.000000000               0.000000000              -0.004175009               0.002392014              -0.002065112              -0.001864627               0.001418870              -0.000445757               0.000000000               0.000000000               0.000000000               0.000000000              -0.003339906               0.003071939              -0.002089437              -0.001636454               0.001569453              -0.000067001               0.000000000               0.000000000               0.000000000               0.000000000              -0.002669645               0.003583250              -0.001991402              -0.001449020               0.001677410               0.000228390               0.000000000               0.000000000               0.000000000               0.000000000              -0.002089764               0.003971469              -0.001848394              -0.001280093               0.001750507               0.000470414               0.000000000               0.000000000               0.000000000               0.000000000              -0.001547565               0.004275037              -0.001694306              -0.001114714               0.001796569               0.000681854               0.000000000               0.000000000               0.000000000               0.000000000              -0.001025630               0.004498686              -0.001546635              -0.000946945               0.001815195               0.000868250               0.000000000               0.000000000               0.000000000               0.000000000              -0.000514128               0.004652722              -0.001407044              -0.000774387               0.001809020               0.001034633               0.000000000               0.000000000               0.000000000               0.000000000              -0.000003169               0.004763054              -0.001276511              -0.000596569               0.001786525               0.001189956               0.000000000               0.000000000               0.000000000               0.000000000               0.000507661               0.004841605              -0.001145839              -0.000414827               0.001752128               0.001337300               0.000000000               0.000000000               0.000000000               0.000000000               0.001011142               0.004890726              -0.000991388              -0.000232162               0.001707613               0.001475450               0.000000000               0.000000000               0.000000000               0.000000000               0.001495054               0.004918969              -0.000801043              -0.000054227               0.001657715               0.001603489               0.000000000               0.000000000               0.000000000               0.000000000               0.001947015               0.004940901              -0.000574361               0.000112517               0.001609445               0.001721962               0.000000000               0.000000000               0.000000000               0.000000000               0.002340729               0.004968463              -0.000308412               0.000256713               0.001570567               0.001827280               0.000000000               0.000000000               0.000000000               0.000000000               0.002563057               0.005001540              -0.000174073               0.000335950               0.001555180               0.001891130               0.000000000               0.000000000               0.000000000               0.000000000              -0.011683390              -0.001088264               0.001120991              -0.004245236               0.001052316              -0.003192919               0.000000000               0.000000000               0.000000000               0.000000000              -0.008181085              -0.000227502              -0.000106020              -0.003039467               0.000937315              -0.002102152               0.000000000               0.000000000               0.000000000               0.000000000              -0.005530784               0.000394490              -0.001235317              -0.002123353               0.000839275              -0.001284078               0.000000000               0.000000000               0.000000000               0.000000000              -0.004047153               0.001203087              -0.001587693              -0.001668066               0.000957044              -0.000711022               0.000000000               0.000000000               0.000000000               0.000000000              -0.003069711               0.001935165              -0.001650997              -0.001393035               0.001109392              -0.000283643               0.000000000               0.000000000               0.000000000               0.000000000              -0.002343287               0.002553882              -0.001600456              -0.001197965               0.001250606               0.000052641               0.000000000               0.000000000               0.000000000               0.000000000              -0.001744684               0.003068481              -0.001504906              -0.001037815               0.001368754               0.000330940               0.000000000               0.000000000               0.000000000               0.000000000              -0.001203169               0.003496817              -0.001394487              -0.000888289               0.001461690               0.000573401               0.000000000               0.000000000               0.000000000               0.000000000              -0.000689807               0.003845703              -0.001285143              -0.000739389               0.001528351               0.000788962               0.000000000               0.000000000               0.000000000               0.000000000              -0.000187148               0.004123172              -0.001183316              -0.000585576               0.001569569               0.000983992               0.000000000               0.000000000               0.000000000               0.000000000               0.000323765               0.004348736              -0.001091021              -0.000422180               0.001590291               0.001168111               0.000000000               0.000000000               0.000000000               0.000000000               0.000847762               0.004536745              -0.000997948              -0.000249182               0.001595294               0.001346111               0.000000000               0.000000000               0.000000000               0.000000000               0.001390008               0.004690406              -0.000881044              -0.000065048               0.001585136               0.001520087               0.000000000               0.000000000               0.000000000               0.000000000               0.001951439               0.004805943              -0.000730874               0.000131045               0.001558283               0.001689328               0.000000000               0.000000000               0.000000000               0.000000000               0.002532937               0.004891686              -0.000540151               0.000338387               0.001517750               0.001856137               0.000000000               0.000000000               0.000000000               0.000000000               0.003125460               0.004954313              -0.000296758               0.000552753               0.001467170               0.002019923               0.000000000               0.000000000               0.000000000               0.000000000               0.003527689               0.005018001              -0.000175622               0.000695626               0.001440775               0.002136401               0.000000000               0.000000000               0.000000000               0.000000000              -0.012782136              -0.001208827               0.000650098              -0.004642195               0.001144448              -0.003497747               0.000000000               0.000000000               0.000000000               0.000000000              -0.008793374              -0.000640722              -0.000022860              -0.003217423               0.000858894              -0.002358529               0.000000000               0.000000000               0.000000000               0.000000000              -0.005660101              -0.000332874              -0.000652395              -0.002080927               0.000582680              -0.001498247               0.000000000               0.000000000               0.000000000               0.000000000              -0.003940889               0.000387768              -0.000865505              -0.001526303               0.000638019              -0.000888284               0.000000000               0.000000000               0.000000000               0.000000000              -0.002856996               0.001135454              -0.000914658              -0.001213303               0.000782913              -0.000430390               0.000000000               0.000000000               0.000000000               0.000000000              -0.002085548               0.001807570              -0.000894333              -0.001008025               0.000938525              -0.000069500               0.000000000               0.000000000               0.000000000               0.000000000              -0.001469236               0.002390529              -0.000847703              -0.000849778               0.001080094               0.000230316               0.000000000               0.000000000               0.000000000               0.000000000              -0.000926458               0.002897334              -0.000790500              -0.000709587               0.001202297               0.000492710               0.000000000               0.000000000               0.000000000               0.000000000              -0.000415033               0.003331410              -0.000730772              -0.000572063               0.001301146               0.000729084               0.000000000               0.000000000               0.000000000               0.000000000               0.000085335               0.003695324              -0.000676896              -0.000429914               0.001375067               0.000945153               0.000000000               0.000000000               0.000000000               0.000000000               0.000593467               0.004007835              -0.000629394              -0.000278429               0.001428741               0.001150312               0.000000000               0.000000000               0.000000000               0.000000000               0.001121208               0.004284351              -0.000582209              -0.000115091               0.001466466               0.001351375               0.000000000               0.000000000               0.000000000               0.000000000               0.001684143               0.004520911              -0.000522696               0.000066439               0.001484809               0.001551248               0.000000000               0.000000000               0.000000000               0.000000000               0.002299039               0.004705707              -0.000441763               0.000273923               0.001477245               0.001751169               0.000000000               0.000000000               0.000000000               0.000000000               0.002982448               0.004843304              -0.000334191               0.000513000               0.001443419               0.001956419               0.000000000               0.000000000               0.000000000               0.000000000               0.003751683               0.004937065              -0.000187667               0.000789740               0.001382425               0.002172165               0.000000000               0.000000000               0.000000000               0.000000000               0.004324932               0.005030087              -0.000114185               0.000993079               0.001345653               0.002338731               0.000000000               0.000000000               0.000000000               0.000000000               0.000000000               0.000000000               0.000000000               0.000000000               0.000000000               0.000000000               0.000000000               0.000000000               0.000000000               0.000000000               0.000000000               0.000000000               0.000000000               0.000000000               0.000000000               0.000000000               0.000000000               0.000000000               0.000000000               0.000000000               0.000000000               0.000000000               0.000000000               0.000000000               0.000000000               0.000000000               0.000000000               0.000000000               0.000000000               0.000000000               0.000000000               0.000000000               0.000000000               0.000000000               0.000000000               0.000000000               0.000000000               0.000000000               0.000000000               0.000000000               0.000000000               0.000000000               0.000000000               0.000000000               0.000000000               0.000000000               0.000000000               0.000000000               0.000000000               0.000000000               0.000000000               0.000000000               0.000000000               0.000000000               0.000000000               0.000000000               0.000000000               0.000000000               0.000000000               0.000000000               0.000000000               0.000000000               0.000000000               0.000000000               0.000000000               0.000000000               0.000000000               0.000000000               0.000000000               0.000000000               0.000000000               0.000000000               0.000000000               0.000000000               0.000000000               0.000000000               0.000000000               0.000000000               0.000000000               0.000000000               0.000000000               0.000000000               0.000000000               0.000000000               0.000000000               0.000000000               0.000000000               0.000000000               0.000000000               0.000000000               0.000000000               0.000000000               0.000000000               0.000000000               0.000000000               0.000000000               0.000000000               0.000000000               0.000000000               0.000000000               0.000000000               0.000000000               0.000000000               0.000000000               0.000000000               0.000000000               0.000000000               0.000000000               0.000000000               0.000000000               0.000000000               0.000000000               0.000000000               0.000000000               0.000000000               0.000000000               0.000000000               0.000000000               0.000000000               0.000000000               0.000000000               0.000000000               0.000000000               0.000000000               0.000000000               0.000000000               0.000000000               0.000000000               0.000000000               0.000000000               0.000000000               0.000000000               0.000000000               0.000000000               0.000000000               0.000000000               0.000000000               0.000000000               0.000000000               0.000000000               0.000000000               0.000000000               0.000000000               0.000000000               0.000000000               0.000000000               0.000000000               0.000000000               0.000000000               0.000000000               0.000000000               0.000000000               0.000000000               0.000000000               0.000000000               0.000000000               0.000000000               0.000000000               0.000000000               0.000000000               0.000000000               0.000000000               0.000000000               0.000000000               0.000000000               0.000000000               0.000000000               0.000000000               0.000000000               0.000000000               0.000000000               0.000000000               0.000000000               0.000000000               0.000000000               0.000000000               0.000000000               0.000000000               0.000000000               0.000000000               0.000000000               0.000000000               0.000000000               0.000000000               0.000000000               0.000000000               0.000000000               0.000000000               0.000000000               0.000000000               0.000000000               0.000000000               0.000000000               0.000000000               0.000000000               0.000000000               0.000000000               0.000000000               0.000000000               0.000000000               0.000000000               0.000000000               0.000000000               0.000000000               0.000000000               0.000000000               0.000000000               0.000000000               0.000000000               0.000000000               0.000000000               0.000000000               0.000000000               0.000000000               0.000000000               0.000000000               0.000000000               0.000000000               0.000000000               0.000000000               0.000000000               0.000000000               0.000000000               0.000000000               0.000000000               0.000000000               0.000000000               0.000000000               0.000000000               0.000000000               0.000000000               0.000000000               0.000000000               0.000000000               0.000000000               0.000000000               0.000000000               0.000000000               0.000000000               0.000000000               0.000000000               0.000000000               0.000000000               0.000000000               0.000000000               0.000000000               0.000000000               0.000000000               0.000000000               0.000000000               0.000000000               0.000000000               0.000000000               0.000000000               0.000000000               0.000000000               0.000000000               0.000000000               0.000000000               0.000000000               0.000000000               0.000000000               0.000000000               0.000000000               0.000000000               0.000000000               0.000000000               0.000000000               0.000000000               0.000000000               0.000000000               0.000000000               0.000000000               0.000000000               0.000000000               0.000000000               0.000000000               0.000000000               0.000000000               0.000000000               0.000000000               0.000000000               0.000000000               0.000000000               0.000000000               0.000000000               0.000000000               0.000000000               0.000000000               0.000000000               0.000000000               0.000000000               0.000000000               0.000000000               0.000000000               0.000000000               0.000000000               0.000000000               0.000000000               0.000000000               0.000000000               0.000000000               0.000000000               0.000000000               0.000000000               0.000000000               0.000000000               0.000000000               0.000000000               0.000000000               0.000000000               0.000000000               0.000000000               0.000000000               0.000000000               0.000000000               0.000000000               0.000000000               0.000000000               0.000000000               0.000000000               0.000000000               0.000000000               0.000000000               0.000000000               0.000000000               0.000000000               0.000000000               0.000000000               0.000000000               0.000000000               0.000000000               0.000000000               0.000000000               0.000000000               0.000000000               0.000000000               0.000000000               0.000000000               0.000000000               0.002016553               0.020475708               0.001377458              -0.001803252               0.007426252               0.005623000               0.000000000               0.000000000               0.000000000               0.000000000               0.001799388               0.015741272               0.000613853              -0.001292885               0.005678000               0.004385115               0.000000000               0.000000000               0.000000000               0.000000000               0.002185117               0.011914678              -0.000136690              -0.000669914               0.004194824               0.003524910               0.000000000               0.000000000               0.000000000               0.000000000               0.001935899               0.009729355              -0.000444394              -0.000490206               0.003406488               0.002916282               0.000000000               0.000000000               0.000000000               0.000000000               0.001541123               0.008332120              -0.000565371              -0.000463593               0.002931877               0.002468284               0.000000000               0.000000000               0.000000000               0.000000000               0.001156906               0.007343500              -0.000597708              -0.000484097               0.002609174               0.002125078               0.000000000               0.000000000               0.000000000               0.000000000               0.000829445               0.006573712              -0.000587165              -0.000510671               0.002361439               0.001850768               0.000000000               0.000000000               0.000000000               0.000000000               0.000568230               0.005922738              -0.000559845              -0.000527255               0.002149978               0.001622723               0.000000000               0.000000000               0.000000000               0.000000000               0.000362765               0.005336729              -0.000527116              -0.000531053               0.001955909               0.001424856               0.000000000               0.000000000               0.000000000               0.000000000               0.000200419               0.004785412              -0.000494637              -0.000523018               0.001769461               0.001246442               0.000000000               0.000000000               0.000000000               0.000000000               0.000070850               0.004245827              -0.000461704              -0.000504159               0.001583314               0.001079156               0.000000000               0.000000000               0.000000000               0.000000000              -0.000022919               0.003706800              -0.000424575              -0.000471944               0.001392902               0.000920959               0.000000000               0.000000000               0.000000000               0.000000000              -0.000081680               0.003156171              -0.000380863              -0.000425150               0.001193763               0.000768613               0.000000000               0.000000000               0.000000000               0.000000000              -0.000110825               0.002577906              -0.000325343              -0.000363797               0.000980559               0.000616762               0.000000000               0.000000000               0.000000000               0.000000000              -0.000107841               0.001957202              -0.000250003              -0.000285090               0.000747424               0.000462334               0.000000000               0.000000000               0.000000000               0.000000000              -0.000065243               0.001279698              -0.000142378              -0.000184428               0.000488038               0.000303610               0.000000000               0.000000000               0.000000000               0.000000000              -0.000086445               0.000775650              -0.000089305              -0.000129373               0.000301672               0.000172299               0.000000000               0.000000000               0.000000000               0.000000000               0.002142551               0.019189206               0.002550190              -0.001595191               0.006928068               0.005332877               0.000000000               0.000000000               0.000000000               0.000000000               0.001608269               0.014933879               0.001131622              -0.001263631               0.005399120               0.004135489               0.000000000               0.000000000               0.000000000               0.000000000               0.001657123               0.011600095              -0.000248953              -0.000828589               0.004142856               0.003314267               0.000000000               0.000000000               0.000000000               0.000000000               0.001292644               0.009661785              -0.000792611              -0.000722980               0.003461556               0.002738576               0.000000000               0.000000000               0.000000000               0.000000000               0.000883819               0.008383968              -0.000994183              -0.000716562               0.003033482               0.002316920               0.000000000               0.000000000               0.000000000               0.000000000               0.000531058               0.007449325              -0.001043704              -0.000732018               0.002727089               0.001995072               0.000000000               0.000000000               0.000000000               0.000000000               0.000257754               0.006705762              -0.001020697              -0.000741561               0.002482418               0.001740858               0.000000000               0.000000000               0.000000000               0.000000000               0.000058447               0.006064681              -0.000967286              -0.000736166               0.002266929               0.001530763               0.000000000               0.000000000               0.000000000               0.000000000              -0.000084783               0.005480855              -0.000907634              -0.000716899               0.002065899               0.001349000               0.000000000               0.000000000               0.000000000               0.000000000              -0.000180256               0.004932784              -0.000846277              -0.000684193               0.001872309               0.001188116               0.000000000               0.000000000               0.000000000               0.000000000              -0.000240173               0.004401501              -0.000781772              -0.000640251               0.001680569               0.001040318               0.000000000               0.000000000               0.000000000               0.000000000              -0.000270059               0.003876536              -0.000713523              -0.000585838               0.001487445               0.000901607               0.000000000               0.000000000               0.000000000               0.000000000              -0.000266889               0.003354134              -0.000632865              -0.000519349               0.001291150               0.000771801               0.000000000               0.000000000               0.000000000               0.000000000              -0.000236124               0.002822180              -0.000530371              -0.000441318               0.001087823               0.000646505               0.000000000               0.000000000               0.000000000               0.000000000              -0.000177023               0.002277455              -0.000396630              -0.000351065               0.000876166               0.000525101               0.000000000               0.000000000               0.000000000               0.000000000              -0.000092146               0.001726214              -0.000220633              -0.000250331               0.000658843               0.000408512               0.000000000               0.000000000               0.000000000               0.000000000              -0.000085711               0.001343929              -0.000136909              -0.000200132               0.000514682               0.000314550               0.000000000               0.000000000               0.000000000               0.000000000               0.002236019               0.017239311               0.003354840              -0.001316405               0.006185181               0.004868775               0.000000000               0.000000000               0.000000000               0.000000000               0.001264811               0.013726083               0.001486641              -0.001241454               0.004989133               0.003747679               0.000000000               0.000000000               0.000000000               0.000000000               0.000850891               0.011131395              -0.000301659              -0.001072338               0.004067874               0.002995536               0.000000000               0.000000000               0.000000000               0.000000000               0.000356352               0.009543142              -0.000962568              -0.001059258               0.003534102               0.002474843               0.000000000               0.000000000               0.000000000               0.000000000              -0.000037105               0.008426792              -0.001191162              -0.001067261               0.003164656               0.002097395               0.000000000               0.000000000               0.000000000               0.000000000              -0.000315479               0.007563648              -0.001238681              -0.001063758               0.002875777               0.001812018               0.000000000               0.000000000               0.000000000               0.000000000              -0.000499375               0.006844366              -0.001201486              -0.001042809               0.002629036               0.001586226               0.000000000               0.000000000               0.000000000               0.000000000              -0.000604644               0.006210562              -0.001128436              -0.001003060               0.002404520               0.001401460               0.000000000               0.000000000               0.000000000               0.000000000              -0.000650230               0.005634621              -0.001050269              -0.000948162               0.002194242               0.001246080               0.000000000               0.000000000               0.000000000               0.000000000              -0.000651131               0.005097044              -0.000972474              -0.000881303               0.001992765               0.001111462               0.000000000               0.000000000               0.000000000               0.000000000              -0.000618270               0.004583137              -0.000889301              -0.000804742               0.001795944               0.000991202               0.000000000               0.000000000               0.000000000               0.000000000              -0.000556965               0.004085391              -0.000801933              -0.000719534               0.001601628               0.000882094               0.000000000               0.000000000               0.000000000               0.000000000              -0.000468705               0.003601611              -0.000701307              -0.000625965               0.001409180               0.000783215               0.000000000               0.000000000               0.000000000               0.000000000              -0.000356970               0.003136897              -0.000574070              -0.000525975               0.001220947               0.000694972               0.000000000               0.000000000               0.000000000               0.000000000              -0.000231359               0.002700563              -0.000416798              -0.000424329               0.001041621               0.000617292               0.000000000               0.000000000               0.000000000               0.000000000              -0.000109671               0.002311777              -0.000225158              -0.000330098               0.000880617               0.000550519               0.000000000               0.000000000               0.000000000               0.000000000              -0.000077147               0.002074671              -0.000133063              -0.000288263               0.000787638               0.000499375               0.000000000               0.000000000               0.000000000               0.000000000               0.002163460               0.014854298               0.003722126              -0.001045490               0.005299879               0.004254389               0.000000000               0.000000000               0.000000000               0.000000000               0.000745366               0.012281216               0.001667030              -0.001255638               0.004512243               0.003256606               0.000000000               0.000000000               0.000000000               0.000000000              -0.000140347               0.010562336              -0.000266564              -0.001372919               0.003978383               0.002605464               0.000000000               0.000000000               0.000000000               0.000000000              -0.000708801               0.009351615              -0.000926786              -0.001434749               0.003595424               0.002160675               0.000000000               0.000000000               0.000000000               0.000000000              -0.001032869               0.008401062              -0.001133366              -0.001437455               0.003279477               0.001842022               0.000000000               0.000000000               0.000000000               0.000000000              -0.001194167               0.007605531              -0.001167099              -0.001398501               0.003001318               0.001602818               0.000000000               0.000000000               0.000000000               0.000000000              -0.001250024               0.006914528              -0.001122185              -0.001333072               0.002749177               0.001416105               0.000000000               0.000000000               0.000000000               0.000000000              -0.001230093               0.006299864              -0.001045244              -0.001248765               0.002516189               0.001267423               0.000000000               0.000000000               0.000000000               0.000000000              -0.001154711               0.005742620              -0.000965782              -0.001150841               0.002297801               0.001146960               0.000000000               0.000000000               0.000000000               0.000000000              -0.001043623               0.005222448              -0.000885935              -0.001044162               0.002088852               0.001044690               0.000000000               0.000000000               0.000000000               0.000000000              -0.000905324               0.004731930              -0.000802101              -0.000930986               0.001887623               0.000956637               0.000000000               0.000000000               0.000000000               0.000000000              -0.000744878               0.004270339              -0.000712984              -0.000813120               0.001694472               0.000881352               0.000000000               0.000000000               0.000000000               0.000000000              -0.000569077               0.003842704              -0.000609983              -0.000693740               0.001512135               0.000818395               0.000000000               0.000000000               0.000000000               0.000000000              -0.000389241               0.003461310              -0.000483922              -0.000578628               0.001346634               0.000768007               0.000000000               0.000000000               0.000000000               0.000000000              -0.000224778               0.003144456              -0.000333753              -0.000477348               0.001207257               0.000729910               0.000000000               0.000000000               0.000000000               0.000000000              -0.000097344               0.002909550              -0.000170106              -0.000400197               0.001103239               0.000703043               0.000000000               0.000000000               0.000000000               0.000000000              -0.000052948               0.002800298              -0.000091951              -0.000369892               0.001056721               0.000686829               0.000000000               0.000000000               0.000000000               0.000000000               0.001819650               0.012292916               0.003656906              -0.000854247               0.004382346               0.003528099               0.000000000               0.000000000               0.000000000               0.000000000               0.000056305               0.010760893               0.001694252              -0.001323995               0.004028260               0.002704265               0.000000000               0.000000000               0.000000000               0.000000000              -0.001206327               0.009933926              -0.000124519              -0.001694109               0.003875978               0.002181869               0.000000000               0.000000000               0.000000000               0.000000000              -0.001754312               0.009067654              -0.000695161              -0.001791319               0.003619628               0.001828308               0.000000000               0.000000000               0.000000000               0.000000000              -0.001941091               0.008261027              -0.000859192              -0.001760533               0.003340492               0.001579959               0.000000000               0.000000000               0.000000000               0.000000000              -0.001941456               0.007529319              -0.000886831              -0.001669207               0.003066150               0.001396943               0.000000000               0.000000000               0.000000000               0.000000000              -0.001842600               0.006880846              -0.000852288              -0.001551077               0.002810618               0.001259541               0.000000000               0.000000000               0.000000000               0.000000000              -0.001680746               0.006300318              -0.000788859              -0.001417816               0.002572690               0.001154874               0.000000000               0.000000000               0.000000000               0.000000000              -0.001480433               0.005767070              -0.000722676              -0.001276043               0.002347685               0.001071642               0.000000000               0.000000000               0.000000000               0.000000000              -0.001254936               0.005272290              -0.000656769              -0.001129635               0.002133957               0.001004323               0.000000000               0.000000000               0.000000000               0.000000000              -0.001012716               0.004814602              -0.000586756              -0.000981592               0.001932048               0.000950457               0.000000000               0.000000000               0.000000000               0.000000000              -0.000767466               0.004402008              -0.000509200              -0.000838049               0.001746671               0.000908622               0.000000000               0.000000000               0.000000000               0.000000000              -0.000533989               0.004044225              -0.000417008              -0.000705772               0.001583319               0.000877546               0.000000000               0.000000000               0.000000000               0.000000000              -0.000324100               0.003752987              -0.000308501              -0.000590659               0.001447870               0.000857210               0.000000000               0.000000000               0.000000000               0.000000000              -0.000158629               0.003540110              -0.000191560              -0.000501998               0.001347358               0.000845359               0.000000000               0.000000000               0.000000000               0.000000000              -0.000056743               0.003416923              -0.000085331              -0.000448393               0.001288427               0.000840034               0.000000000               0.000000000               0.000000000               0.000000000              -0.000022866               0.003382418              -0.000039109              -0.000431376               0.001271253               0.000839877               0.000000000               0.000000000               0.000000000               0.000000000               0.001140663               0.009779472               0.003232757              -0.000794686               0.003524686               0.002730000               0.000000000               0.000000000               0.000000000               0.000000000              -0.000771391               0.009282977               0.001621647              -0.001449641               0.003577508               0.002127867               0.000000000               0.000000000               0.000000000               0.000000000              -0.002232081               0.009271917               0.000135427              -0.001996015               0.003755946               0.001759932               0.000000000               0.000000000               0.000000000               0.000000000              -0.002640378               0.008691912              -0.000308760              -0.002076626               0.003589484               0.001512858               0.000000000               0.000000000               0.000000000               0.000000000              -0.002637684               0.008004898              -0.000442162              -0.001989739               0.003331519               0.001341780               0.000000000               0.000000000               0.000000000               0.000000000              -0.002458971               0.007341694              -0.000482871              -0.001839821               0.003060481               0.001220659               0.000000000               0.000000000               0.000000000               0.000000000              -0.002196826               0.006746165              -0.000480286              -0.001667076               0.002804391               0.001137315               0.000000000               0.000000000               0.000000000               0.000000000              -0.001892636               0.006204273              -0.000447044              -0.001485269               0.002563160               0.001077891               0.000000000               0.000000000               0.000000000               0.000000000              -0.001576528               0.005701451              -0.000410413              -0.001303876               0.002335090               0.001031214               0.000000000               0.000000000               0.000000000               0.000000000              -0.001254517               0.005242611              -0.000371489              -0.001125767               0.002122775               0.000997008               0.000000000               0.000000000               0.000000000               0.000000000              -0.000939337               0.004833695              -0.000326926              -0.000956461               0.001930036               0.000973575               0.000000000               0.000000000               0.000000000               0.000000000              -0.000644506               0.004491481              -0.000274422              -0.000803123               0.001764853               0.000961730               0.000000000               0.000000000               0.000000000               0.000000000              -0.000389720               0.004218904              -0.000209558              -0.000673506               0.001630789               0.000957283               0.000000000               0.000000000               0.000000000               0.000000000              -0.000192054               0.004021553              -0.000133935              -0.000574713               0.001532075               0.000957362               0.000000000               0.000000000               0.000000000               0.000000000              -0.000063205               0.003902138              -0.000063361              -0.000511468               0.001471189               0.000959721               0.000000000               0.000000000               0.000000000               0.000000000              -0.000007094               0.003859586              -0.000017506              -0.000485107               0.001448218               0.000963111               0.000000000               0.000000000               0.000000000               0.000000000               0.000005566               0.003865967              -0.000000852              -0.000481157               0.001449029               0.000967871               0.000000000               0.000000000               0.000000000               0.000000000               0.000154477               0.007462560               0.002562583              -0.000874891               0.002779124               0.001904234               0.000000000               0.000000000               0.000000000               0.000000000              -0.001685723               0.007932648               0.001503775              -0.001623724               0.003185431               0.001561707               0.000000000               0.000000000               0.000000000               0.000000000              -0.003111982               0.008585797               0.000501181              -0.002240212               0.003608641               0.001368429               0.000000000               0.000000000               0.000000000               0.000000000              -0.003282202               0.008223181               0.000170216              -0.002258718               0.003493939               0.001235221               0.000000000               0.000000000               0.000000000               0.000000000              -0.003059174               0.007649178               0.000035164              -0.002103332               0.003250811               0.001147479               0.000000000               0.000000000               0.000000000               0.000000000              -0.002703924               0.007073085              -0.000038202              -0.001898102               0.002990372               0.001092270               0.000000000               0.000000000               0.000000000               0.000000000              -0.002296243               0.006532271              -0.000083646              -0.001677621               0.002736609               0.001058988               0.000000000               0.000000000               0.000000000               0.000000000              -0.001867926               0.006030250              -0.000098111              -0.001454250               0.002494813               0.001040563               0.000000000               0.000000000               0.000000000               0.000000000              -0.001453182               0.005570963              -0.000103301              -0.001241311               0.002270739               0.001029429               0.000000000               0.000000000               0.000000000               0.000000000              -0.001063317               0.005165489              -0.000102468              -0.001044427               0.002069955               0.001025528               0.000000000               0.000000000               0.000000000               0.000000000              -0.000705964               0.004827212              -0.000095729              -0.000868136               0.001898433               0.001030297               0.000000000               0.000000000               0.000000000               0.000000000              -0.000398359               0.004567333              -0.000083489              -0.000720300               0.001762529               0.001042229               0.000000000               0.000000000               0.000000000               0.000000000              -0.000162740               0.004388483              -0.000057284              -0.000609586               0.001666009               0.001056422               0.000000000               0.000000000               0.000000000               0.000000000              -0.000009810               0.004291498              -0.000023115              -0.000540115               0.001610523               0.001070409               0.000000000               0.000000000               0.000000000               0.000000000               0.000062224               0.004273033               0.000004422              -0.000510794               0.001594595               0.001083801               0.000000000               0.000000000               0.000000000               0.000000000               0.000057624               0.004310326               0.000012235              -0.000517180               0.001609155               0.001091974               0.000000000               0.000000000               0.000000000               0.000000000               0.000042414               0.004356946               0.000014770              -0.000528712               0.001628538               0.001099826               0.000000000               0.000000000               0.000000000               0.000000000              -0.001013267               0.005511743               0.001754680              -0.001068941               0.002193542               0.001124601               0.000000000               0.000000000               0.000000000               0.000000000              -0.002585483               0.006730218               0.001378656              -0.001810829               0.002846993               0.001036164               0.000000000               0.000000000               0.000000000               0.000000000              -0.003803716               0.007897187               0.000942888              -0.002413536               0.003436881               0.001023345               0.000000000               0.000000000               0.000000000               0.000000000              -0.003723415               0.007764543               0.000682544              -0.002366843               0.003377103               0.001010260               0.000000000               0.000000000               0.000000000               0.000000000              -0.003308986               0.007334539               0.000516662              -0.002157682               0.003164049               0.001006367               0.000000000               0.000000000               0.000000000               0.000000000              -0.002805907               0.006860354               0.000399136              -0.001909755               0.002923347               0.001013592               0.000000000               0.000000000               0.000000000               0.000000000              -0.002283828               0.006388820               0.000302833              -0.001655034               0.002681263               0.001026229               0.000000000               0.000000000               0.000000000               0.000000000              -0.001763757               0.005934589               0.000228579              -0.001403229               0.002445919               0.001042690               0.000000000               0.000000000               0.000000000               0.000000000              -0.001273088               0.005524296               0.000174032              -0.001167942               0.002230728               0.001062786               0.000000000               0.000000000               0.000000000               0.000000000              -0.000828869               0.005168082               0.000130382              -0.000956834               0.002041621               0.001084788               0.000000000               0.000000000               0.000000000               0.000000000              -0.000443974               0.004882753               0.000090697              -0.000776832               0.001886512               0.001109680               0.000000000               0.000000000               0.000000000               0.000000000              -0.000139283               0.004677156               0.000053674              -0.000636874               0.001771328               0.001134454               0.000000000               0.000000000               0.000000000               0.000000000               0.000076970               0.004557152               0.000030325              -0.000540779               0.001699295               0.001158516               0.000000000               0.000000000               0.000000000               0.000000000               0.000200232               0.004525259               0.000018571              -0.000490569               0.001671927               0.001181359               0.000000000               0.000000000               0.000000000               0.000000000               0.000240611               0.004573900               0.000013572              -0.000481507               0.001685120               0.001203613               0.000000000               0.000000000               0.000000000               0.000000000               0.000218748               0.004677975               0.000009895              -0.000502715               0.001726881               0.001224166               0.000000000               0.000000000               0.000000000               0.000000000               0.000188840               0.004749515               0.000008128              -0.000522873               0.001757447               0.001234574               0.000000000               0.000000000               0.000000000               0.000000000              -0.002367182               0.003707703               0.000907557              -0.001351153               0.001686273               0.000335120               0.000000000               0.000000000               0.000000000               0.000000000              -0.003351509               0.005338719               0.001243401              -0.001924151               0.002420939               0.000496788               0.000000000               0.000000000               0.000000000               0.000000000              -0.004229651               0.006883338               0.001407298              -0.002446531               0.003109933               0.000663402               0.000000000               0.000000000               0.000000000               0.000000000              -0.004004998               0.007103507               0.001227848              -0.002389807               0.003164414               0.000774607               0.000000000               0.000000000               0.000000000               0.000000000              -0.003511277               0.006918721               0.001034911              -0.002181564               0.003033405               0.000851841               0.000000000               0.000000000               0.000000000               0.000000000              -0.002955155               0.006622248               0.000868701              -0.001935959               0.002852713               0.000916754               0.000000000               0.000000000               0.000000000               0.000000000              -0.002396748               0.006297245               0.000722877              -0.001685932               0.002661038               0.000975106               0.000000000               0.000000000               0.000000000               0.000000000              -0.001851667               0.005959817               0.000595511              -0.001439349               0.002466369               0.001027020               0.000000000               0.000000000               0.000000000               0.000000000              -0.001331374               0.005634443               0.000491389              -0.001203568               0.002279318               0.001075750               0.000000000               0.000000000               0.000000000               0.000000000              -0.000856719               0.005337805               0.000399649              -0.000988493               0.002108748               0.001120255               0.000000000               0.000000000               0.000000000               0.000000000              -0.000437310               0.005088660               0.000308997              -0.000800072               0.001962894               0.001162822               0.000000000               0.000000000               0.000000000               0.000000000              -0.000091542               0.004898312               0.000223603              -0.000646616               0.001848293               0.001201677               0.000000000               0.000000000               0.000000000               0.000000000               0.000170456               0.004778656               0.000147730              -0.000533410               0.001770673               0.001237263               0.000000000               0.000000000               0.000000000               0.000000000               0.000343984               0.004732320               0.000082571              -0.000462545               0.001731606               0.001269061               0.000000000               0.000000000               0.000000000               0.000000000               0.000438450               0.004761414               0.000036936              -0.000430757               0.001730708               0.001299951               0.000000000               0.000000000               0.000000000               0.000000000               0.000473198               0.004860831               0.000012590              -0.000430154               0.001763646               0.001333492               0.000000000               0.000000000               0.000000000               0.000000000               0.000465678               0.004922620               0.000002018              -0.000440697               0.001787756               0.001347059               0.000000000               0.000000000               0.000000000               0.000000000              -0.004076106               0.002076452               0.000092023              -0.001788093               0.001288173              -0.000499920               0.000000000               0.000000000               0.000000000               0.000000000              -0.004206598               0.003938114               0.001054179              -0.002069734               0.002002602              -0.000067132               0.000000000               0.000000000               0.000000000               0.000000000              -0.004575445               0.005680683               0.001783838              -0.002425872               0.002702165               0.000276294               0.000000000               0.000000000               0.000000000               0.000000000              -0.004215864               0.006234247               0.001752991              -0.002360224               0.002864803               0.000504578               0.000000000               0.000000000               0.000000000               0.000000000              -0.003678167               0.006333192               0.001563386              -0.002170957               0.002834695               0.000663738               0.000000000               0.000000000               0.000000000               0.000000000              -0.003105935               0.006253346               0.001365770              -0.001946389               0.002733224               0.000786835               0.000000000               0.000000000               0.000000000               0.000000000              -0.002531717               0.006096529               0.001184478              -0.001711456               0.002602641               0.000891185               0.000000000               0.000000000               0.000000000               0.000000000              -0.001973169               0.005895718               0.001019006              -0.001476900               0.002457519               0.000980620               0.000000000               0.000000000               0.000000000               0.000000000              -0.001437245               0.005681184               0.000869890              -0.001249112               0.002310080               0.001060968               0.000000000               0.000000000               0.000000000               0.000000000              -0.000940608               0.005464736               0.000733321              -0.001035818               0.002166833               0.001131015               0.000000000               0.000000000               0.000000000               0.000000000              -0.000482785               0.005261090               0.000602962              -0.000838678               0.002033238               0.001194560               0.000000000               0.000000000               0.000000000               0.000000000              -0.000076330               0.005082695               0.000475141              -0.000663959               0.001915534               0.001251575               0.000000000               0.000000000               0.000000000               0.000000000               0.000262548               0.004949444               0.000348841              -0.000520224               0.001823206               0.001302982               0.000000000               0.000000000               0.000000000               0.000000000               0.000518930               0.004870118               0.000227367              -0.000414165               0.001761411               0.001347246               0.000000000               0.000000000               0.000000000               0.000000000               0.000689383               0.004855491               0.000124511              -0.000348417               0.001734620               0.001386203               0.000000000               0.000000000               0.000000000               0.000000000               0.000781006               0.004907082               0.000048523              -0.000320507               0.001742513               0.001422006               0.000000000               0.000000000               0.000000000               0.000000000               0.000798984               0.004941129               0.000016015              -0.000318021               0.001753034               0.001435012               0.000000000               0.000000000               0.000000000               0.000000000              -0.006015076               0.000752385              -0.000616096              -0.002349699               0.001034021              -0.001315678               0.000000000               0.000000000               0.000000000               0.000000000              -0.005185958               0.002609911               0.000801514              -0.002270969               0.001626949              -0.000644020               0.000000000               0.000000000               0.000000000               0.000000000              -0.004860581               0.004294272               0.001971831              -0.002359497               0.002217907              -0.000141590               0.000000000               0.000000000               0.000000000               0.000000000              -0.004297051               0.005082346               0.002119624              -0.002246682               0.002442992               0.000196309               0.000000000               0.000000000               0.000000000               0.000000000              -0.003698654               0.005444621               0.001983510              -0.002067568               0.002504044               0.000436476               0.000000000               0.000000000               0.000000000               0.000000000              -0.003107707               0.005593456               0.001792195              -0.001864568               0.002485989               0.000621421               0.000000000               0.000000000               0.000000000               0.000000000              -0.002530554               0.005621358               0.001600961              -0.001651624               0.002424308               0.000772684               0.000000000               0.000000000               0.000000000               0.000000000              -0.001970992               0.005583937               0.001416151              -0.001437111               0.002340330               0.000903219               0.000000000               0.000000000               0.000000000               0.000000000              -0.001433631               0.005510760               0.001241260              -0.001226454               0.002245720               0.001019265               0.000000000               0.000000000               0.000000000               0.000000000              -0.000922057               0.005405376               0.001079467              -0.001021441               0.002142254               0.001120813               0.000000000               0.000000000               0.000000000               0.000000000              -0.000441480               0.005280428               0.000926223              -0.000825607               0.002035327               0.001209721               0.000000000               0.000000000               0.000000000               0.000000000               0.000008581               0.005151130               0.000775794              -0.000640672               0.001930584               0.001289911               0.000000000               0.000000000               0.000000000               0.000000000               0.000412897               0.005037334               0.000620428              -0.000474829               0.001837371               0.001362542               0.000000000               0.000000000               0.000000000               0.000000000               0.000748779               0.004953112               0.000452796              -0.000338346               0.001763803               0.001425457               0.000000000               0.000000000               0.000000000               0.000000000               0.000995454               0.004919125               0.000285614              -0.000241595               0.001720223               0.001478629               0.000000000               0.000000000               0.000000000               0.000000000               0.001140480               0.004939560               0.000132292              -0.000189764               0.001709758               0.001519994               0.000000000               0.000000000               0.000000000               0.000000000               0.001178223               0.004956698               0.000059332              -0.000177753               0.001711467               0.001533714               0.000000000               0.000000000               0.000000000               0.000000000              -0.008059937              -0.000190211              -0.001108789              -0.002998698               0.000936155              -0.002062542               0.000000000               0.000000000               0.000000000               0.000000000              -0.006236991               0.001431193               0.000524520              -0.002517768               0.001316311              -0.001201457               0.000000000               0.000000000               0.000000000               0.000000000              -0.005113449               0.002853633               0.001940104              -0.002274244               0.001709280              -0.000564964               0.000000000               0.000000000               0.000000000               0.000000000              -0.004273115               0.003751557               0.002240323              -0.002071359               0.001940958              -0.000130401               0.000000000               0.000000000               0.000000000               0.000000000              -0.003574358               0.004311711               0.002188148              -0.001879344               0.002063670               0.000184326               0.000000000               0.000000000               0.000000000               0.000000000              -0.002952009               0.004664247               0.002037160              -0.001690031               0.002118076               0.000428046               0.000000000               0.000000000               0.000000000               0.000000000              -0.002377832               0.004880898               0.001859507              -0.001501796               0.002127548               0.000625752               0.000000000               0.000000000               0.000000000               0.000000000              -0.001828567               0.005019263               0.001677604              -0.001313118               0.002110776               0.000797658               0.000000000               0.000000000               0.000000000               0.000000000              -0.001296383               0.005097729               0.001505253              -0.001123358               0.002073678               0.000950321               0.000000000               0.000000000               0.000000000               0.000000000              -0.000778133               0.005119691               0.001343117              -0.000931759               0.002017133               0.001085373               0.000000000               0.000000000               0.000000000               0.000000000              -0.000277600               0.005106708               0.001189671              -0.000742437               0.001949698               0.001207261               0.000000000               0.000000000               0.000000000               0.000000000               0.000208865               0.005073737               0.001038977              -0.000555892               0.001876526               0.001320634               0.000000000               0.000000000               0.000000000               0.000000000               0.000664578               0.005024266               0.000872093              -0.000378816               0.001801010               0.001422194               0.000000000               0.000000000               0.000000000               0.000000000               0.001070641               0.004975575               0.000678829              -0.000220456               0.001731994               0.001511537               0.000000000               0.000000000               0.000000000               0.000000000               0.001405469               0.004951662               0.000463801              -0.000091907               0.001681173               0.001589266               0.000000000               0.000000000               0.000000000               0.000000000               0.001643695               0.004964285               0.000237272              -0.000004150               0.001656129               0.001651978               0.000000000               0.000000000               0.000000000               0.000000000               0.001739886               0.004981518               0.000124547               0.000029767               0.001650567               0.001680334               0.000000000               0.000000000               0.000000000               0.000000000              -0.010031369              -0.000779683              -0.001287847              -0.003664300               0.000961532              -0.002702768               0.000000000               0.000000000               0.000000000               0.000000000              -0.007279664               0.000470387               0.000277769              -0.002788670               0.001086344              -0.001702325               0.000000000               0.000000000               0.000000000               0.000000000              -0.005340751               0.001502078               0.001683959              -0.002190539               0.001230863              -0.000959676               0.000000000               0.000000000               0.000000000               0.000000000              -0.004175009               0.002392014               0.002065112              -0.001864627               0.001418870              -0.000445757               0.000000000               0.000000000               0.000000000               0.000000000              -0.003339906               0.003071939               0.002089437              -0.001636454               0.001569453              -0.000067001               0.000000000               0.000000000               0.000000000               0.000000000              -0.002669645               0.003583250               0.001991402              -0.001449020               0.001677410               0.000228390               0.000000000               0.000000000               0.000000000               0.000000000              -0.002089764               0.003971469               0.001848394              -0.001280093               0.001750507               0.000470414               0.000000000               0.000000000               0.000000000               0.000000000              -0.001547565               0.004275037               0.001694306              -0.001114714               0.001796569               0.000681854               0.000000000               0.000000000               0.000000000               0.000000000              -0.001025630               0.004498686               0.001546635              -0.000946945               0.001815195               0.000868250               0.000000000               0.000000000               0.000000000               0.000000000              -0.000514128               0.004652722               0.001407044              -0.000774387               0.001809020               0.001034633               0.000000000               0.000000000               0.000000000               0.000000000              -0.000003169               0.004763054               0.001276511              -0.000596569               0.001786525               0.001189956               0.000000000               0.000000000               0.000000000               0.000000000               0.000507661               0.004841605               0.001145839              -0.000414827               0.001752128               0.001337300               0.000000000               0.000000000               0.000000000               0.000000000               0.001011142               0.004890726               0.000991388              -0.000232162               0.001707613               0.001475450               0.000000000               0.000000000               0.000000000               0.000000000               0.001495054               0.004918969               0.000801043              -0.000054227               0.001657715               0.001603489               0.000000000               0.000000000               0.000000000               0.000000000               0.001947015               0.004940901               0.000574361               0.000112517               0.001609445               0.001721962               0.000000000               0.000000000               0.000000000               0.000000000               0.002340729               0.004968463               0.000308412               0.000256713               0.001570567               0.001827280               0.000000000               0.000000000               0.000000000               0.000000000               0.002563057               0.005001540               0.000174073               0.000335950               0.001555180               0.001891130               0.000000000               0.000000000               0.000000000               0.000000000              -0.011683390              -0.001088264              -0.001120991              -0.004245236               0.001052316              -0.003192919               0.000000000               0.000000000               0.000000000               0.000000000              -0.008181085              -0.000227502               0.000106020              -0.003039467               0.000937315              -0.002102152               0.000000000               0.000000000               0.000000000               0.000000000              -0.005530784               0.000394490               0.001235317              -0.002123353               0.000839275              -0.001284078               0.000000000               0.000000000               0.000000000               0.000000000              -0.004047153               0.001203087               0.001587693              -0.001668066               0.000957044              -0.000711022               0.000000000               0.000000000               0.000000000               0.000000000              -0.003069711               0.001935165               0.001650997              -0.001393035               0.001109392              -0.000283643               0.000000000               0.000000000               0.000000000               0.000000000              -0.002343287               0.002553882               0.001600456              -0.001197965               0.001250606               0.000052641               0.000000000               0.000000000               0.000000000               0.000000000              -0.001744684               0.003068481               0.001504906              -0.001037815               0.001368754               0.000330940               0.000000000               0.000000000               0.000000000               0.000000000              -0.001203169               0.003496817               0.001394487              -0.000888289               0.001461690               0.000573401               0.000000000               0.000000000               0.000000000               0.000000000              -0.000689807               0.003845703               0.001285143              -0.000739389               0.001528351               0.000788962               0.000000000               0.000000000               0.000000000               0.000000000              -0.000187148               0.004123172               0.001183316              -0.000585576               0.001569569               0.000983992               0.000000000               0.000000000               0.000000000               0.000000000               0.000323765               0.004348736               0.001091021              -0.000422180               0.001590291               0.001168111               0.000000000               0.000000000               0.000000000               0.000000000               0.000847762               0.004536745               0.000997948              -0.000249182               0.001595294               0.001346111               0.000000000               0.000000000               0.000000000               0.000000000               0.001390008               0.004690406               0.000881044              -0.000065048               0.001585136               0.001520087               0.000000000               0.000000000               0.000000000               0.000000000               0.001951439               0.004805943               0.000730874               0.000131045               0.001558283               0.001689328               0.000000000               0.000000000               0.000000000               0.000000000               0.002532937               0.004891686               0.000540151               0.000338387               0.001517750               0.001856137               0.000000000               0.000000000               0.000000000               0.000000000               0.003125460               0.004954313               0.000296758               0.000552753               0.001467170               0.002019923               0.000000000               0.000000000               0.000000000               0.000000000               0.003527689               0.005018001               0.000175622               0.000695626               0.001440775               0.002136401               0.000000000               0.000000000               0.000000000               0.000000000              -0.012782136              -0.001208827              -0.000650098              -0.004642195               0.001144448              -0.003497747               0.000000000               0.000000000               0.000000000               0.000000000              -0.008793374              -0.000640722               0.000022860              -0.003217423               0.000858894              -0.002358529               0.000000000               0.000000000               0.000000000               0.000000000              -0.005660101              -0.000332874               0.000652395              -0.002080927               0.000582680              -0.001498247               0.000000000               0.000000000               0.000000000               0.000000000              -0.003940889               0.000387768               0.000865505              -0.001526303               0.000638019              -0.000888284               0.000000000               0.000000000               0.000000000               0.000000000              -0.002856996               0.001135454               0.000914658              -0.001213303               0.000782913              -0.000430390               0.000000000               0.000000000               0.000000000               0.000000000              -0.002085548               0.001807570               0.000894333              -0.001008025               0.000938525              -0.000069500               0.000000000               0.000000000               0.000000000               0.000000000              -0.001469236               0.002390529               0.000847703              -0.000849778               0.001080094               0.000230316               0.000000000               0.000000000               0.000000000               0.000000000              -0.000926458               0.002897334               0.000790500              -0.000709587               0.001202297               0.000492710               0.000000000               0.000000000               0.000000000               0.000000000              -0.000415033               0.003331410               0.000730772              -0.000572063               0.001301146               0.000729084               0.000000000               0.000000000               0.000000000               0.000000000               0.000085335               0.003695324               0.000676896              -0.000429914               0.001375067               0.000945153               0.000000000               0.000000000               0.000000000               0.000000000               0.000593467               0.004007835               0.000629394              -0.000278429               0.001428741               0.001150312               0.000000000               0.000000000               0.000000000               0.000000000               0.001121208               0.004284351               0.000582209              -0.000115091               0.001466466               0.001351375               0.000000000               0.000000000               0.000000000               0.000000000               0.001684143               0.004520911               0.000522696               0.000066439               0.001484809               0.001551248               0.000000000               0.000000000               0.000000000               0.000000000               0.002299039               0.004705707               0.000441763               0.000273923               0.001477245               0.001751169               0.000000000               0.000000000               0.000000000               0.000000000               0.002982448               0.004843304               0.000334191               0.000513000               0.001443419               0.001956419               0.000000000               0.000000000               0.000000000               0.000000000               0.003751683               0.004937065               0.000187667               0.000789740               0.001382425               0.002172165               0.000000000               0.000000000               0.000000000               0.000000000               0.004324932               0.005030087               0.000114185               0.000993079               0.001345653               0.002338731               0.000000000               0.000000000               0.000000000               0.000000000               0.000000000               0.000000000               0.000000000               0.000000000               0.000000000               0.000000000               0.000000000               0.000000000               0.000000000               0.000000000               0.000000000               0.000000000               0.000000000               0.000000000               0.000000000               0.000000000               0.000000000               0.000000000               0.000000000               0.000000000               0.000000000               0.000000000               0.000000000               0.000000000               0.000000000               0.000000000               0.000000000               0.000000000               0.000000000               0.000000000               0.000000000               0.000000000               0.000000000               0.000000000               0.000000000               0.000000000               0.000000000               0.000000000               0.000000000               0.000000000               0.000000000               0.000000000               0.000000000               0.000000000               0.000000000               0.000000000               0.000000000               0.000000000               0.000000000               0.000000000               0.000000000               0.000000000               0.000000000               0.000000000               0.000000000               0.000000000               0.000000000               0.000000000               0.000000000               0.000000000               0.000000000               0.000000000               0.000000000               0.000000000               0.000000000               0.000000000               0.000000000               0.000000000               0.000000000               0.000000000               0.000000000               0.000000000               0.000000000               0.000000000               0.000000000               0.000000000               0.000000000               0.000000000               0.000000000               0.000000000               0.000000000               0.000000000               0.000000000               0.000000000               0.000000000               0.000000000               0.000000000               0.000000000               0.000000000               0.000000000               0.000000000               0.000000000               0.000000000               0.000000000               0.000000000               0.000000000               0.000000000               0.000000000               0.000000000               0.000000000               0.000000000               0.000000000               0.000000000               0.000000000               0.000000000               0.000000000               0.000000000               0.000000000               0.000000000               0.000000000               0.000000000               0.000000000               0.000000000               0.000000000               0.000000000               0.000000000               0.000000000               0.000000000               0.000000000               0.000000000               0.000000000               0.000000000               0.000000000               0.000000000               0.000000000               0.000000000               0.000000000               0.000000000               0.000000000               0.000000000               0.000000000               0.000000000               0.000000000               0.000000000               0.000000000               0.000000000               0.000000000               0.000000000               0.000000000               0.000000000               0.000000000               0.000000000               0.000000000               0.000000000               0.000000000               0.000000000               0.000000000               0.000000000               0.000000000               0.000000000               0.000000000               0.000000000               0.000000000               0.000000000               0.000000000               0.000000000               0.000000000               0.000000000               0.000000000               0.000000000               0.000000000               0.000000000               0.000000000               0.000000000               0.000000000               0.000000000               0.000000000               0.000000000               0.000000000               0.000000000 </DataArray>
</PointData>
</Piece>
</UnstructuredGrid> </VTKFile>
