<?xml version="1.0"?>
<VTKFile type="UnstructuredGrid" version="0.1">
<UnstructuredGrid>
<Piece NumberOfPoints="      1156" NumberOfCells="      1024">
<Points>
<DataArray type="Float64"                                    Name="coordinates"                                                      NumberOfComponents=" 3" format="ascii">
              0.133000000               0.000000000               0.000000000               0.155937500               0.000000000               0.000000000               0.178875000               0.000000000               0.000000000               0.201812500               0.000000000               0.000000000               0.224750000               0.000000000               0.000000000               0.247687500               0.000000000               0.000000000               0.270625000               0.000000000               0.000000000               0.293562500               0.000000000               0.000000000               0.316500000               0.000000000               0.000000000               0.339437500               0.000000000               0.000000000               0.362375000               0.000000000               0.000000000               0.385312500               0.000000000               0.000000000               0.408250000               0.000000000               0.000000000               0.431187500               0.000000000               0.000000000               0.454125000               0.000000000               0.000000000               0.477062500               0.000000000               0.000000000               0.500000000               0.000000000               0.000000000               0.132359569               0.013036280               0.000000000               0.155337096               0.016127762               0.000000000               0.178314623               0.019219245               0.000000000               0.201292150               0.022310727               0.000000000               0.224269676               0.025402210               0.000000000               0.247247203               0.028493692               0.000000000               0.270224730               0.031585175               0.000000000               0.293202257               0.034676657               0.000000000               0.316179784               0.037768140               0.000000000               0.339157311               0.040859622               0.000000000               0.362134838               0.043951105               0.000000000               0.385112365               0.047042587               0.000000000               0.408089892               0.050134070               0.000000000               0.431067419               0.053225552               0.000000000               0.454044946               0.056317035               0.000000000               0.477022473               0.059408517               0.000000000               0.500000000               0.062500000               0.000000000               0.130444442               0.025947013               0.000000000               0.153541665               0.032137825               0.000000000               0.176638887               0.038328636               0.000000000               0.199736109               0.044519448               0.000000000               0.222833332               0.050710260               0.000000000               0.245930554               0.056901071               0.000000000               0.269027776               0.063091883               0.000000000               0.292124999               0.069282695               0.000000000               0.315222221               0.075473506               0.000000000               0.338319444               0.081664318               0.000000000               0.361416666               0.087855130               0.000000000               0.384513888               0.094045942               0.000000000               0.407611111               0.100236753               0.000000000               0.430708333               0.106427565               0.000000000               0.453805555               0.112618377               0.000000000               0.476902778               0.118809188               0.000000000               0.500000000               0.125000000               0.000000000               0.127273065               0.038607862               0.000000000               0.150568498               0.047913621               0.000000000               0.173863932               0.057219379               0.000000000               0.197159365               0.066525138               0.000000000               0.220454798               0.075830897               0.000000000               0.243750232               0.085136655               0.000000000               0.267045665               0.094442414               0.000000000               0.290341099               0.103748172               0.000000000               0.313636532               0.113053931               0.000000000               0.336931966               0.122359690               0.000000000               0.360227399               0.131665448               0.000000000               0.383522833               0.140971207               0.000000000               0.406818266               0.150276966               0.000000000               0.430113700               0.159582724               0.000000000               0.453409133               0.168888483               0.000000000               0.476704567               0.178194241               0.000000000               0.500000000               0.187500000               0.000000000               0.122875978               0.050896897               0.000000000               0.146446229               0.063340840               0.000000000               0.170016481               0.075784784               0.000000000               0.193586732               0.088228728               0.000000000               0.217156983               0.100672672               0.000000000               0.240727235               0.113116616               0.000000000               0.264297486               0.125560560               0.000000000               0.287867738               0.138004504               0.000000000               0.311437989               0.150448448               0.000000000               0.335008240               0.162892392               0.000000000               0.358578492               0.175336336               0.000000000               0.382148743               0.187780280               0.000000000               0.405718994               0.200224224               0.000000000               0.429289246               0.212668168               0.000000000               0.452859497               0.225112112               0.000000000               0.476429749               0.237556056               0.000000000               0.500000000               0.250000000               0.000000000               0.117295528               0.062695766               0.000000000               0.141214558               0.078308531               0.000000000               0.165133587               0.093921295               0.000000000               0.189052617               0.109534060               0.000000000               0.212971646               0.125146824               0.000000000               0.236890676               0.140759589               0.000000000               0.260809705               0.156372354               0.000000000               0.284728735               0.171985118               0.000000000               0.308647764               0.187597883               0.000000000               0.332566794               0.203210648               0.000000000               0.356485823               0.218823412               0.000000000               0.380404853               0.234436177               0.000000000               0.404323882               0.250048941               0.000000000               0.428242912               0.265661706               0.000000000               0.452161941               0.281274471               0.000000000               0.476080971               0.296887235               0.000000000               0.500000000               0.312500000               0.000000000               0.110585458               0.073890841               0.000000000               0.134923867               0.092710163               0.000000000               0.159262276               0.111529486               0.000000000               0.183600685               0.130348808               0.000000000               0.207939094               0.149168131               0.000000000               0.232277503               0.167987453               0.000000000               0.256615912               0.186806776               0.000000000               0.280954320               0.205626098               0.000000000               0.305292729               0.224445420               0.000000000               0.329631138               0.243264743               0.000000000               0.353969547               0.262084065               0.000000000               0.378307956               0.280903388               0.000000000               0.402646365               0.299722710               0.000000000               0.426984773               0.318542033               0.000000000               0.451323182               0.337361355               0.000000000               0.475661591               0.356180678               0.000000000               0.500000000               0.375000000               0.000000000               0.102810390               0.084374307               0.000000000               0.127634741               0.106444663               0.000000000               0.152459092               0.128515018               0.000000000               0.177283442               0.150585374               0.000000000               0.202107793               0.172655730               0.000000000               0.226932143               0.194726086               0.000000000               0.251756494               0.216796442               0.000000000               0.276580845               0.238866798               0.000000000               0.301405195               0.260937153               0.000000000               0.326229546               0.283007509               0.000000000               0.351053896               0.305077865               0.000000000               0.375878247               0.327148221               0.000000000               0.400702598               0.349218577               0.000000000               0.425526948               0.371288933               0.000000000               0.450351299               0.393359288               0.000000000               0.475175649               0.415429644               0.000000000               0.500000000               0.437500000               0.000000000               0.094045202               0.094045202               0.000000000               0.119417377               0.119417377               0.000000000               0.144789552               0.144789552               0.000000000               0.170161727               0.170161727               0.000000000               0.195533901               0.195533901               0.000000000               0.220906076               0.220906076               0.000000000               0.246278251               0.246278251               0.000000000               0.271650426               0.271650426               0.000000000               0.297022601               0.297022601               0.000000000               0.322394776               0.322394776               0.000000000               0.347766951               0.347766951               0.000000000               0.373139126               0.373139126               0.000000000               0.398511300               0.398511300               0.000000000               0.423883475               0.423883475               0.000000000               0.449255650               0.449255650               0.000000000               0.474627825               0.474627825               0.000000000               0.500000000               0.500000000               0.000000000               0.084374307               0.102810390               0.000000000               0.106444663               0.127634741               0.000000000               0.128515018               0.152459092               0.000000000               0.150585374               0.177283442               0.000000000               0.172655730               0.202107793               0.000000000               0.194726086               0.226932143               0.000000000               0.216796442               0.251756494               0.000000000               0.238866798               0.276580845               0.000000000               0.260937153               0.301405195               0.000000000               0.283007509               0.326229546               0.000000000               0.305077865               0.351053896               0.000000000               0.327148221               0.375878247               0.000000000               0.349218577               0.400702598               0.000000000               0.371288933               0.425526948               0.000000000               0.393359288               0.450351299               0.000000000               0.415429644               0.475175649               0.000000000               0.437500000               0.500000000               0.000000000               0.073890841               0.110585458               0.000000000               0.092710163               0.134923867               0.000000000               0.111529486               0.159262276               0.000000000               0.130348808               0.183600685               0.000000000               0.149168131               0.207939094               0.000000000               0.167987453               0.232277503               0.000000000               0.186806776               0.256615912               0.000000000               0.205626098               0.280954320               0.000000000               0.224445420               0.305292729               0.000000000               0.243264743               0.329631138               0.000000000               0.262084065               0.353969547               0.000000000               0.280903388               0.378307956               0.000000000               0.299722710               0.402646365               0.000000000               0.318542033               0.426984773               0.000000000               0.337361355               0.451323182               0.000000000               0.356180678               0.475661591               0.000000000               0.375000000               0.500000000               0.000000000               0.062695766               0.117295528               0.000000000               0.078308531               0.141214558               0.000000000               0.093921295               0.165133587               0.000000000               0.109534060               0.189052617               0.000000000               0.125146824               0.212971646               0.000000000               0.140759589               0.236890676               0.000000000               0.156372354               0.260809705               0.000000000               0.171985118               0.284728735               0.000000000               0.187597883               0.308647764               0.000000000               0.203210648               0.332566794               0.000000000               0.218823412               0.356485823               0.000000000               0.234436177               0.380404853               0.000000000               0.250048941               0.404323882               0.000000000               0.265661706               0.428242912               0.000000000               0.281274471               0.452161941               0.000000000               0.296887235               0.476080971               0.000000000               0.312500000               0.500000000               0.000000000               0.050896897               0.122875978               0.000000000               0.063340840               0.146446229               0.000000000               0.075784784               0.170016481               0.000000000               0.088228728               0.193586732               0.000000000               0.100672672               0.217156983               0.000000000               0.113116616               0.240727235               0.000000000               0.125560560               0.264297486               0.000000000               0.138004504               0.287867738               0.000000000               0.150448448               0.311437989               0.000000000               0.162892392               0.335008240               0.000000000               0.175336336               0.358578492               0.000000000               0.187780280               0.382148743               0.000000000               0.200224224               0.405718994               0.000000000               0.212668168               0.429289246               0.000000000               0.225112112               0.452859497               0.000000000               0.237556056               0.476429749               0.000000000               0.250000000               0.500000000               0.000000000               0.038607862               0.127273065               0.000000000               0.047913621               0.150568498               0.000000000               0.057219379               0.173863932               0.000000000               0.066525138               0.197159365               0.000000000               0.075830897               0.220454798               0.000000000               0.085136655               0.243750232               0.000000000               0.094442414               0.267045665               0.000000000               0.103748172               0.290341099               0.000000000               0.113053931               0.313636532               0.000000000               0.122359690               0.336931966               0.000000000               0.131665448               0.360227399               0.000000000               0.140971207               0.383522833               0.000000000               0.150276966               0.406818266               0.000000000               0.159582724               0.430113700               0.000000000               0.168888483               0.453409133               0.000000000               0.178194241               0.476704567               0.000000000               0.187500000               0.500000000               0.000000000               0.025947013               0.130444442               0.000000000               0.032137825               0.153541665               0.000000000               0.038328636               0.176638887               0.000000000               0.044519448               0.199736109               0.000000000               0.050710260               0.222833332               0.000000000               0.056901071               0.245930554               0.000000000               0.063091883               0.269027776               0.000000000               0.069282695               0.292124999               0.000000000               0.075473506               0.315222221               0.000000000               0.081664318               0.338319444               0.000000000               0.087855130               0.361416666               0.000000000               0.094045942               0.384513888               0.000000000               0.100236753               0.407611111               0.000000000               0.106427565               0.430708333               0.000000000               0.112618377               0.453805555               0.000000000               0.118809188               0.476902778               0.000000000               0.125000000               0.500000000               0.000000000               0.013036280               0.132359569               0.000000000               0.016127762               0.155337096               0.000000000               0.019219245               0.178314623               0.000000000               0.022310727               0.201292150               0.000000000               0.025402210               0.224269676               0.000000000               0.028493692               0.247247203               0.000000000               0.031585175               0.270224730               0.000000000               0.034676657               0.293202257               0.000000000               0.037768140               0.316179784               0.000000000               0.040859622               0.339157311               0.000000000               0.043951105               0.362134838               0.000000000               0.047042587               0.385112365               0.000000000               0.050134070               0.408089892               0.000000000               0.053225552               0.431067419               0.000000000               0.056317035               0.454044946               0.000000000               0.059408517               0.477022473               0.000000000               0.062500000               0.500000000               0.000000000               0.000000000               0.133000000               0.000000000               0.000000000               0.155937500               0.000000000               0.000000000               0.178875000               0.000000000               0.000000000               0.201812500               0.000000000               0.000000000               0.224750000               0.000000000               0.000000000               0.247687500               0.000000000               0.000000000               0.270625000               0.000000000               0.000000000               0.293562500               0.000000000               0.000000000               0.316500000               0.000000000               0.000000000               0.339437500               0.000000000               0.000000000               0.362375000               0.000000000               0.000000000               0.385312500               0.000000000               0.000000000               0.408250000               0.000000000               0.000000000               0.431187500               0.000000000               0.000000000               0.454125000               0.000000000               0.000000000               0.477062500               0.000000000               0.000000000               0.500000000               0.000000000               0.133000000               0.000000000               0.000000000               0.155937500               0.000000000               0.000000000               0.178875000               0.000000000               0.000000000               0.201812500               0.000000000               0.000000000               0.224750000               0.000000000               0.000000000               0.247687500               0.000000000               0.000000000               0.270625000               0.000000000               0.000000000               0.293562500               0.000000000               0.000000000               0.316500000               0.000000000               0.000000000               0.339437500               0.000000000               0.000000000               0.362375000               0.000000000               0.000000000               0.385312500               0.000000000               0.000000000               0.408250000               0.000000000               0.000000000               0.431187500               0.000000000               0.000000000               0.454125000               0.000000000               0.000000000               0.477062500               0.000000000               0.000000000               0.500000000               0.000000000               0.000000000               0.132359569              -0.013036280               0.000000000               0.155337096              -0.016127762               0.000000000               0.178314623              -0.019219245               0.000000000               0.201292150              -0.022310727               0.000000000               0.224269676              -0.025402210               0.000000000               0.247247203              -0.028493692               0.000000000               0.270224730              -0.031585175               0.000000000               0.293202257              -0.034676657               0.000000000               0.316179784              -0.037768140               0.000000000               0.339157311              -0.040859622               0.000000000               0.362134838              -0.043951105               0.000000000               0.385112365              -0.047042587               0.000000000               0.408089892              -0.050134070               0.000000000               0.431067419              -0.053225552               0.000000000               0.454044946              -0.056317035               0.000000000               0.477022473              -0.059408517               0.000000000               0.500000000              -0.062500000               0.000000000               0.130444442              -0.025947013               0.000000000               0.153541665              -0.032137825               0.000000000               0.176638887              -0.038328636               0.000000000               0.199736109              -0.044519448               0.000000000               0.222833332              -0.050710260               0.000000000               0.245930554              -0.056901071               0.000000000               0.269027776              -0.063091883               0.000000000               0.292124999              -0.069282695               0.000000000               0.315222221              -0.075473506               0.000000000               0.338319444              -0.081664318               0.000000000               0.361416666              -0.087855130               0.000000000               0.384513888              -0.094045942               0.000000000               0.407611111              -0.100236753               0.000000000               0.430708333              -0.106427565               0.000000000               0.453805555              -0.112618377               0.000000000               0.476902778              -0.118809188               0.000000000               0.500000000              -0.125000000               0.000000000               0.127273065              -0.038607862               0.000000000               0.150568498              -0.047913621               0.000000000               0.173863932              -0.057219379               0.000000000               0.197159365              -0.066525138               0.000000000               0.220454798              -0.075830897               0.000000000               0.243750232              -0.085136655               0.000000000               0.267045665              -0.094442414               0.000000000               0.290341099              -0.103748172               0.000000000               0.313636532              -0.113053931               0.000000000               0.336931966              -0.122359690               0.000000000               0.360227399              -0.131665448               0.000000000               0.383522833              -0.140971207               0.000000000               0.406818266              -0.150276966               0.000000000               0.430113700              -0.159582724               0.000000000               0.453409133              -0.168888483               0.000000000               0.476704567              -0.178194241               0.000000000               0.500000000              -0.187500000               0.000000000               0.122875978              -0.050896897               0.000000000               0.146446229              -0.063340840               0.000000000               0.170016481              -0.075784784               0.000000000               0.193586732              -0.088228728               0.000000000               0.217156983              -0.100672672               0.000000000               0.240727235              -0.113116616               0.000000000               0.264297486              -0.125560560               0.000000000               0.287867738              -0.138004504               0.000000000               0.311437989              -0.150448448               0.000000000               0.335008240              -0.162892392               0.000000000               0.358578492              -0.175336336               0.000000000               0.382148743              -0.187780280               0.000000000               0.405718994              -0.200224224               0.000000000               0.429289246              -0.212668168               0.000000000               0.452859497              -0.225112112               0.000000000               0.476429749              -0.237556056               0.000000000               0.500000000              -0.250000000               0.000000000               0.117295528              -0.062695766               0.000000000               0.141214558              -0.078308531               0.000000000               0.165133587              -0.093921295               0.000000000               0.189052617              -0.109534060               0.000000000               0.212971646              -0.125146824               0.000000000               0.236890676              -0.140759589               0.000000000               0.260809705              -0.156372354               0.000000000               0.284728735              -0.171985118               0.000000000               0.308647764              -0.187597883               0.000000000               0.332566794              -0.203210648               0.000000000               0.356485823              -0.218823412               0.000000000               0.380404853              -0.234436177               0.000000000               0.404323882              -0.250048941               0.000000000               0.428242912              -0.265661706               0.000000000               0.452161941              -0.281274471               0.000000000               0.476080971              -0.296887235               0.000000000               0.500000000              -0.312500000               0.000000000               0.110585458              -0.073890841               0.000000000               0.134923867              -0.092710163               0.000000000               0.159262276              -0.111529486               0.000000000               0.183600685              -0.130348808               0.000000000               0.207939094              -0.149168131               0.000000000               0.232277503              -0.167987453               0.000000000               0.256615912              -0.186806776               0.000000000               0.280954320              -0.205626098               0.000000000               0.305292729              -0.224445420               0.000000000               0.329631138              -0.243264743               0.000000000               0.353969547              -0.262084065               0.000000000               0.378307956              -0.280903388               0.000000000               0.402646365              -0.299722710               0.000000000               0.426984773              -0.318542033               0.000000000               0.451323182              -0.337361355               0.000000000               0.475661591              -0.356180678               0.000000000               0.500000000              -0.375000000               0.000000000               0.102810390              -0.084374307               0.000000000               0.127634741              -0.106444663               0.000000000               0.152459092              -0.128515018               0.000000000               0.177283442              -0.150585374               0.000000000               0.202107793              -0.172655730               0.000000000               0.226932143              -0.194726086               0.000000000               0.251756494              -0.216796442               0.000000000               0.276580845              -0.238866798               0.000000000               0.301405195              -0.260937153               0.000000000               0.326229546              -0.283007509               0.000000000               0.351053896              -0.305077865               0.000000000               0.375878247              -0.327148221               0.000000000               0.400702598              -0.349218577               0.000000000               0.425526948              -0.371288933               0.000000000               0.450351299              -0.393359288               0.000000000               0.475175649              -0.415429644               0.000000000               0.500000000              -0.437500000               0.000000000               0.094045202              -0.094045202               0.000000000               0.119417377              -0.119417377               0.000000000               0.144789552              -0.144789552               0.000000000               0.170161727              -0.170161727               0.000000000               0.195533901              -0.195533901               0.000000000               0.220906076              -0.220906076               0.000000000               0.246278251              -0.246278251               0.000000000               0.271650426              -0.271650426               0.000000000               0.297022601              -0.297022601               0.000000000               0.322394776              -0.322394776               0.000000000               0.347766951              -0.347766951               0.000000000               0.373139126              -0.373139126               0.000000000               0.398511300              -0.398511300               0.000000000               0.423883475              -0.423883475               0.000000000               0.449255650              -0.449255650               0.000000000               0.474627825              -0.474627825               0.000000000               0.500000000              -0.500000000               0.000000000               0.084374307              -0.102810390               0.000000000               0.106444663              -0.127634741               0.000000000               0.128515018              -0.152459092               0.000000000               0.150585374              -0.177283442               0.000000000               0.172655730              -0.202107793               0.000000000               0.194726086              -0.226932143               0.000000000               0.216796442              -0.251756494               0.000000000               0.238866798              -0.276580845               0.000000000               0.260937153              -0.301405195               0.000000000               0.283007509              -0.326229546               0.000000000               0.305077865              -0.351053896               0.000000000               0.327148221              -0.375878247               0.000000000               0.349218577              -0.400702598               0.000000000               0.371288933              -0.425526948               0.000000000               0.393359288              -0.450351299               0.000000000               0.415429644              -0.475175649               0.000000000               0.437500000              -0.500000000               0.000000000               0.073890841              -0.110585458               0.000000000               0.092710163              -0.134923867               0.000000000               0.111529486              -0.159262276               0.000000000               0.130348808              -0.183600685               0.000000000               0.149168131              -0.207939094               0.000000000               0.167987453              -0.232277503               0.000000000               0.186806776              -0.256615912               0.000000000               0.205626098              -0.280954320               0.000000000               0.224445420              -0.305292729               0.000000000               0.243264743              -0.329631138               0.000000000               0.262084065              -0.353969547               0.000000000               0.280903388              -0.378307956               0.000000000               0.299722710              -0.402646365               0.000000000               0.318542033              -0.426984773               0.000000000               0.337361355              -0.451323182               0.000000000               0.356180678              -0.475661591               0.000000000               0.375000000              -0.500000000               0.000000000               0.062695766              -0.117295528               0.000000000               0.078308531              -0.141214558               0.000000000               0.093921295              -0.165133587               0.000000000               0.109534060              -0.189052617               0.000000000               0.125146824              -0.212971646               0.000000000               0.140759589              -0.236890676               0.000000000               0.156372354              -0.260809705               0.000000000               0.171985118              -0.284728735               0.000000000               0.187597883              -0.308647764               0.000000000               0.203210648              -0.332566794               0.000000000               0.218823412              -0.356485823               0.000000000               0.234436177              -0.380404853               0.000000000               0.250048941              -0.404323882               0.000000000               0.265661706              -0.428242912               0.000000000               0.281274471              -0.452161941               0.000000000               0.296887235              -0.476080971               0.000000000               0.312500000              -0.500000000               0.000000000               0.050896897              -0.122875978               0.000000000               0.063340840              -0.146446229               0.000000000               0.075784784              -0.170016481               0.000000000               0.088228728              -0.193586732               0.000000000               0.100672672              -0.217156983               0.000000000               0.113116616              -0.240727235               0.000000000               0.125560560              -0.264297486               0.000000000               0.138004504              -0.287867738               0.000000000               0.150448448              -0.311437989               0.000000000               0.162892392              -0.335008240               0.000000000               0.175336336              -0.358578492               0.000000000               0.187780280              -0.382148743               0.000000000               0.200224224              -0.405718994               0.000000000               0.212668168              -0.429289246               0.000000000               0.225112112              -0.452859497               0.000000000               0.237556056              -0.476429749               0.000000000               0.250000000              -0.500000000               0.000000000               0.038607862              -0.127273065               0.000000000               0.047913621              -0.150568498               0.000000000               0.057219379              -0.173863932               0.000000000               0.066525138              -0.197159365               0.000000000               0.075830897              -0.220454798               0.000000000               0.085136655              -0.243750232               0.000000000               0.094442414              -0.267045665               0.000000000               0.103748172              -0.290341099               0.000000000               0.113053931              -0.313636532               0.000000000               0.122359690              -0.336931966               0.000000000               0.131665448              -0.360227399               0.000000000               0.140971207              -0.383522833               0.000000000               0.150276966              -0.406818266               0.000000000               0.159582724              -0.430113700               0.000000000               0.168888483              -0.453409133               0.000000000               0.178194241              -0.476704567               0.000000000               0.187500000              -0.500000000               0.000000000               0.025947013              -0.130444442               0.000000000               0.032137825              -0.153541665               0.000000000               0.038328636              -0.176638887               0.000000000               0.044519448              -0.199736109               0.000000000               0.050710260              -0.222833332               0.000000000               0.056901071              -0.245930554               0.000000000               0.063091883              -0.269027776               0.000000000               0.069282695              -0.292124999               0.000000000               0.075473506              -0.315222221               0.000000000               0.081664318              -0.338319444               0.000000000               0.087855130              -0.361416666               0.000000000               0.094045942              -0.384513888               0.000000000               0.100236753              -0.407611111               0.000000000               0.106427565              -0.430708333               0.000000000               0.112618377              -0.453805555               0.000000000               0.118809188              -0.476902778               0.000000000               0.125000000              -0.500000000               0.000000000               0.013036280              -0.132359569               0.000000000               0.016127762              -0.155337096               0.000000000               0.019219245              -0.178314623               0.000000000               0.022310727              -0.201292150               0.000000000               0.025402210              -0.224269676               0.000000000               0.028493692              -0.247247203               0.000000000               0.031585175              -0.270224730               0.000000000               0.034676657              -0.293202257               0.000000000               0.037768140              -0.316179784               0.000000000               0.040859622              -0.339157311               0.000000000               0.043951105              -0.362134838               0.000000000               0.047042587              -0.385112365               0.000000000               0.050134070              -0.408089892               0.000000000               0.053225552              -0.431067419               0.000000000               0.056317035              -0.454044946               0.000000000               0.059408517              -0.477022473               0.000000000               0.062500000              -0.500000000               0.000000000               0.000000000              -0.133000000               0.000000000               0.000000000              -0.155937500               0.000000000               0.000000000              -0.178875000               0.000000000               0.000000000              -0.201812500               0.000000000               0.000000000              -0.224750000               0.000000000               0.000000000              -0.247687500               0.000000000               0.000000000              -0.270625000               0.000000000               0.000000000              -0.293562500               0.000000000               0.000000000              -0.316500000               0.000000000               0.000000000              -0.339437500               0.000000000               0.000000000              -0.362375000               0.000000000               0.000000000              -0.385312500               0.000000000               0.000000000              -0.408250000               0.000000000               0.000000000              -0.431187500               0.000000000               0.000000000              -0.454125000               0.000000000               0.000000000              -0.477062500               0.000000000               0.000000000              -0.500000000               0.000000000              -0.133000000               0.000000000               0.000000000              -0.155937500               0.000000000               0.000000000              -0.178875000               0.000000000               0.000000000              -0.201812500               0.000000000               0.000000000              -0.224750000               0.000000000               0.000000000              -0.247687500               0.000000000               0.000000000              -0.270625000               0.000000000               0.000000000              -0.293562500               0.000000000               0.000000000              -0.316500000               0.000000000               0.000000000              -0.339437500               0.000000000               0.000000000              -0.362375000               0.000000000               0.000000000              -0.385312500               0.000000000               0.000000000              -0.408250000               0.000000000               0.000000000              -0.431187500               0.000000000               0.000000000              -0.454125000               0.000000000               0.000000000              -0.477062500               0.000000000               0.000000000              -0.500000000               0.000000000               0.000000000              -0.132359569              -0.013036280               0.000000000              -0.155337096              -0.016127762               0.000000000              -0.178314623              -0.019219245               0.000000000              -0.201292150              -0.022310727               0.000000000              -0.224269676              -0.025402210               0.000000000              -0.247247203              -0.028493692               0.000000000              -0.270224730              -0.031585175               0.000000000              -0.293202257              -0.034676657               0.000000000              -0.316179784              -0.037768140               0.000000000              -0.339157311              -0.040859622               0.000000000              -0.362134838              -0.043951105               0.000000000              -0.385112365              -0.047042587               0.000000000              -0.408089892              -0.050134070               0.000000000              -0.431067419              -0.053225552               0.000000000              -0.454044946              -0.056317035               0.000000000              -0.477022473              -0.059408517               0.000000000              -0.500000000              -0.062500000               0.000000000              -0.130444442              -0.025947013               0.000000000              -0.153541665              -0.032137825               0.000000000              -0.176638887              -0.038328636               0.000000000              -0.199736109              -0.044519448               0.000000000              -0.222833332              -0.050710260               0.000000000              -0.245930554              -0.056901071               0.000000000              -0.269027776              -0.063091883               0.000000000              -0.292124999              -0.069282695               0.000000000              -0.315222221              -0.075473506               0.000000000              -0.338319444              -0.081664318               0.000000000              -0.361416666              -0.087855130               0.000000000              -0.384513888              -0.094045942               0.000000000              -0.407611111              -0.100236753               0.000000000              -0.430708333              -0.106427565               0.000000000              -0.453805555              -0.112618377               0.000000000              -0.476902778              -0.118809188               0.000000000              -0.500000000              -0.125000000               0.000000000              -0.127273065              -0.038607862               0.000000000              -0.150568498              -0.047913621               0.000000000              -0.173863932              -0.057219379               0.000000000              -0.197159365              -0.066525138               0.000000000              -0.220454798              -0.075830897               0.000000000              -0.243750232              -0.085136655               0.000000000              -0.267045665              -0.094442414               0.000000000              -0.290341099              -0.103748172               0.000000000              -0.313636532              -0.113053931               0.000000000              -0.336931966              -0.122359690               0.000000000              -0.360227399              -0.131665448               0.000000000              -0.383522833              -0.140971207               0.000000000              -0.406818266              -0.150276966               0.000000000              -0.430113700              -0.159582724               0.000000000              -0.453409133              -0.168888483               0.000000000              -0.476704567              -0.178194241               0.000000000              -0.500000000              -0.187500000               0.000000000              -0.122875978              -0.050896897               0.000000000              -0.146446229              -0.063340840               0.000000000              -0.170016481              -0.075784784               0.000000000              -0.193586732              -0.088228728               0.000000000              -0.217156983              -0.100672672               0.000000000              -0.240727235              -0.113116616               0.000000000              -0.264297486              -0.125560560               0.000000000              -0.287867738              -0.138004504               0.000000000              -0.311437989              -0.150448448               0.000000000              -0.335008240              -0.162892392               0.000000000              -0.358578492              -0.175336336               0.000000000              -0.382148743              -0.187780280               0.000000000              -0.405718994              -0.200224224               0.000000000              -0.429289246              -0.212668168               0.000000000              -0.452859497              -0.225112112               0.000000000              -0.476429749              -0.237556056               0.000000000              -0.500000000              -0.250000000               0.000000000              -0.117295528              -0.062695766               0.000000000              -0.141214558              -0.078308531               0.000000000              -0.165133587              -0.093921295               0.000000000              -0.189052617              -0.109534060               0.000000000              -0.212971646              -0.125146824               0.000000000              -0.236890676              -0.140759589               0.000000000              -0.260809705              -0.156372354               0.000000000              -0.284728735              -0.171985118               0.000000000              -0.308647764              -0.187597883               0.000000000              -0.332566794              -0.203210648               0.000000000              -0.356485823              -0.218823412               0.000000000              -0.380404853              -0.234436177               0.000000000              -0.404323882              -0.250048941               0.000000000              -0.428242912              -0.265661706               0.000000000              -0.452161941              -0.281274471               0.000000000              -0.476080971              -0.296887235               0.000000000              -0.500000000              -0.312500000               0.000000000              -0.110585458              -0.073890841               0.000000000              -0.134923867              -0.092710163               0.000000000              -0.159262276              -0.111529486               0.000000000              -0.183600685              -0.130348808               0.000000000              -0.207939094              -0.149168131               0.000000000              -0.232277503              -0.167987453               0.000000000              -0.256615912              -0.186806776               0.000000000              -0.280954320              -0.205626098               0.000000000              -0.305292729              -0.224445420               0.000000000              -0.329631138              -0.243264743               0.000000000              -0.353969547              -0.262084065               0.000000000              -0.378307956              -0.280903388               0.000000000              -0.402646365              -0.299722710               0.000000000              -0.426984773              -0.318542033               0.000000000              -0.451323182              -0.337361355               0.000000000              -0.475661591              -0.356180678               0.000000000              -0.500000000              -0.375000000               0.000000000              -0.102810390              -0.084374307               0.000000000              -0.127634741              -0.106444663               0.000000000              -0.152459092              -0.128515018               0.000000000              -0.177283442              -0.150585374               0.000000000              -0.202107793              -0.172655730               0.000000000              -0.226932143              -0.194726086               0.000000000              -0.251756494              -0.216796442               0.000000000              -0.276580845              -0.238866798               0.000000000              -0.301405195              -0.260937153               0.000000000              -0.326229546              -0.283007509               0.000000000              -0.351053896              -0.305077865               0.000000000              -0.375878247              -0.327148221               0.000000000              -0.400702598              -0.349218577               0.000000000              -0.425526948              -0.371288933               0.000000000              -0.450351299              -0.393359288               0.000000000              -0.475175649              -0.415429644               0.000000000              -0.500000000              -0.437500000               0.000000000              -0.094045202              -0.094045202               0.000000000              -0.119417377              -0.119417377               0.000000000              -0.144789552              -0.144789552               0.000000000              -0.170161727              -0.170161727               0.000000000              -0.195533901              -0.195533901               0.000000000              -0.220906076              -0.220906076               0.000000000              -0.246278251              -0.246278251               0.000000000              -0.271650426              -0.271650426               0.000000000              -0.297022601              -0.297022601               0.000000000              -0.322394776              -0.322394776               0.000000000              -0.347766951              -0.347766951               0.000000000              -0.373139126              -0.373139126               0.000000000              -0.398511300              -0.398511300               0.000000000              -0.423883475              -0.423883475               0.000000000              -0.449255650              -0.449255650               0.000000000              -0.474627825              -0.474627825               0.000000000              -0.500000000              -0.500000000               0.000000000              -0.084374307              -0.102810390               0.000000000              -0.106444663              -0.127634741               0.000000000              -0.128515018              -0.152459092               0.000000000              -0.150585374              -0.177283442               0.000000000              -0.172655730              -0.202107793               0.000000000              -0.194726086              -0.226932143               0.000000000              -0.216796442              -0.251756494               0.000000000              -0.238866798              -0.276580845               0.000000000              -0.260937153              -0.301405195               0.000000000              -0.283007509              -0.326229546               0.000000000              -0.305077865              -0.351053896               0.000000000              -0.327148221              -0.375878247               0.000000000              -0.349218577              -0.400702598               0.000000000              -0.371288933              -0.425526948               0.000000000              -0.393359288              -0.450351299               0.000000000              -0.415429644              -0.475175649               0.000000000              -0.437500000              -0.500000000               0.000000000              -0.073890841              -0.110585458               0.000000000              -0.092710163              -0.134923867               0.000000000              -0.111529486              -0.159262276               0.000000000              -0.130348808              -0.183600685               0.000000000              -0.149168131              -0.207939094               0.000000000              -0.167987453              -0.232277503               0.000000000              -0.186806776              -0.256615912               0.000000000              -0.205626098              -0.280954320               0.000000000              -0.224445420              -0.305292729               0.000000000              -0.243264743              -0.329631138               0.000000000              -0.262084065              -0.353969547               0.000000000              -0.280903388              -0.378307956               0.000000000              -0.299722710              -0.402646365               0.000000000              -0.318542033              -0.426984773               0.000000000              -0.337361355              -0.451323182               0.000000000              -0.356180678              -0.475661591               0.000000000              -0.375000000              -0.500000000               0.000000000              -0.062695766              -0.117295528               0.000000000              -0.078308531              -0.141214558               0.000000000              -0.093921295              -0.165133587               0.000000000              -0.109534060              -0.189052617               0.000000000              -0.125146824              -0.212971646               0.000000000              -0.140759589              -0.236890676               0.000000000              -0.156372354              -0.260809705               0.000000000              -0.171985118              -0.284728735               0.000000000              -0.187597883              -0.308647764               0.000000000              -0.203210648              -0.332566794               0.000000000              -0.218823412              -0.356485823               0.000000000              -0.234436177              -0.380404853               0.000000000              -0.250048941              -0.404323882               0.000000000              -0.265661706              -0.428242912               0.000000000              -0.281274471              -0.452161941               0.000000000              -0.296887235              -0.476080971               0.000000000              -0.312500000              -0.500000000               0.000000000              -0.050896897              -0.122875978               0.000000000              -0.063340840              -0.146446229               0.000000000              -0.075784784              -0.170016481               0.000000000              -0.088228728              -0.193586732               0.000000000              -0.100672672              -0.217156983               0.000000000              -0.113116616              -0.240727235               0.000000000              -0.125560560              -0.264297486               0.000000000              -0.138004504              -0.287867738               0.000000000              -0.150448448              -0.311437989               0.000000000              -0.162892392              -0.335008240               0.000000000              -0.175336336              -0.358578492               0.000000000              -0.187780280              -0.382148743               0.000000000              -0.200224224              -0.405718994               0.000000000              -0.212668168              -0.429289246               0.000000000              -0.225112112              -0.452859497               0.000000000              -0.237556056              -0.476429749               0.000000000              -0.250000000              -0.500000000               0.000000000              -0.038607862              -0.127273065               0.000000000              -0.047913621              -0.150568498               0.000000000              -0.057219379              -0.173863932               0.000000000              -0.066525138              -0.197159365               0.000000000              -0.075830897              -0.220454798               0.000000000              -0.085136655              -0.243750232               0.000000000              -0.094442414              -0.267045665               0.000000000              -0.103748172              -0.290341099               0.000000000              -0.113053931              -0.313636532               0.000000000              -0.122359690              -0.336931966               0.000000000              -0.131665448              -0.360227399               0.000000000              -0.140971207              -0.383522833               0.000000000              -0.150276966              -0.406818266               0.000000000              -0.159582724              -0.430113700               0.000000000              -0.168888483              -0.453409133               0.000000000              -0.178194241              -0.476704567               0.000000000              -0.187500000              -0.500000000               0.000000000              -0.025947013              -0.130444442               0.000000000              -0.032137825              -0.153541665               0.000000000              -0.038328636              -0.176638887               0.000000000              -0.044519448              -0.199736109               0.000000000              -0.050710260              -0.222833332               0.000000000              -0.056901071              -0.245930554               0.000000000              -0.063091883              -0.269027776               0.000000000              -0.069282695              -0.292124999               0.000000000              -0.075473506              -0.315222221               0.000000000              -0.081664318              -0.338319444               0.000000000              -0.087855130              -0.361416666               0.000000000              -0.094045942              -0.384513888               0.000000000              -0.100236753              -0.407611111               0.000000000              -0.106427565              -0.430708333               0.000000000              -0.112618377              -0.453805555               0.000000000              -0.118809188              -0.476902778               0.000000000              -0.125000000              -0.500000000               0.000000000              -0.013036280              -0.132359569               0.000000000              -0.016127762              -0.155337096               0.000000000              -0.019219245              -0.178314623               0.000000000              -0.022310727              -0.201292150               0.000000000              -0.025402210              -0.224269676               0.000000000              -0.028493692              -0.247247203               0.000000000              -0.031585175              -0.270224730               0.000000000              -0.034676657              -0.293202257               0.000000000              -0.037768140              -0.316179784               0.000000000              -0.040859622              -0.339157311               0.000000000              -0.043951105              -0.362134838               0.000000000              -0.047042587              -0.385112365               0.000000000              -0.050134070              -0.408089892               0.000000000              -0.053225552              -0.431067419               0.000000000              -0.056317035              -0.454044946               0.000000000              -0.059408517              -0.477022473               0.000000000              -0.062500000              -0.500000000               0.000000000               0.000000000              -0.133000000               0.000000000               0.000000000              -0.155937500               0.000000000               0.000000000              -0.178875000               0.000000000               0.000000000              -0.201812500               0.000000000               0.000000000              -0.224750000               0.000000000               0.000000000              -0.247687500               0.000000000               0.000000000              -0.270625000               0.000000000               0.000000000              -0.293562500               0.000000000               0.000000000              -0.316500000               0.000000000               0.000000000              -0.339437500               0.000000000               0.000000000              -0.362375000               0.000000000               0.000000000              -0.385312500               0.000000000               0.000000000              -0.408250000               0.000000000               0.000000000              -0.431187500               0.000000000               0.000000000              -0.454125000               0.000000000               0.000000000              -0.477062500               0.000000000               0.000000000              -0.500000000               0.000000000              -0.133000000               0.000000000               0.000000000              -0.155937500               0.000000000               0.000000000              -0.178875000               0.000000000               0.000000000              -0.201812500               0.000000000               0.000000000              -0.224750000               0.000000000               0.000000000              -0.247687500               0.000000000               0.000000000              -0.270625000               0.000000000               0.000000000              -0.293562500               0.000000000               0.000000000              -0.316500000               0.000000000               0.000000000              -0.339437500               0.000000000               0.000000000              -0.362375000               0.000000000               0.000000000              -0.385312500               0.000000000               0.000000000              -0.408250000               0.000000000               0.000000000              -0.431187500               0.000000000               0.000000000              -0.454125000               0.000000000               0.000000000              -0.477062500               0.000000000               0.000000000              -0.500000000               0.000000000               0.000000000              -0.132359569               0.013036280               0.000000000              -0.155337096               0.016127762               0.000000000              -0.178314623               0.019219245               0.000000000              -0.201292150               0.022310727               0.000000000              -0.224269676               0.025402210               0.000000000              -0.247247203               0.028493692               0.000000000              -0.270224730               0.031585175               0.000000000              -0.293202257               0.034676657               0.000000000              -0.316179784               0.037768140               0.000000000              -0.339157311               0.040859622               0.000000000              -0.362134838               0.043951105               0.000000000              -0.385112365               0.047042587               0.000000000              -0.408089892               0.050134070               0.000000000              -0.431067419               0.053225552               0.000000000              -0.454044946               0.056317035               0.000000000              -0.477022473               0.059408517               0.000000000              -0.500000000               0.062500000               0.000000000              -0.130444442               0.025947013               0.000000000              -0.153541665               0.032137825               0.000000000              -0.176638887               0.038328636               0.000000000              -0.199736109               0.044519448               0.000000000              -0.222833332               0.050710260               0.000000000              -0.245930554               0.056901071               0.000000000              -0.269027776               0.063091883               0.000000000              -0.292124999               0.069282695               0.000000000              -0.315222221               0.075473506               0.000000000              -0.338319444               0.081664318               0.000000000              -0.361416666               0.087855130               0.000000000              -0.384513888               0.094045942               0.000000000              -0.407611111               0.100236753               0.000000000              -0.430708333               0.106427565               0.000000000              -0.453805555               0.112618377               0.000000000              -0.476902778               0.118809188               0.000000000              -0.500000000               0.125000000               0.000000000              -0.127273065               0.038607862               0.000000000              -0.150568498               0.047913621               0.000000000              -0.173863932               0.057219379               0.000000000              -0.197159365               0.066525138               0.000000000              -0.220454798               0.075830897               0.000000000              -0.243750232               0.085136655               0.000000000              -0.267045665               0.094442414               0.000000000              -0.290341099               0.103748172               0.000000000              -0.313636532               0.113053931               0.000000000              -0.336931966               0.122359690               0.000000000              -0.360227399               0.131665448               0.000000000              -0.383522833               0.140971207               0.000000000              -0.406818266               0.150276966               0.000000000              -0.430113700               0.159582724               0.000000000              -0.453409133               0.168888483               0.000000000              -0.476704567               0.178194241               0.000000000              -0.500000000               0.187500000               0.000000000              -0.122875978               0.050896897               0.000000000              -0.146446229               0.063340840               0.000000000              -0.170016481               0.075784784               0.000000000              -0.193586732               0.088228728               0.000000000              -0.217156983               0.100672672               0.000000000              -0.240727235               0.113116616               0.000000000              -0.264297486               0.125560560               0.000000000              -0.287867738               0.138004504               0.000000000              -0.311437989               0.150448448               0.000000000              -0.335008240               0.162892392               0.000000000              -0.358578492               0.175336336               0.000000000              -0.382148743               0.187780280               0.000000000              -0.405718994               0.200224224               0.000000000              -0.429289246               0.212668168               0.000000000              -0.452859497               0.225112112               0.000000000              -0.476429749               0.237556056               0.000000000              -0.500000000               0.250000000               0.000000000              -0.117295528               0.062695766               0.000000000              -0.141214558               0.078308531               0.000000000              -0.165133587               0.093921295               0.000000000              -0.189052617               0.109534060               0.000000000              -0.212971646               0.125146824               0.000000000              -0.236890676               0.140759589               0.000000000              -0.260809705               0.156372354               0.000000000              -0.284728735               0.171985118               0.000000000              -0.308647764               0.187597883               0.000000000              -0.332566794               0.203210648               0.000000000              -0.356485823               0.218823412               0.000000000              -0.380404853               0.234436177               0.000000000              -0.404323882               0.250048941               0.000000000              -0.428242912               0.265661706               0.000000000              -0.452161941               0.281274471               0.000000000              -0.476080971               0.296887235               0.000000000              -0.500000000               0.312500000               0.000000000              -0.110585458               0.073890841               0.000000000              -0.134923867               0.092710163               0.000000000              -0.159262276               0.111529486               0.000000000              -0.183600685               0.130348808               0.000000000              -0.207939094               0.149168131               0.000000000              -0.232277503               0.167987453               0.000000000              -0.256615912               0.186806776               0.000000000              -0.280954320               0.205626098               0.000000000              -0.305292729               0.224445420               0.000000000              -0.329631138               0.243264743               0.000000000              -0.353969547               0.262084065               0.000000000              -0.378307956               0.280903388               0.000000000              -0.402646365               0.299722710               0.000000000              -0.426984773               0.318542033               0.000000000              -0.451323182               0.337361355               0.000000000              -0.475661591               0.356180678               0.000000000              -0.500000000               0.375000000               0.000000000              -0.102810390               0.084374307               0.000000000              -0.127634741               0.106444663               0.000000000              -0.152459092               0.128515018               0.000000000              -0.177283442               0.150585374               0.000000000              -0.202107793               0.172655730               0.000000000              -0.226932143               0.194726086               0.000000000              -0.251756494               0.216796442               0.000000000              -0.276580845               0.238866798               0.000000000              -0.301405195               0.260937153               0.000000000              -0.326229546               0.283007509               0.000000000              -0.351053896               0.305077865               0.000000000              -0.375878247               0.327148221               0.000000000              -0.400702598               0.349218577               0.000000000              -0.425526948               0.371288933               0.000000000              -0.450351299               0.393359288               0.000000000              -0.475175649               0.415429644               0.000000000              -0.500000000               0.437500000               0.000000000              -0.094045202               0.094045202               0.000000000              -0.119417377               0.119417377               0.000000000              -0.144789552               0.144789552               0.000000000              -0.170161727               0.170161727               0.000000000              -0.195533901               0.195533901               0.000000000              -0.220906076               0.220906076               0.000000000              -0.246278251               0.246278251               0.000000000              -0.271650426               0.271650426               0.000000000              -0.297022601               0.297022601               0.000000000              -0.322394776               0.322394776               0.000000000              -0.347766951               0.347766951               0.000000000              -0.373139126               0.373139126               0.000000000              -0.398511300               0.398511300               0.000000000              -0.423883475               0.423883475               0.000000000              -0.449255650               0.449255650               0.000000000              -0.474627825               0.474627825               0.000000000              -0.500000000               0.500000000               0.000000000              -0.084374307               0.102810390               0.000000000              -0.106444663               0.127634741               0.000000000              -0.128515018               0.152459092               0.000000000              -0.150585374               0.177283442               0.000000000              -0.172655730               0.202107793               0.000000000              -0.194726086               0.226932143               0.000000000              -0.216796442               0.251756494               0.000000000              -0.238866798               0.276580845               0.000000000              -0.260937153               0.301405195               0.000000000              -0.283007509               0.326229546               0.000000000              -0.305077865               0.351053896               0.000000000              -0.327148221               0.375878247               0.000000000              -0.349218577               0.400702598               0.000000000              -0.371288933               0.425526948               0.000000000              -0.393359288               0.450351299               0.000000000              -0.415429644               0.475175649               0.000000000              -0.437500000               0.500000000               0.000000000              -0.073890841               0.110585458               0.000000000              -0.092710163               0.134923867               0.000000000              -0.111529486               0.159262276               0.000000000              -0.130348808               0.183600685               0.000000000              -0.149168131               0.207939094               0.000000000              -0.167987453               0.232277503               0.000000000              -0.186806776               0.256615912               0.000000000              -0.205626098               0.280954320               0.000000000              -0.224445420               0.305292729               0.000000000              -0.243264743               0.329631138               0.000000000              -0.262084065               0.353969547               0.000000000              -0.280903388               0.378307956               0.000000000              -0.299722710               0.402646365               0.000000000              -0.318542033               0.426984773               0.000000000              -0.337361355               0.451323182               0.000000000              -0.356180678               0.475661591               0.000000000              -0.375000000               0.500000000               0.000000000              -0.062695766               0.117295528               0.000000000              -0.078308531               0.141214558               0.000000000              -0.093921295               0.165133587               0.000000000              -0.109534060               0.189052617               0.000000000              -0.125146824               0.212971646               0.000000000              -0.140759589               0.236890676               0.000000000              -0.156372354               0.260809705               0.000000000              -0.171985118               0.284728735               0.000000000              -0.187597883               0.308647764               0.000000000              -0.203210648               0.332566794               0.000000000              -0.218823412               0.356485823               0.000000000              -0.234436177               0.380404853               0.000000000              -0.250048941               0.404323882               0.000000000              -0.265661706               0.428242912               0.000000000              -0.281274471               0.452161941               0.000000000              -0.296887235               0.476080971               0.000000000              -0.312500000               0.500000000               0.000000000              -0.050896897               0.122875978               0.000000000              -0.063340840               0.146446229               0.000000000              -0.075784784               0.170016481               0.000000000              -0.088228728               0.193586732               0.000000000              -0.100672672               0.217156983               0.000000000              -0.113116616               0.240727235               0.000000000              -0.125560560               0.264297486               0.000000000              -0.138004504               0.287867738               0.000000000              -0.150448448               0.311437989               0.000000000              -0.162892392               0.335008240               0.000000000              -0.175336336               0.358578492               0.000000000              -0.187780280               0.382148743               0.000000000              -0.200224224               0.405718994               0.000000000              -0.212668168               0.429289246               0.000000000              -0.225112112               0.452859497               0.000000000              -0.237556056               0.476429749               0.000000000              -0.250000000               0.500000000               0.000000000              -0.038607862               0.127273065               0.000000000              -0.047913621               0.150568498               0.000000000              -0.057219379               0.173863932               0.000000000              -0.066525138               0.197159365               0.000000000              -0.075830897               0.220454798               0.000000000              -0.085136655               0.243750232               0.000000000              -0.094442414               0.267045665               0.000000000              -0.103748172               0.290341099               0.000000000              -0.113053931               0.313636532               0.000000000              -0.122359690               0.336931966               0.000000000              -0.131665448               0.360227399               0.000000000              -0.140971207               0.383522833               0.000000000              -0.150276966               0.406818266               0.000000000              -0.159582724               0.430113700               0.000000000              -0.168888483               0.453409133               0.000000000              -0.178194241               0.476704567               0.000000000              -0.187500000               0.500000000               0.000000000              -0.025947013               0.130444442               0.000000000              -0.032137825               0.153541665               0.000000000              -0.038328636               0.176638887               0.000000000              -0.044519448               0.199736109               0.000000000              -0.050710260               0.222833332               0.000000000              -0.056901071               0.245930554               0.000000000              -0.063091883               0.269027776               0.000000000              -0.069282695               0.292124999               0.000000000              -0.075473506               0.315222221               0.000000000              -0.081664318               0.338319444               0.000000000              -0.087855130               0.361416666               0.000000000              -0.094045942               0.384513888               0.000000000              -0.100236753               0.407611111               0.000000000              -0.106427565               0.430708333               0.000000000              -0.112618377               0.453805555               0.000000000              -0.118809188               0.476902778               0.000000000              -0.125000000               0.500000000               0.000000000              -0.013036280               0.132359569               0.000000000              -0.016127762               0.155337096               0.000000000              -0.019219245               0.178314623               0.000000000              -0.022310727               0.201292150               0.000000000              -0.025402210               0.224269676               0.000000000              -0.028493692               0.247247203               0.000000000              -0.031585175               0.270224730               0.000000000              -0.034676657               0.293202257               0.000000000              -0.037768140               0.316179784               0.000000000              -0.040859622               0.339157311               0.000000000              -0.043951105               0.362134838               0.000000000              -0.047042587               0.385112365               0.000000000              -0.050134070               0.408089892               0.000000000              -0.053225552               0.431067419               0.000000000              -0.056317035               0.454044946               0.000000000              -0.059408517               0.477022473               0.000000000              -0.062500000               0.500000000               0.000000000               0.000000000               0.133000000               0.000000000               0.000000000               0.155937500               0.000000000               0.000000000               0.178875000               0.000000000               0.000000000               0.201812500               0.000000000               0.000000000               0.224750000               0.000000000               0.000000000               0.247687500               0.000000000               0.000000000               0.270625000               0.000000000               0.000000000               0.293562500               0.000000000               0.000000000               0.316500000               0.000000000               0.000000000               0.339437500               0.000000000               0.000000000               0.362375000               0.000000000               0.000000000               0.385312500               0.000000000               0.000000000               0.408250000               0.000000000               0.000000000               0.431187500               0.000000000               0.000000000               0.454125000               0.000000000               0.000000000               0.477062500               0.000000000               0.000000000               0.500000000               0.000000000 </DataArray>
</Points>
<Cells>
<DataArray type="Int32"                                    Name="connectivity"                                                      NumberOfComponents=" 1" format="ascii">
         0          1         18         17          1          2         19         18          2          3         20         19          3          4         21         20          4          5         22         21          5          6         23         22          6          7         24         23          7          8         25         24          8          9         26         25          9         10         27         26         10         11         28         27         11         12         29         28         12         13         30         29         13         14         31         30         14         15         32         31         15         16         33         32         17         18         35         34         18         19         36         35         19         20         37         36         20         21         38         37         21         22         39         38         22         23         40         39         23         24         41         40         24         25         42         41         25         26         43         42         26         27         44         43         27         28         45         44         28         29         46         45         29         30         47         46         30         31         48         47         31         32         49         48         32         33         50         49         34         35         52         51         35         36         53         52         36         37         54         53         37         38         55         54         38         39         56         55         39         40         57         56         40         41         58         57         41         42         59         58         42         43         60         59         43         44         61         60         44         45         62         61         45         46         63         62         46         47         64         63         47         48         65         64         48         49         66         65         49         50         67         66         51         52         69         68         52         53         70         69         53         54         71         70         54         55         72         71         55         56         73         72         56         57         74         73         57         58         75         74         58         59         76         75         59         60         77         76         60         61         78         77         61         62         79         78         62         63         80         79         63         64         81         80         64         65         82         81         65         66         83         82         66         67         84         83         68         69         86         85         69         70         87         86         70         71         88         87         71         72         89         88         72         73         90         89         73         74         91         90         74         75         92         91         75         76         93         92         76         77         94         93         77         78         95         94         78         79         96         95         79         80         97         96         80         81         98         97         81         82         99         98         82         83        100         99         83         84        101        100         85         86        103        102         86         87        104        103         87         88        105        104         88         89        106        105         89         90        107        106         90         91        108        107         91         92        109        108         92         93        110        109         93         94        111        110         94         95        112        111         95         96        113        112         96         97        114        113         97         98        115        114         98         99        116        115         99        100        117        116        100        101        118        117        102        103        120        119        103        104        121        120        104        105        122        121        105        106        123        122        106        107        124        123        107        108        125        124        108        109        126        125        109        110        127        126        110        111        128        127        111        112        129        128        112        113        130        129        113        114        131        130        114        115        132        131        115        116        133        132        116        117        134        133        117        118        135        134        119        120        137        136        120        121        138        137        121        122        139        138        122        123        140        139        123        124        141        140        124        125        142        141        125        126        143        142        126        127        144        143        127        128        145        144        128        129        146        145        129        130        147        146        130        131        148        147        131        132        149        148        132        133        150        149        133        134        151        150        134        135        152        151        136        137        154        153        137        138        155        154        138        139        156        155        139        140        157        156        140        141        158        157        141        142        159        158        142        143        160        159        143        144        161        160        144        145        162        161        145        146        163        162        146        147        164        163        147        148        165        164        148        149        166        165        149        150        167        166        150        151        168        167        151        152        169        168        153        154        171        170        154        155        172        171        155        156        173        172        156        157        174        173        157        158        175        174        158        159        176        175        159        160        177        176        160        161        178        177        161        162        179        178        162        163        180        179        163        164        181        180        164        165        182        181        165        166        183        182        166        167        184        183        167        168        185        184        168        169        186        185        170        171        188        187        171        172        189        188        172        173        190        189        173        174        191        190        174        175        192        191        175        176        193        192        176        177        194        193        177        178        195        194        178        179        196        195        179        180        197        196        180        181        198        197        181        182        199        198        182        183        200        199        183        184        201        200        184        185        202        201        185        186        203        202        187        188        205        204        188        189        206        205        189        190        207        206        190        191        208        207        191        192        209        208        192        193        210        209        193        194        211        210        194        195        212        211        195        196        213        212        196        197        214        213        197        198        215        214        198        199        216        215        199        200        217        216        200        201        218        217        201        202        219        218        202        203        220        219        204        205        222        221        205        206        223        222        206        207        224        223        207        208        225        224        208        209        226        225        209        210        227        226        210        211        228        227        211        212        229        228        212        213        230        229        213        214        231        230        214        215        232        231        215        216        233        232        216        217        234        233        217        218        235        234        218        219        236        235        219        220        237        236        221        222        239        238        222        223        240        239        223        224        241        240        224        225        242        241        225        226        243        242        226        227        244        243        227        228        245        244        228        229        246        245        229        230        247        246        230        231        248        247        231        232        249        248        232        233        250        249        233        234        251        250        234        235        252        251        235        236        253        252        236        237        254        253        238        239        256        255        239        240        257        256        240        241        258        257        241        242        259        258        242        243        260        259        243        244        261        260        244        245        262        261        245        246        263        262        246        247        264        263        247        248        265        264        248        249        266        265        249        250        267        266        250        251        268        267        251        252        269        268        252        253        270        269        253        254        271        270        255        256        273        272        256        257        274        273        257        258        275        274        258        259        276        275        259        260        277        276        260        261        278        277        261        262        279        278        262        263        280        279        263        264        281        280        264        265        282        281        265        266        283        282        266        267        284        283        267        268        285        284        268        269        286        285        269        270        287        286        270        271        288        287        306        307          1          0        307        308          2          1        308        309          3          2        309        310          4          3        310        311          5          4        311        312          6          5        312        313          7          6        313        314          8          7        314        315          9          8        315        316         10          9        316        317         11         10        317        318         12         11        318        319         13         12        319        320         14         13        320        321         15         14        321        322         16         15        323        324        307        306        324        325        308        307        325        326        309        308        326        327        310        309        327        328        311        310        328        329        312        311        329        330        313        312        330        331        314        313        331        332        315        314        332        333        316        315        333        334        317        316        334        335        318        317        335        336        319        318        336        337        320        319        337        338        321        320        338        339        322        321        340        341        324        323        341        342        325        324        342        343        326        325        343        344        327        326        344        345        328        327        345        346        329        328        346        347        330        329        347        348        331        330        348        349        332        331        349        350        333        332        350        351        334        333        351        352        335        334        352        353        336        335        353        354        337        336        354        355        338        337        355        356        339        338        357        358        341        340        358        359        342        341        359        360        343        342        360        361        344        343        361        362        345        344        362        363        346        345        363        364        347        346        364        365        348        347        365        366        349        348        366        367        350        349        367        368        351        350        368        369        352        351        369        370        353        352        370        371        354        353        371        372        355        354        372        373        356        355        374        375        358        357        375        376        359        358        376        377        360        359        377        378        361        360        378        379        362        361        379        380        363        362        380        381        364        363        381        382        365        364        382        383        366        365        383        384        367        366        384        385        368        367        385        386        369        368        386        387        370        369        387        388        371        370        388        389        372        371        389        390        373        372        391        392        375        374        392        393        376        375        393        394        377        376        394        395        378        377        395        396        379        378        396        397        380        379        397        398        381        380        398        399        382        381        399        400        383        382        400        401        384        383        401        402        385        384        402        403        386        385        403        404        387        386        404        405        388        387        405        406        389        388        406        407        390        389        408        409        392        391        409        410        393        392        410        411        394        393        411        412        395        394        412        413        396        395        413        414        397        396        414        415        398        397        415        416        399        398        416        417        400        399        417        418        401        400        418        419        402        401        419        420        403        402        420        421        404        403        421        422        405        404        422        423        406        405        423        424        407        406        425        426        409        408        426        427        410        409        427        428        411        410        428        429        412        411        429        430        413        412        430        431        414        413        431        432        415        414        432        433        416        415        433        434        417        416        434        435        418        417        435        436        419        418        436        437        420        419        437        438        421        420        438        439        422        421        439        440        423        422        440        441        424        423        442        443        426        425        443        444        427        426        444        445        428        427        445        446        429        428        446        447        430        429        447        448        431        430        448        449        432        431        449        450        433        432        450        451        434        433        451        452        435        434        452        453        436        435        453        454        437        436        454        455        438        437        455        456        439        438        456        457        440        439        457        458        441        440        459        460        443        442        460        461        444        443        461        462        445        444        462        463        446        445        463        464        447        446        464        465        448        447        465        466        449        448        466        467        450        449        467        468        451        450        468        469        452        451        469        470        453        452        470        471        454        453        471        472        455        454        472        473        456        455        473        474        457        456        474        475        458        457        476        477        460        459        477        478        461        460        478        479        462        461        479        480        463        462        480        481        464        463        481        482        465        464        482        483        466        465        483        484        467        466        484        485        468        467        485        486        469        468        486        487        470        469        487        488        471        470        488        489        472        471        489        490        473        472        490        491        474        473        491        492        475        474        493        494        477        476        494        495        478        477        495        496        479        478        496        497        480        479        497        498        481        480        498        499        482        481        499        500        483        482        500        501        484        483        501        502        485        484        502        503        486        485        503        504        487        486        504        505        488        487        505        506        489        488        506        507        490        489        507        508        491        490        508        509        492        491        510        511        494        493        511        512        495        494        512        513        496        495        513        514        497        496        514        515        498        497        515        516        499        498        516        517        500        499        517        518        501        500        518        519        502        501        519        520        503        502        520        521        504        503        521        522        505        504        522        523        506        505        523        524        507        506        524        525        508        507        525        526        509        508        527        528        511        510        528        529        512        511        529        530        513        512        530        531        514        513        531        532        515        514        532        533        516        515        533        534        517        516        534        535        518        517        535        536        519        518        536        537        520        519        537        538        521        520        538        539        522        521        539        540        523        522        540        541        524        523        541        542        525        524        542        543        526        525        544        545        528        527        545        546        529        528        546        547        530        529        547        548        531        530        548        549        532        531        549        550        533        532        550        551        534        533        551        552        535        534        552        553        536        535        553        554        537        536        554        555        538        537        555        556        539        538        556        557        540        539        557        558        541        540        558        559        542        541        559        560        543        542        561        562        545        544        562        563        546        545        563        564        547        546        564        565        548        547        565        566        549        548        566        567        550        549        567        568        551        550        568        569        552        551        569        570        553        552        570        571        554        553        571        572        555        554        572        573        556        555        573        574        557        556        574        575        558        557        575        576        559        558        576        577        560        559        578        579        596        595        579        580        597        596        580        581        598        597        581        582        599        598        582        583        600        599        583        584        601        600        584        585        602        601        585        586        603        602        586        587        604        603        587        588        605        604        588        589        606        605        589        590        607        606        590        591        608        607        591        592        609        608        592        593        610        609        593        594        611        610        595        596        613        612        596        597        614        613        597        598        615        614        598        599        616        615        599        600        617        616        600        601        618        617        601        602        619        618        602        603        620        619        603        604        621        620        604        605        622        621        605        606        623        622        606        607        624        623        607        608        625        624        608        609        626        625        609        610        627        626        610        611        628        627        612        613        630        629        613        614        631        630        614        615        632        631        615        616        633        632        616        617        634        633        617        618        635        634        618        619        636        635        619        620        637        636        620        621        638        637        621        622        639        638        622        623        640        639        623        624        641        640        624        625        642        641        625        626        643        642        626        627        644        643        627        628        645        644        629        630        647        646        630        631        648        647        631        632        649        648        632        633        650        649        633        634        651        650        634        635        652        651        635        636        653        652        636        637        654        653        637        638        655        654        638        639        656        655        639        640        657        656        640        641        658        657        641        642        659        658        642        643        660        659        643        644        661        660        644        645        662        661        646        647        664        663        647        648        665        664        648        649        666        665        649        650        667        666        650        651        668        667        651        652        669        668        652        653        670        669        653        654        671        670        654        655        672        671        655        656        673        672        656        657        674        673        657        658        675        674        658        659        676        675        659        660        677        676        660        661        678        677        661        662        679        678        663        664        681        680        664        665        682        681        665        666        683        682        666        667        684        683        667        668        685        684        668        669        686        685        669        670        687        686        670        671        688        687        671        672        689        688        672        673        690        689        673        674        691        690        674        675        692        691        675        676        693        692        676        677        694        693        677        678        695        694        678        679        696        695        680        681        698        697        681        682        699        698        682        683        700        699        683        684        701        700        684        685        702        701        685        686        703        702        686        687        704        703        687        688        705        704        688        689        706        705        689        690        707        706        690        691        708        707        691        692        709        708        692        693        710        709        693        694        711        710        694        695        712        711        695        696        713        712        697        698        715        714        698        699        716        715        699        700        717        716        700        701        718        717        701        702        719        718        702        703        720        719        703        704        721        720        704        705        722        721        705        706        723        722        706        707        724        723        707        708        725        724        708        709        726        725        709        710        727        726        710        711        728        727        711        712        729        728        712        713        730        729        714        715        732        731        715        716        733        732        716        717        734        733        717        718        735        734        718        719        736        735        719        720        737        736        720        721        738        737        721        722        739        738        722        723        740        739        723        724        741        740        724        725        742        741        725        726        743        742        726        727        744        743        727        728        745        744        728        729        746        745        729        730        747        746        731        732        749        748        732        733        750        749        733        734        751        750        734        735        752        751        735        736        753        752        736        737        754        753        737        738        755        754        738        739        756        755        739        740        757        756        740        741        758        757        741        742        759        758        742        743        760        759        743        744        761        760        744        745        762        761        745        746        763        762        746        747        764        763        748        749        766        765        749        750        767        766        750        751        768        767        751        752        769        768        752        753        770        769        753        754        771        770        754        755        772        771        755        756        773        772        756        757        774        773        757        758        775        774        758        759        776        775        759        760        777        776        760        761        778        777        761        762        779        778        762        763        780        779        763        764        781        780        765        766        783        782        766        767        784        783        767        768        785        784        768        769        786        785        769        770        787        786        770        771        788        787        771        772        789        788        772        773        790        789        773        774        791        790        774        775        792        791        775        776        793        792        776        777        794        793        777        778        795        794        778        779        796        795        779        780        797        796        780        781        798        797        782        783        800        799        783        784        801        800        784        785        802        801        785        786        803        802        786        787        804        803        787        788        805        804        788        789        806        805        789        790        807        806        790        791        808        807        791        792        809        808        792        793        810        809        793        794        811        810        794        795        812        811        795        796        813        812        796        797        814        813        797        798        815        814        799        800        817        816        800        801        818        817        801        802        819        818        802        803        820        819        803        804        821        820        804        805        822        821        805        806        823        822        806        807        824        823        807        808        825        824        808        809        826        825        809        810        827        826        810        811        828        827        811        812        829        828        812        813        830        829        813        814        831        830        814        815        832        831        816        817        834        833        817        818        835        834        818        819        836        835        819        820        837        836        820        821        838        837        821        822        839        838        822        823        840        839        823        824        841        840        824        825        842        841        825        826        843        842        826        827        844        843        827        828        845        844        828        829        846        845        829        830        847        846        830        831        848        847        831        832        849        848        833        834        562        561        834        835        563        562        835        836        564        563        836        837        565        564        837        838        566        565        838        839        567        566        839        840        568        567        840        841        569        568        841        842        570        569        842        843        571        570        843        844        572        571        844        845        573        572        845        846        574        573        846        847        575        574        847        848        576        575        848        849        577        576        884        885        579        578        885        886        580        579        886        887        581        580        887        888        582        581        888        889        583        582        889        890        584        583        890        891        585        584        891        892        586        585        892        893        587        586        893        894        588        587        894        895        589        588        895        896        590        589        896        897        591        590        897        898        592        591        898        899        593        592        899        900        594        593        901        902        885        884        902        903        886        885        903        904        887        886        904        905        888        887        905        906        889        888        906        907        890        889        907        908        891        890        908        909        892        891        909        910        893        892        910        911        894        893        911        912        895        894        912        913        896        895        913        914        897        896        914        915        898        897        915        916        899        898        916        917        900        899        918        919        902        901        919        920        903        902        920        921        904        903        921        922        905        904        922        923        906        905        923        924        907        906        924        925        908        907        925        926        909        908        926        927        910        909        927        928        911        910        928        929        912        911        929        930        913        912        930        931        914        913        931        932        915        914        932        933        916        915        933        934        917        916        935        936        919        918        936        937        920        919        937        938        921        920        938        939        922        921        939        940        923        922        940        941        924        923        941        942        925        924        942        943        926        925        943        944        927        926        944        945        928        927        945        946        929        928        946        947        930        929        947        948        931        930        948        949        932        931        949        950        933        932        950        951        934        933        952        953        936        935        953        954        937        936        954        955        938        937        955        956        939        938        956        957        940        939        957        958        941        940        958        959        942        941        959        960        943        942        960        961        944        943        961        962        945        944        962        963        946        945        963        964        947        946        964        965        948        947        965        966        949        948        966        967        950        949        967        968        951        950        969        970        953        952        970        971        954        953        971        972        955        954        972        973        956        955        973        974        957        956        974        975        958        957        975        976        959        958        976        977        960        959        977        978        961        960        978        979        962        961        979        980        963        962        980        981        964        963        981        982        965        964        982        983        966        965        983        984        967        966        984        985        968        967        986        987        970        969        987        988        971        970        988        989        972        971        989        990        973        972        990        991        974        973        991        992        975        974        992        993        976        975        993        994        977        976        994        995        978        977        995        996        979        978        996        997        980        979        997        998        981        980        998        999        982        981        999       1000        983        982       1000       1001        984        983       1001       1002        985        984       1003       1004        987        986       1004       1005        988        987       1005       1006        989        988       1006       1007        990        989       1007       1008        991        990       1008       1009        992        991       1009       1010        993        992       1010       1011        994        993       1011       1012        995        994       1012       1013        996        995       1013       1014        997        996       1014       1015        998        997       1015       1016        999        998       1016       1017       1000        999       1017       1018       1001       1000       1018       1019       1002       1001       1020       1021       1004       1003       1021       1022       1005       1004       1022       1023       1006       1005       1023       1024       1007       1006       1024       1025       1008       1007       1025       1026       1009       1008       1026       1027       1010       1009       1027       1028       1011       1010       1028       1029       1012       1011       1029       1030       1013       1012       1030       1031       1014       1013       1031       1032       1015       1014       1032       1033       1016       1015       1033       1034       1017       1016       1034       1035       1018       1017       1035       1036       1019       1018       1037       1038       1021       1020       1038       1039       1022       1021       1039       1040       1023       1022       1040       1041       1024       1023       1041       1042       1025       1024       1042       1043       1026       1025       1043       1044       1027       1026       1044       1045       1028       1027       1045       1046       1029       1028       1046       1047       1030       1029       1047       1048       1031       1030       1048       1049       1032       1031       1049       1050       1033       1032       1050       1051       1034       1033       1051       1052       1035       1034       1052       1053       1036       1035       1054       1055       1038       1037       1055       1056       1039       1038       1056       1057       1040       1039       1057       1058       1041       1040       1058       1059       1042       1041       1059       1060       1043       1042       1060       1061       1044       1043       1061       1062       1045       1044       1062       1063       1046       1045       1063       1064       1047       1046       1064       1065       1048       1047       1065       1066       1049       1048       1066       1067       1050       1049       1067       1068       1051       1050       1068       1069       1052       1051       1069       1070       1053       1052       1071       1072       1055       1054       1072       1073       1056       1055       1073       1074       1057       1056       1074       1075       1058       1057       1075       1076       1059       1058       1076       1077       1060       1059       1077       1078       1061       1060       1078       1079       1062       1061       1079       1080       1063       1062       1080       1081       1064       1063       1081       1082       1065       1064       1082       1083       1066       1065       1083       1084       1067       1066       1084       1085       1068       1067       1085       1086       1069       1068       1086       1087       1070       1069       1088       1089       1072       1071       1089       1090       1073       1072       1090       1091       1074       1073       1091       1092       1075       1074       1092       1093       1076       1075       1093       1094       1077       1076       1094       1095       1078       1077       1095       1096       1079       1078       1096       1097       1080       1079       1097       1098       1081       1080       1098       1099       1082       1081       1099       1100       1083       1082       1100       1101       1084       1083       1101       1102       1085       1084       1102       1103       1086       1085       1103       1104       1087       1086       1105       1106       1089       1088       1106       1107       1090       1089       1107       1108       1091       1090       1108       1109       1092       1091       1109       1110       1093       1092       1110       1111       1094       1093       1111       1112       1095       1094       1112       1113       1096       1095       1113       1114       1097       1096       1114       1115       1098       1097       1115       1116       1099       1098       1116       1117       1100       1099       1117       1118       1101       1100       1118       1119       1102       1101       1119       1120       1103       1102       1120       1121       1104       1103       1122       1123       1106       1105       1123       1124       1107       1106       1124       1125       1108       1107       1125       1126       1109       1108       1126       1127       1110       1109       1127       1128       1111       1110       1128       1129       1112       1111       1129       1130       1113       1112       1130       1131       1114       1113       1131       1132       1115       1114       1132       1133       1116       1115       1133       1134       1117       1116       1134       1135       1118       1117       1135       1136       1119       1118       1136       1137       1120       1119       1137       1138       1121       1120        272        273       1123       1122        273        274       1124       1123        274        275       1125       1124        275        276       1126       1125        276        277       1127       1126        277        278       1128       1127        278        279       1129       1128        279        280       1130       1129        280        281       1131       1130        281        282       1132       1131        282        283       1133       1132        283        284       1134       1133        284        285       1135       1134        285        286       1136       1135        286        287       1137       1136        287        288       1138       1137 </DataArray>
<DataArray type="Int32"                                    Name="offsets"                                                      NumberOfComponents=" 1" format="ascii">
         4          8         12         16         20         24         28         32         36         40         44         48         52         56         60         64         68         72         76         80         84         88         92         96        100        104        108        112        116        120        124        128        132        136        140        144        148        152        156        160        164        168        172        176        180        184        188        192        196        200        204        208        212        216        220        224        228        232        236        240        244        248        252        256        260        264        268        272        276        280        284        288        292        296        300        304        308        312        316        320        324        328        332        336        340        344        348        352        356        360        364        368        372        376        380        384        388        392        396        400        404        408        412        416        420        424        428        432        436        440        444        448        452        456        460        464        468        472        476        480        484        488        492        496        500        504        508        512        516        520        524        528        532        536        540        544        548        552        556        560        564        568        572        576        580        584        588        592        596        600        604        608        612        616        620        624        628        632        636        640        644        648        652        656        660        664        668        672        676        680        684        688        692        696        700        704        708        712        716        720        724        728        732        736        740        744        748        752        756        760        764        768        772        776        780        784        788        792        796        800        804        808        812        816        820        824        828        832        836        840        844        848        852        856        860        864        868        872        876        880        884        888        892        896        900        904        908        912        916        920        924        928        932        936        940        944        948        952        956        960        964        968        972        976        980        984        988        992        996       1000       1004       1008       1012       1016       1020       1024       1028       1032       1036       1040       1044       1048       1052       1056       1060       1064       1068       1072       1076       1080       1084       1088       1092       1096       1100       1104       1108       1112       1116       1120       1124       1128       1132       1136       1140       1144       1148       1152       1156       1160       1164       1168       1172       1176       1180       1184       1188       1192       1196       1200       1204       1208       1212       1216       1220       1224       1228       1232       1236       1240       1244       1248       1252       1256       1260       1264       1268       1272       1276       1280       1284       1288       1292       1296       1300       1304       1308       1312       1316       1320       1324       1328       1332       1336       1340       1344       1348       1352       1356       1360       1364       1368       1372       1376       1380       1384       1388       1392       1396       1400       1404       1408       1412       1416       1420       1424       1428       1432       1436       1440       1444       1448       1452       1456       1460       1464       1468       1472       1476       1480       1484       1488       1492       1496       1500       1504       1508       1512       1516       1520       1524       1528       1532       1536       1540       1544       1548       1552       1556       1560       1564       1568       1572       1576       1580       1584       1588       1592       1596       1600       1604       1608       1612       1616       1620       1624       1628       1632       1636       1640       1644       1648       1652       1656       1660       1664       1668       1672       1676       1680       1684       1688       1692       1696       1700       1704       1708       1712       1716       1720       1724       1728       1732       1736       1740       1744       1748       1752       1756       1760       1764       1768       1772       1776       1780       1784       1788       1792       1796       1800       1804       1808       1812       1816       1820       1824       1828       1832       1836       1840       1844       1848       1852       1856       1860       1864       1868       1872       1876       1880       1884       1888       1892       1896       1900       1904       1908       1912       1916       1920       1924       1928       1932       1936       1940       1944       1948       1952       1956       1960       1964       1968       1972       1976       1980       1984       1988       1992       1996       2000       2004       2008       2012       2016       2020       2024       2028       2032       2036       2040       2044       2048       2052       2056       2060       2064       2068       2072       2076       2080       2084       2088       2092       2096       2100       2104       2108       2112       2116       2120       2124       2128       2132       2136       2140       2144       2148       2152       2156       2160       2164       2168       2172       2176       2180       2184       2188       2192       2196       2200       2204       2208       2212       2216       2220       2224       2228       2232       2236       2240       2244       2248       2252       2256       2260       2264       2268       2272       2276       2280       2284       2288       2292       2296       2300       2304       2308       2312       2316       2320       2324       2328       2332       2336       2340       2344       2348       2352       2356       2360       2364       2368       2372       2376       2380       2384       2388       2392       2396       2400       2404       2408       2412       2416       2420       2424       2428       2432       2436       2440       2444       2448       2452       2456       2460       2464       2468       2472       2476       2480       2484       2488       2492       2496       2500       2504       2508       2512       2516       2520       2524       2528       2532       2536       2540       2544       2548       2552       2556       2560       2564       2568       2572       2576       2580       2584       2588       2592       2596       2600       2604       2608       2612       2616       2620       2624       2628       2632       2636       2640       2644       2648       2652       2656       2660       2664       2668       2672       2676       2680       2684       2688       2692       2696       2700       2704       2708       2712       2716       2720       2724       2728       2732       2736       2740       2744       2748       2752       2756       2760       2764       2768       2772       2776       2780       2784       2788       2792       2796       2800       2804       2808       2812       2816       2820       2824       2828       2832       2836       2840       2844       2848       2852       2856       2860       2864       2868       2872       2876       2880       2884       2888       2892       2896       2900       2904       2908       2912       2916       2920       2924       2928       2932       2936       2940       2944       2948       2952       2956       2960       2964       2968       2972       2976       2980       2984       2988       2992       2996       3000       3004       3008       3012       3016       3020       3024       3028       3032       3036       3040       3044       3048       3052       3056       3060       3064       3068       3072       3076       3080       3084       3088       3092       3096       3100       3104       3108       3112       3116       3120       3124       3128       3132       3136       3140       3144       3148       3152       3156       3160       3164       3168       3172       3176       3180       3184       3188       3192       3196       3200       3204       3208       3212       3216       3220       3224       3228       3232       3236       3240       3244       3248       3252       3256       3260       3264       3268       3272       3276       3280       3284       3288       3292       3296       3300       3304       3308       3312       3316       3320       3324       3328       3332       3336       3340       3344       3348       3352       3356       3360       3364       3368       3372       3376       3380       3384       3388       3392       3396       3400       3404       3408       3412       3416       3420       3424       3428       3432       3436       3440       3444       3448       3452       3456       3460       3464       3468       3472       3476       3480       3484       3488       3492       3496       3500       3504       3508       3512       3516       3520       3524       3528       3532       3536       3540       3544       3548       3552       3556       3560       3564       3568       3572       3576       3580       3584       3588       3592       3596       3600       3604       3608       3612       3616       3620       3624       3628       3632       3636       3640       3644       3648       3652       3656       3660       3664       3668       3672       3676       3680       3684       3688       3692       3696       3700       3704       3708       3712       3716       3720       3724       3728       3732       3736       3740       3744       3748       3752       3756       3760       3764       3768       3772       3776       3780       3784       3788       3792       3796       3800       3804       3808       3812       3816       3820       3824       3828       3832       3836       3840       3844       3848       3852       3856       3860       3864       3868       3872       3876       3880       3884       3888       3892       3896       3900       3904       3908       3912       3916       3920       3924       3928       3932       3936       3940       3944       3948       3952       3956       3960       3964       3968       3972       3976       3980       3984       3988       3992       3996       4000       4004       4008       4012       4016       4020       4024       4028       4032       4036       4040       4044       4048       4052       4056       4060       4064       4068       4072       4076       4080       4084       4088       4092       4096 </DataArray>
<DataArray type="UInt8"                                    Name="types"                                                      NumberOfComponents=" 1" format="ascii">
         9          9          9          9          9          9          9          9          9          9          9          9          9          9          9          9          9          9          9          9          9          9          9          9          9          9          9          9          9          9          9          9          9          9          9          9          9          9          9          9          9          9          9          9          9          9          9          9          9          9          9          9          9          9          9          9          9          9          9          9          9          9          9          9          9          9          9          9          9          9          9          9          9          9          9          9          9          9          9          9          9          9          9          9          9          9          9          9          9          9          9          9          9          9          9          9          9          9          9          9          9          9          9          9          9          9          9          9          9          9          9          9          9          9          9          9          9          9          9          9          9          9          9          9          9          9          9          9          9          9          9          9          9          9          9          9          9          9          9          9          9          9          9          9          9          9          9          9          9          9          9          9          9          9          9          9          9          9          9          9          9          9          9          9          9          9          9          9          9          9          9          9          9          9          9          9          9          9          9          9          9          9          9          9          9          9          9          9          9          9          9          9          9          9          9          9          9          9          9          9          9          9          9          9          9          9          9          9          9          9          9          9          9          9          9          9          9          9          9          9          9          9          9          9          9          9          9          9          9          9          9          9          9          9          9          9          9          9          9          9          9          9          9          9          9          9          9          9          9          9          9          9          9          9          9          9          9          9          9          9          9          9          9          9          9          9          9          9          9          9          9          9          9          9          9          9          9          9          9          9          9          9          9          9          9          9          9          9          9          9          9          9          9          9          9          9          9          9          9          9          9          9          9          9          9          9          9          9          9          9          9          9          9          9          9          9          9          9          9          9          9          9          9          9          9          9          9          9          9          9          9          9          9          9          9          9          9          9          9          9          9          9          9          9          9          9          9          9          9          9          9          9          9          9          9          9          9          9          9          9          9          9          9          9          9          9          9          9          9          9          9          9          9          9          9          9          9          9          9          9          9          9          9          9          9          9          9          9          9          9          9          9          9          9          9          9          9          9          9          9          9          9          9          9          9          9          9          9          9          9          9          9          9          9          9          9          9          9          9          9          9          9          9          9          9          9          9          9          9          9          9          9          9          9          9          9          9          9          9          9          9          9          9          9          9          9          9          9          9          9          9          9          9          9          9          9          9          9          9          9          9          9          9          9          9          9          9          9          9          9          9          9          9          9          9          9          9          9          9          9          9          9          9          9          9          9          9          9          9          9          9          9          9          9          9          9          9          9          9          9          9          9          9          9          9          9          9          9          9          9          9          9          9          9          9          9          9          9          9          9          9          9          9          9          9          9          9          9          9          9          9          9          9          9          9          9          9          9          9          9          9          9          9          9          9          9          9          9          9          9          9          9          9          9          9          9          9          9          9          9          9          9          9          9          9          9          9          9          9          9          9          9          9          9          9          9          9          9          9          9          9          9          9          9          9          9          9          9          9          9          9          9          9          9          9          9          9          9          9          9          9          9          9          9          9          9          9          9          9          9          9          9          9          9          9          9          9          9          9          9          9          9          9          9          9          9          9          9          9          9          9          9          9          9          9          9          9          9          9          9          9          9          9          9          9          9          9          9          9          9          9          9          9          9          9          9          9          9          9          9          9          9          9          9          9          9          9          9          9          9          9          9          9          9          9          9          9          9          9          9          9          9          9          9          9          9          9          9          9          9          9          9          9          9          9          9          9          9          9          9          9          9          9          9          9          9          9          9          9          9          9          9          9          9          9          9          9          9          9          9          9          9          9          9          9          9          9          9          9          9          9          9          9          9          9          9          9          9          9          9          9          9          9          9          9          9          9          9          9          9          9          9          9          9          9          9          9          9          9          9          9          9          9          9          9          9          9          9          9          9          9          9          9          9          9          9          9          9          9          9          9          9          9          9          9          9          9          9          9          9          9          9          9          9          9          9          9          9          9          9          9          9          9          9          9          9          9          9          9          9          9          9          9          9          9          9          9          9          9          9          9          9          9          9          9          9          9          9          9          9          9          9          9          9          9          9          9          9          9          9          9          9          9          9          9          9          9          9          9          9          9          9          9          9          9          9          9          9          9          9          9          9          9          9          9          9          9          9          9          9          9          9          9          9          9          9          9          9          9          9          9          9          9          9          9          9          9          9          9          9          9          9          9          9          9          9          9          9          9          9          9          9          9          9          9          9          9          9          9          9          9          9          9          9          9          9          9          9          9          9          9          9          9          9          9          9          9          9          9          9          9          9          9          9          9          9          9          9          9          9          9          9          9          9          9          9          9          9          9          9          9          9          9          9          9          9          9          9          9          9          9          9          9          9          9          9          9          9          9          9          9          9          9          9          9          9          9          9          9          9          9          9          9          9          9          9          9          9          9          9          9          9          9          9          9          9          9          9          9          9          9          9          9          9          9          9          9          9          9          9          9          9          9          9          9          9          9          9          9          9          9          9          9          9 </DataArray>
</Cells>
<CellData>
<DataArray type="Int32"                                    Name="material"                                                      NumberOfComponents=" 1" format="ascii">
         1          1          1          1          1          1          1          1          1          1          1          1          1          1          1          1          1          1          1          1          1          1          1          1          1          1          1          1          1          1          1          1          1          1          1          1          1          1          1          1          1          1          1          1          1          1          1          1          1          1          1          1          1          1          1          1          1          1          1          1          1          1          1          1          1          1          1          1          1          1          1          1          1          1          1          1          1          1          1          1          1          1          1          1          1          1          1          1          1          1          1          1          1          1          1          1          1          1          1          1          1          1          1          1          1          1          1          1          1          1          1          1          1          1          1          1          1          1          1          1          1          1          1          1          1          1          1          1          1          1          1          1          1          1          1          1          1          1          1          1          1          1          1          1          1          1          1          1          1          1          1          1          1          1          1          1          1          1          1          1          1          1          1          1          1          1          1          1          1          1          1          1          1          1          1          1          1          1          1          1          1          1          1          1          1          1          1          1          1          1          1          1          1          1          1          1          1          1          1          1          1          1          1          1          1          1          1          1          1          1          1          1          1          1          1          1          1          1          1          1          1          1          1          1          1          1          1          1          1          1          1          1          1          1          1          1          1          1          1          1          1          1          1          1          1          1          1          1          1          1          1          1          1          1          1          1          1          1          1          1          1          1          1          1          1          1          1          1          1          1          1          1          1          1          1          1          1          1          1          1          1          1          1          1          1          1          1          1          1          1          1          1          1          1          1          1          1          1          1          1          1          1          1          1          1          1          1          1          1          1          1          1          1          1          1          1          1          1          1          1          1          1          1          1          1          1          1          1          1          1          1          1          1          1          1          1          1          1          1          1          1          1          1          1          1          1          1          1          1          1          1          1          1          1          1          1          1          1          1          1          1          1          1          1          1          1          1          1          1          1          1          1          1          1          1          1          1          1          1          1          1          1          1          1          1          1          1          1          1          1          1          1          1          1          1          1          1          1          1          1          1          1          1          1          1          1          1          1          1          1          1          1          1          1          1          1          1          1          1          1          1          1          1          1          1          1          1          1          1          1          1          1          1          1          1          1          1          1          1          1          1          1          1          1          1          1          1          1          1          1          1          1          1          1          1          1          1          1          1          1          1          1          1          1          1          1          1          1          1          1          1          1          1          1          1          1          1          1          1          1          1          1          1          1          1          1          1          1          1          1          1          1          1          1          1          1          1          1          1          1          1          1          1          1          1          1          1          1          1          1          1          1          1          1          1          1          1          1          1          1          1          1          1          1          1          1          1          1          1          1          1          1          1          1          1          1          1          1          1          1          1          1          1          1          1          1          1          1          1          1          1          1          1          1          1          1          1          1          1          1          1          1          1          1          1          1          1          1          1          1          1          1          1          1          1          1          1          1          1          1          1          1          1          1          1          1          1          1          1          1          1          1          1          1          1          1          1          1          1          1          1          1          1          1          1          1          1          1          1          1          1          1          1          1          1          1          1          1          1          1          1          1          1          1          1          1          1          1          1          1          1          1          1          1          1          1          1          1          1          1          1          1          1          1          1          1          1          1          1          1          1          1          1          1          1          1          1          1          1          1          1          1          1          1          1          1          1          1          1          1          1          1          1          1          1          1          1          1          1          1          1          1          1          1          1          1          1          1          1          1          1          1          1          1          1          1          1          1          1          1          1          1          1          1          1          1          1          1          1          1          1          1          1          1          1          1          1          1          1          1          1          1          1          1          1          1          1          1          1          1          1          1          1          1          1          1          1          1          1          1          1          1          1          1          1          1          1          1          1          1          1          1          1          1          1          1          1          1          1          1          1          1          1          1          1          1          1          1          1          1          1          1          1          1          1          1          1          1          1          1          1          1          1          1          1          1          1          1          1          1          1          1          1          1          1          1          1          1          1          1          1          1          1          1          1          1          1          1          1          1          1          1          1          1          1          1          1          1          1          1          1          1          1          1          1          1          1          1          1          1          1          1          1          1          1          1          1          1          1          1          1          1          1          1          1          1          1          1          1          1          1          1          1          1          1          1          1          1          1          1          1          1          1          1          1          1          1          1          1          1          1          1          1          1          1          1          1          1          1          1          1          1          1          1          1          1          1          1          1          1          1          1          1          1          1          1          1          1          1          1          1          1          1          1          1          1          1          1          1          1          1          1          1          1          1          1          1          1          1          1          1          1          1          1          1          1          1          1          1          1          1          1          1          1          1          1          1          1          1          1          1          1          1          1          1          1          1          1          1          1          1          1          1          1          1          1          1          1          1          1          1          1          1          1          1          1          1          1          1          1          1          1          1          1          1          1          1          1          1          1          1          1          1          1          1          1          1          1          1          1          1          1          1          1          1          1          1          1          1          1          1          1          1          1          1          1          1          1          1          1          1          1          1          1          1          1          1          1          1          1          1          1          1          1 </DataArray>
</CellData>
<PointData>
<DataArray type="Float64"                                    Name="u"                                                      NumberOfComponents=" 3" format="ascii">
             -0.000790095              -0.000000000               0.999999989              -0.000833769               0.000000000               0.999999989              -0.000852178               0.000000000               0.999999989              -0.000862431               0.000000000               0.999999989              -0.000870568               0.000000000               0.999999989              -0.000878848              -0.000000000               0.999999989              -0.000887904               0.000000000               0.999999989              -0.000897640               0.000000000               0.999999989              -0.000907849               0.000000000               0.999999989              -0.000918236               0.000000000               0.999999989              -0.000928641               0.000000000               0.999999989              -0.000938936               0.000000000               0.999999989              -0.000948705               0.000000000               0.999999989              -0.000957474              -0.000000000               0.999999989              -0.000964877               0.000000000               0.999999989              -0.000970375               0.000000000               0.999999989              -0.000973239              -0.000000000               0.999999989              -0.000785636               0.000114257               0.999999989              -0.000825576               0.000090419               0.999999989              -0.000841545               0.000079381               0.999999989              -0.000850177               0.000074535               0.999999989              -0.000857286               0.000072816               0.999999989              -0.000864821               0.000072472               0.999999989              -0.000873121               0.000072723               0.999999989              -0.000882108               0.000072769               0.999999989              -0.000891468               0.000072158               0.999999989              -0.000900948               0.000070679               0.999999989              -0.000910322               0.000068145               0.999999989              -0.000919192               0.000064252               0.999999989              -0.000927268               0.000058671               0.999999989              -0.000934157               0.000051004               0.999999989              -0.000939490               0.000040758               0.999999989              -0.000942801               0.000027148               0.999999989              -0.000943451               0.000009089               0.999999989              -0.000772305               0.000227459               0.999999989              -0.000801392               0.000180559               0.999999989              -0.000810719               0.000159627               0.999999989              -0.000815227               0.000150903               0.999999989              -0.000819570               0.000148122               0.999999989              -0.000824907               0.000147938               0.999999989              -0.000831156               0.000148530               0.999999989              -0.000838011               0.000148690               0.999999989              -0.000844991               0.000147524               0.999999989              -0.000851698               0.000144665               0.999999989              -0.000857862               0.000139620               0.999999989              -0.000862953               0.000131764               0.999999989              -0.000866657               0.000120762               0.999999989              -0.000868662               0.000106004               0.999999989              -0.000868492               0.000086443               0.999999989              -0.000865800               0.000061085               0.999999989              -0.000860375               0.000028520               0.999999989              -0.000750595               0.000338534               0.999999989              -0.000762733               0.000270253               0.999999989              -0.000762517               0.000241452               0.999999989              -0.000761481               0.000230463               0.999999989              -0.000762179               0.000227719               0.999999989              -0.000764549               0.000228228               0.999999989              -0.000767916               0.000229478               0.999999989              -0.000771692               0.000229831               0.999999989              -0.000775178               0.000228107               0.999999989              -0.000777690               0.000223894               0.999999989              -0.000778775               0.000216354               0.999999989              -0.000778021               0.000204877               0.999999989              -0.000775082               0.000188923               0.999999989              -0.000769531               0.000167852               0.999999989              -0.000761119               0.000140565               0.999999989              -0.000749856               0.000106422               0.999999989              -0.000736110               0.000064911               0.999999989              -0.000721145               0.000446522               0.999999989              -0.000711627               0.000359419               0.999999989              -0.000700618               0.000325280               0.999999989              -0.000693953               0.000313822               0.999999989              -0.000691061               0.000312017               0.999999989              -0.000690361               0.000313718               0.999999989              -0.000690637               0.000315870               0.999999989              -0.000690807               0.000316558               0.999999989              -0.000689890               0.000314309               0.999999989              -0.000687064               0.000308655               0.999999989              -0.000681698               0.000298779               0.999999989              -0.000673397               0.000283953               0.999999989              -0.000661814               0.000263798               0.999999989              -0.000646798               0.000237625               0.999999989              -0.000628544               0.000205145               0.999999989              -0.000607703               0.000166364               0.999999989              -0.000585261               0.000122268               0.999999989              -0.000684308               0.000550634               0.999999989              -0.000650516               0.000448156               0.999999989              -0.000629536               0.000411200               0.999999989              -0.000618369               0.000400623               0.999999989              -0.000612673               0.000400417               0.999999989              -0.000609482               0.000403539               0.999999989              -0.000606774               0.000406723               0.999999989              -0.000603072               0.000407668               0.999999989              -0.000597067               0.000404831               0.999999989              -0.000587830               0.000397732               0.999999989              -0.000574871               0.000385513               0.999999989              -0.000557893               0.000367689               0.999999989              -0.000536800               0.000343860               0.999999989              -0.000511892               0.000314067               0.999999989              -0.000483940               0.000278683               0.999999989              -0.000453997               0.000238961               0.999999989              -0.000423106               0.000196422               0.999999989              -0.000640875               0.000649910               0.999999989              -0.000582562               0.000536470               0.999999989              -0.000553763               0.000498935               0.999999989              -0.000540097               0.000489921               0.999999989              -0.000533042               0.000491399               0.999999989              -0.000527937               0.000495838               0.999999989              -0.000522332               0.000499905               0.999999989              -0.000514324               0.000501100               0.999999989              -0.000502380               0.000497619               0.999999989              -0.000485783               0.000488893               0.999999989              -0.000464231               0.000474479               0.999999989              -0.000437607               0.000454030               0.999999989              -0.000406351               0.000427703               0.999999989              -0.000371292               0.000395880               0.999999989              -0.000333575               0.000360028               0.999999989              -0.000294282               0.000321590               0.999999989              -0.000254448               0.000282127               0.999999989              -0.000591776               0.000743293               0.999999989              -0.000510706               0.000624348               0.999999989              -0.000477392               0.000587735               0.999999989              -0.000463612               0.000580247               0.999999989              -0.000456278               0.000583180               0.999999989              -0.000449702               0.000588730               0.999999989              -0.000441013               0.000593480               0.999999989              -0.000427941               0.000594599               0.999999989              -0.000409177               0.000590267               0.999999989              -0.000384079               0.000580158               0.999999989              -0.000352708               0.000563814               0.999999989              -0.000315303               0.000541608               0.999999989              -0.000272875               0.000514241               0.999999989              -0.000226659               0.000482911               0.999999989              -0.000178258               0.000449090               0.999999989              -0.000128896               0.000414097               0.999999989              -0.000079738               0.000379528               0.999999989              -0.000538403               0.000829129               0.999999989              -0.000437364               0.000711722               0.999999989              -0.000404340               0.000676275               0.999999989              -0.000392123               0.000669779               0.999999989              -0.000385259               0.000673783               0.999999989              -0.000377252               0.000680123               0.999999989              -0.000364943               0.000685250               0.999999989              -0.000345859               0.000686059               0.999999989              -0.000318931               0.000681025               0.999999989              -0.000284024               0.000669669               0.999999989              -0.000241307               0.000652199               0.999999989              -0.000191608               0.000629489               0.999999989              -0.000136726               0.000603154               0.999999989              -0.000078521               0.000574612               0.999999989              -0.000018757               0.000545356               0.999999989               0.000041121               0.000516601               0.999999989               0.000100368               0.000488829               0.999999989              -0.000483077               0.000910621               0.999999989              -0.000375757               0.000810362               0.999999989              -0.000340346               0.000772116               0.999999989              -0.000327739               0.000761547               0.999999989              -0.000321648               0.000762997               0.999999989              -0.000315064               0.000769027               0.999999989              -0.000305255               0.000775776               0.999999989              -0.000289704               0.000780923               0.999999989              -0.000267351               0.000782415               0.999999989              -0.000237722               0.000779414               0.999999989              -0.000200506               0.000771721               0.999999989              -0.000155696               0.000759616               0.999999989              -0.000104480               0.000743836               0.999999989              -0.000048459               0.000725674               0.999999989               0.000010838               0.000706528               0.999999989               0.000071575               0.000687439               0.999999989               0.000132667               0.000669186               0.999999989              -0.000422751               0.000985144               0.999999989              -0.000316376               0.000906244               0.999999989              -0.000278963               0.000870677               0.999999989              -0.000265119               0.000858395               0.999999989              -0.000258931               0.000858351               0.999999989              -0.000253386               0.000864365               0.999999989              -0.000245367               0.000872635               0.999999989              -0.000232974               0.000880939               0.999999989              -0.000214948               0.000887688               0.999999989              -0.000190312               0.000891715               0.999999989              -0.000158555               0.000892540               0.999999989              -0.000119577               0.000889760               0.999999989              -0.000073594               0.000883695               0.999999989              -0.000021416               0.000875016               0.999999989               0.000035527               0.000865096               0.999999989               0.000095581               0.000854886               0.999999989               0.000156893               0.000845312               0.999999989              -0.000358559               0.001050856               0.999999989              -0.000259311               0.000996342               0.999999989              -0.000221462               0.000967688               0.999999989              -0.000206371               0.000956639               0.999999989              -0.000199438               0.000956753               0.999999989              -0.000194326               0.000963461               0.999999989              -0.000187802               0.000973508               0.999999989              -0.000177904               0.000984861               0.999999989              -0.000163449               0.000996124               0.999999989              -0.000143498               0.001006219               0.999999989              -0.000117304               0.001014269               0.999999989              -0.000084682               0.001019809               0.999999989              -0.000045064               0.001022675               0.999999989               0.000001540               0.001023038               0.999999989               0.000054491               0.001021667               0.999999989               0.000112555               0.001019542               0.999999989               0.000173975               0.001017878               0.999999989              -0.000291012               0.001106624               0.999999989              -0.000204520               0.001076946               0.999999989              -0.000168716               0.001058102               0.999999989              -0.000153240               0.001050993               0.999999989              -0.000145632               0.001053010               0.999999989              -0.000140584               0.001061397               0.999999989              -0.000135128               0.001073698               0.999999989              -0.000127217               0.001088352               0.999999989              -0.000115759               0.001103931               0.999999989              -0.000100047               0.001119477               0.999999989              -0.000079351               0.001134155               0.999999989              -0.000052968               0.001147369               0.999999989              -0.000020491               0.001158712               0.999999989               0.000019089               0.001168039               0.999999989               0.000066130               0.001175475               0.999999989               0.000120292               0.001181664               0.999999989               0.000180773               0.001187545               0.999999989              -0.000220760               0.001151212               0.999999989              -0.000151685               0.001144399               0.999999989              -0.000120975               0.001136462               0.999999989              -0.000106633               0.001134941               0.999999989              -0.000099216               0.001140230               0.999999989              -0.000094432               0.001151102               0.999999989              -0.000089677               0.001166224               0.999999989              -0.000083500               0.001184232               0.999999989              -0.000074784               0.001203963               0.999999989              -0.000063006               0.001224610               0.999999989              -0.000047522               0.001245392               0.999999989              -0.000027767               0.001265644               0.999999989              -0.000002854               0.001284911               0.999999989               0.000028454               0.001302839               0.999999989               0.000067224               0.001319236               0.999999989               0.000114193               0.001334254               0.999999989               0.000169802               0.001348283               0.999999989              -0.000148403               0.001183729               0.999999989              -0.000100362               0.001195258               0.999999989              -0.000077748               0.001197408               0.999999989              -0.000066485               0.001201650               0.999999989              -0.000060505               0.001210661               0.999999989              -0.000056686               0.001224379               0.999999989              -0.000052976               0.001242119               0.999999989              -0.000048510               0.001263077               0.999999989              -0.000042534               0.001286369               0.999999989              -0.000034547               0.001311317               0.999999989              -0.000024279               0.001337214               0.999999989              -0.000011191               0.001363517               0.999999989               0.000005655               0.001389771               0.999999989               0.000027468               0.001415526               0.999999989               0.000055539               0.001440340               0.999999989               0.000090954               0.001463808               0.999999989               0.000135087               0.001485769               0.999999989              -0.000074584               0.001203539               0.999999989              -0.000049988               0.001226887               0.999999989              -0.000037943               0.001236127               0.999999989              -0.000031709               0.001244712               0.999999989              -0.000028342               0.001256514               0.999999989              -0.000026234               0.001272417               0.999999989              -0.000024164               0.001292225               0.999999989              -0.000021738               0.001315288               0.999999989              -0.000018579               0.001340951               0.999999989              -0.000014556               0.001368723               0.999999989              -0.000009463               0.001398097               0.999999989              -0.000002959               0.001428683               0.999999989               0.000005496               0.001460012               0.999999989               0.000016698               0.001491542               0.999999989               0.000031439               0.001522670               0.999999989               0.000050837               0.001552616               0.999999989               0.000075911               0.001580624               0.999999989              -0.000000000               0.001210187               0.999999989              -0.000000000               0.001237682               0.999999989               0.000000000               0.001249477               0.999999989              -0.000000000               0.001259557               0.999999989               0.000000000               0.001272440               0.999999989               0.000000000               0.001289246               0.999999989              -0.000000000               0.001309713               0.999999989               0.000000000               0.001333424               0.999999989               0.000000000               0.001359861               0.999999989               0.000000000               0.001388597               0.999999989              -0.000000000               0.001419276               0.999999989              -0.000000000               0.001451468               0.999999989               0.000000000               0.001484741               0.999999989               0.000000000               0.001518582               0.999999989              -0.000000000               0.001552300               0.999999989               0.000000000               0.001584950               0.999999989              -0.000000000               0.001615404               0.999999989              -0.000790095              -0.000000000               0.999999989              -0.000833769               0.000000000               0.999999989              -0.000852178               0.000000000               0.999999989              -0.000862431               0.000000000               0.999999989              -0.000870568               0.000000000               0.999999989              -0.000878848              -0.000000000               0.999999989              -0.000887904               0.000000000               0.999999989              -0.000897640               0.000000000               0.999999989              -0.000907849               0.000000000               0.999999989              -0.000918236               0.000000000               0.999999989              -0.000928641               0.000000000               0.999999989              -0.000938936               0.000000000               0.999999989              -0.000948705               0.000000000               0.999999989              -0.000957474              -0.000000000               0.999999989              -0.000964877               0.000000000               0.999999989              -0.000970375               0.000000000               0.999999989              -0.000973239              -0.000000000               0.999999989              -0.000785636              -0.000114257               0.999999989              -0.000825576              -0.000090419               0.999999989              -0.000841545              -0.000079381               0.999999989              -0.000850177              -0.000074535               0.999999989              -0.000857286              -0.000072816               0.999999989              -0.000864821              -0.000072472               0.999999989              -0.000873121              -0.000072723               0.999999989              -0.000882108              -0.000072769               0.999999989              -0.000891468              -0.000072158               0.999999989              -0.000900948              -0.000070679               0.999999989              -0.000910322              -0.000068145               0.999999989              -0.000919192              -0.000064252               0.999999989              -0.000927268              -0.000058671               0.999999989              -0.000934157              -0.000051004               0.999999989              -0.000939490              -0.000040758               0.999999989              -0.000942801              -0.000027148               0.999999989              -0.000943451              -0.000009089               0.999999989              -0.000772305              -0.000227459               0.999999989              -0.000801392              -0.000180559               0.999999989              -0.000810719              -0.000159627               0.999999989              -0.000815227              -0.000150903               0.999999989              -0.000819570              -0.000148122               0.999999989              -0.000824907              -0.000147938               0.999999989              -0.000831156              -0.000148530               0.999999989              -0.000838011              -0.000148690               0.999999989              -0.000844991              -0.000147524               0.999999989              -0.000851698              -0.000144665               0.999999989              -0.000857862              -0.000139620               0.999999989              -0.000862953              -0.000131764               0.999999989              -0.000866657              -0.000120762               0.999999989              -0.000868662              -0.000106004               0.999999989              -0.000868492              -0.000086443               0.999999989              -0.000865800              -0.000061085               0.999999989              -0.000860375              -0.000028520               0.999999989              -0.000750595              -0.000338534               0.999999989              -0.000762733              -0.000270253               0.999999989              -0.000762517              -0.000241452               0.999999989              -0.000761481              -0.000230463               0.999999989              -0.000762179              -0.000227719               0.999999989              -0.000764549              -0.000228228               0.999999989              -0.000767916              -0.000229478               0.999999989              -0.000771692              -0.000229831               0.999999989              -0.000775178              -0.000228107               0.999999989              -0.000777690              -0.000223894               0.999999989              -0.000778775              -0.000216354               0.999999989              -0.000778021              -0.000204877               0.999999989              -0.000775082              -0.000188923               0.999999989              -0.000769531              -0.000167852               0.999999989              -0.000761119              -0.000140565               0.999999989              -0.000749856              -0.000106422               0.999999989              -0.000736110              -0.000064911               0.999999989              -0.000721145              -0.000446522               0.999999989              -0.000711627              -0.000359419               0.999999989              -0.000700618              -0.000325280               0.999999989              -0.000693953              -0.000313822               0.999999989              -0.000691061              -0.000312017               0.999999989              -0.000690361              -0.000313718               0.999999989              -0.000690637              -0.000315870               0.999999989              -0.000690807              -0.000316558               0.999999989              -0.000689890              -0.000314309               0.999999989              -0.000687064              -0.000308655               0.999999989              -0.000681698              -0.000298779               0.999999989              -0.000673397              -0.000283953               0.999999989              -0.000661814              -0.000263798               0.999999989              -0.000646798              -0.000237625               0.999999989              -0.000628544              -0.000205145               0.999999989              -0.000607703              -0.000166364               0.999999989              -0.000585261              -0.000122268               0.999999989              -0.000684308              -0.000550634               0.999999989              -0.000650516              -0.000448156               0.999999989              -0.000629536              -0.000411200               0.999999989              -0.000618369              -0.000400623               0.999999989              -0.000612673              -0.000400417               0.999999989              -0.000609482              -0.000403539               0.999999989              -0.000606774              -0.000406723               0.999999989              -0.000603072              -0.000407668               0.999999989              -0.000597067              -0.000404831               0.999999989              -0.000587830              -0.000397732               0.999999989              -0.000574871              -0.000385513               0.999999989              -0.000557893              -0.000367689               0.999999989              -0.000536800              -0.000343860               0.999999989              -0.000511892              -0.000314067               0.999999989              -0.000483940              -0.000278683               0.999999989              -0.000453997              -0.000238961               0.999999989              -0.000423106              -0.000196422               0.999999989              -0.000640875              -0.000649910               0.999999989              -0.000582562              -0.000536470               0.999999989              -0.000553763              -0.000498935               0.999999989              -0.000540097              -0.000489921               0.999999989              -0.000533042              -0.000491399               0.999999989              -0.000527937              -0.000495838               0.999999989              -0.000522332              -0.000499905               0.999999989              -0.000514324              -0.000501100               0.999999989              -0.000502380              -0.000497619               0.999999989              -0.000485783              -0.000488893               0.999999989              -0.000464231              -0.000474479               0.999999989              -0.000437607              -0.000454030               0.999999989              -0.000406351              -0.000427703               0.999999989              -0.000371292              -0.000395880               0.999999989              -0.000333575              -0.000360028               0.999999989              -0.000294282              -0.000321590               0.999999989              -0.000254448              -0.000282127               0.999999989              -0.000591776              -0.000743293               0.999999989              -0.000510706              -0.000624348               0.999999989              -0.000477392              -0.000587735               0.999999989              -0.000463612              -0.000580247               0.999999989              -0.000456278              -0.000583180               0.999999989              -0.000449702              -0.000588730               0.999999989              -0.000441013              -0.000593480               0.999999989              -0.000427941              -0.000594599               0.999999989              -0.000409177              -0.000590267               0.999999989              -0.000384079              -0.000580158               0.999999989              -0.000352708              -0.000563814               0.999999989              -0.000315303              -0.000541608               0.999999989              -0.000272875              -0.000514241               0.999999989              -0.000226659              -0.000482911               0.999999989              -0.000178258              -0.000449090               0.999999989              -0.000128896              -0.000414097               0.999999989              -0.000079738              -0.000379528               0.999999989              -0.000538403              -0.000829129               0.999999989              -0.000437364              -0.000711722               0.999999989              -0.000404340              -0.000676275               0.999999989              -0.000392123              -0.000669779               0.999999989              -0.000385259              -0.000673783               0.999999989              -0.000377252              -0.000680123               0.999999989              -0.000364943              -0.000685250               0.999999989              -0.000345859              -0.000686059               0.999999989              -0.000318931              -0.000681025               0.999999989              -0.000284024              -0.000669669               0.999999989              -0.000241307              -0.000652199               0.999999989              -0.000191608              -0.000629489               0.999999989              -0.000136726              -0.000603154               0.999999989              -0.000078521              -0.000574612               0.999999989              -0.000018757              -0.000545356               0.999999989               0.000041121              -0.000516601               0.999999989               0.000100368              -0.000488829               0.999999989              -0.000483077              -0.000910621               0.999999989              -0.000375757              -0.000810362               0.999999989              -0.000340346              -0.000772116               0.999999989              -0.000327739              -0.000761547               0.999999989              -0.000321648              -0.000762997               0.999999989              -0.000315064              -0.000769027               0.999999989              -0.000305255              -0.000775776               0.999999989              -0.000289704              -0.000780923               0.999999989              -0.000267351              -0.000782415               0.999999989              -0.000237722              -0.000779414               0.999999989              -0.000200506              -0.000771721               0.999999989              -0.000155696              -0.000759616               0.999999989              -0.000104480              -0.000743836               0.999999989              -0.000048459              -0.000725674               0.999999989               0.000010838              -0.000706528               0.999999989               0.000071575              -0.000687439               0.999999989               0.000132667              -0.000669186               0.999999989              -0.000422751              -0.000985144               0.999999989              -0.000316376              -0.000906244               0.999999989              -0.000278963              -0.000870677               0.999999989              -0.000265119              -0.000858395               0.999999989              -0.000258931              -0.000858351               0.999999989              -0.000253386              -0.000864365               0.999999989              -0.000245367              -0.000872635               0.999999989              -0.000232974              -0.000880939               0.999999989              -0.000214948              -0.000887688               0.999999989              -0.000190312              -0.000891715               0.999999989              -0.000158555              -0.000892540               0.999999989              -0.000119577              -0.000889760               0.999999989              -0.000073594              -0.000883695               0.999999989              -0.000021416              -0.000875016               0.999999989               0.000035527              -0.000865096               0.999999989               0.000095581              -0.000854886               0.999999989               0.000156893              -0.000845312               0.999999989              -0.000358559              -0.001050856               0.999999989              -0.000259311              -0.000996342               0.999999989              -0.000221462              -0.000967688               0.999999989              -0.000206371              -0.000956639               0.999999989              -0.000199438              -0.000956753               0.999999989              -0.000194326              -0.000963461               0.999999989              -0.000187802              -0.000973508               0.999999989              -0.000177904              -0.000984861               0.999999989              -0.000163449              -0.000996124               0.999999989              -0.000143498              -0.001006219               0.999999989              -0.000117304              -0.001014269               0.999999989              -0.000084682              -0.001019809               0.999999989              -0.000045064              -0.001022675               0.999999989               0.000001540              -0.001023038               0.999999989               0.000054491              -0.001021667               0.999999989               0.000112555              -0.001019542               0.999999989               0.000173975              -0.001017878               0.999999989              -0.000291012              -0.001106624               0.999999989              -0.000204520              -0.001076946               0.999999989              -0.000168716              -0.001058102               0.999999989              -0.000153240              -0.001050993               0.999999989              -0.000145632              -0.001053010               0.999999989              -0.000140584              -0.001061397               0.999999989              -0.000135128              -0.001073698               0.999999989              -0.000127217              -0.001088352               0.999999989              -0.000115759              -0.001103931               0.999999989              -0.000100047              -0.001119477               0.999999989              -0.000079351              -0.001134155               0.999999989              -0.000052968              -0.001147369               0.999999989              -0.000020491              -0.001158712               0.999999989               0.000019089              -0.001168039               0.999999989               0.000066130              -0.001175475               0.999999989               0.000120292              -0.001181664               0.999999989               0.000180773              -0.001187545               0.999999989              -0.000220760              -0.001151212               0.999999989              -0.000151685              -0.001144399               0.999999989              -0.000120975              -0.001136462               0.999999989              -0.000106633              -0.001134941               0.999999989              -0.000099216              -0.001140230               0.999999989              -0.000094432              -0.001151102               0.999999989              -0.000089677              -0.001166224               0.999999989              -0.000083500              -0.001184232               0.999999989              -0.000074784              -0.001203963               0.999999989              -0.000063006              -0.001224610               0.999999989              -0.000047522              -0.001245392               0.999999989              -0.000027767              -0.001265644               0.999999989              -0.000002854              -0.001284911               0.999999989               0.000028454              -0.001302839               0.999999989               0.000067224              -0.001319236               0.999999989               0.000114193              -0.001334254               0.999999989               0.000169802              -0.001348283               0.999999989              -0.000148403              -0.001183729               0.999999989              -0.000100362              -0.001195258               0.999999989              -0.000077748              -0.001197408               0.999999989              -0.000066485              -0.001201650               0.999999989              -0.000060505              -0.001210661               0.999999989              -0.000056686              -0.001224379               0.999999989              -0.000052976              -0.001242119               0.999999989              -0.000048510              -0.001263077               0.999999989              -0.000042534              -0.001286369               0.999999989              -0.000034547              -0.001311317               0.999999989              -0.000024279              -0.001337214               0.999999989              -0.000011191              -0.001363517               0.999999989               0.000005655              -0.001389771               0.999999989               0.000027468              -0.001415526               0.999999989               0.000055539              -0.001440340               0.999999989               0.000090954              -0.001463808               0.999999989               0.000135087              -0.001485769               0.999999989              -0.000074584              -0.001203539               0.999999989              -0.000049988              -0.001226887               0.999999989              -0.000037943              -0.001236127               0.999999989              -0.000031709              -0.001244712               0.999999989              -0.000028342              -0.001256514               0.999999989              -0.000026234              -0.001272417               0.999999989              -0.000024164              -0.001292225               0.999999989              -0.000021738              -0.001315288               0.999999989              -0.000018579              -0.001340951               0.999999989              -0.000014556              -0.001368723               0.999999989              -0.000009463              -0.001398097               0.999999989              -0.000002959              -0.001428683               0.999999989               0.000005496              -0.001460012               0.999999989               0.000016698              -0.001491542               0.999999989               0.000031439              -0.001522670               0.999999989               0.000050837              -0.001552616               0.999999989               0.000075911              -0.001580624               0.999999989               0.000000000              -0.001210187               0.999999989               0.000000000              -0.001237682               0.999999989              -0.000000000              -0.001249477               0.999999989              -0.000000000              -0.001259557               0.999999989              -0.000000000              -0.001272440               0.999999989               0.000000000              -0.001289246               0.999999989               0.000000000              -0.001309713               0.999999989               0.000000000              -0.001333424               0.999999989              -0.000000000              -0.001359861               0.999999989               0.000000000              -0.001388597               0.999999989               0.000000000              -0.001419276               0.999999989              -0.000000000              -0.001451468               0.999999989              -0.000000000              -0.001484741               0.999999989              -0.000000000              -0.001518582               0.999999989              -0.000000000              -0.001552300               0.999999989              -0.000000000              -0.001584950               0.999999989               0.000000000              -0.001615404               0.999999989               0.000790095               0.000000000               0.999999989               0.000833769              -0.000000000               0.999999989               0.000852178              -0.000000000               0.999999989               0.000862431               0.000000000               0.999999989               0.000870568              -0.000000000               0.999999989               0.000878848              -0.000000000               0.999999989               0.000887904              -0.000000000               0.999999989               0.000897640              -0.000000000               0.999999989               0.000907849              -0.000000000               0.999999989               0.000918236               0.000000000               0.999999989               0.000928641              -0.000000000               0.999999989               0.000938936               0.000000000               0.999999989               0.000948705               0.000000000               0.999999989               0.000957474              -0.000000000               0.999999989               0.000964877              -0.000000000               0.999999989               0.000970375               0.000000000               0.999999989               0.000973239               0.000000000               0.999999989               0.000785636              -0.000114257               0.999999989               0.000825576              -0.000090419               0.999999989               0.000841545              -0.000079381               0.999999989               0.000850177              -0.000074535               0.999999989               0.000857286              -0.000072816               0.999999989               0.000864821              -0.000072472               0.999999989               0.000873121              -0.000072723               0.999999989               0.000882108              -0.000072769               0.999999989               0.000891468              -0.000072158               0.999999989               0.000900948              -0.000070679               0.999999989               0.000910322              -0.000068145               0.999999989               0.000919192              -0.000064252               0.999999989               0.000927268              -0.000058671               0.999999989               0.000934157              -0.000051004               0.999999989               0.000939490              -0.000040758               0.999999989               0.000942801              -0.000027148               0.999999989               0.000943451              -0.000009089               0.999999989               0.000772305              -0.000227459               0.999999989               0.000801392              -0.000180559               0.999999989               0.000810719              -0.000159627               0.999999989               0.000815227              -0.000150903               0.999999989               0.000819570              -0.000148122               0.999999989               0.000824907              -0.000147938               0.999999989               0.000831156              -0.000148530               0.999999989               0.000838011              -0.000148690               0.999999989               0.000844991              -0.000147524               0.999999989               0.000851698              -0.000144665               0.999999989               0.000857862              -0.000139620               0.999999989               0.000862953              -0.000131764               0.999999989               0.000866657              -0.000120762               0.999999989               0.000868662              -0.000106004               0.999999989               0.000868492              -0.000086443               0.999999989               0.000865800              -0.000061085               0.999999989               0.000860375              -0.000028520               0.999999989               0.000750595              -0.000338534               0.999999989               0.000762733              -0.000270253               0.999999989               0.000762517              -0.000241452               0.999999989               0.000761481              -0.000230463               0.999999989               0.000762179              -0.000227719               0.999999989               0.000764549              -0.000228228               0.999999989               0.000767916              -0.000229478               0.999999989               0.000771692              -0.000229831               0.999999989               0.000775178              -0.000228107               0.999999989               0.000777690              -0.000223894               0.999999989               0.000778775              -0.000216354               0.999999989               0.000778021              -0.000204877               0.999999989               0.000775082              -0.000188923               0.999999989               0.000769531              -0.000167852               0.999999989               0.000761119              -0.000140565               0.999999989               0.000749856              -0.000106422               0.999999989               0.000736110              -0.000064911               0.999999989               0.000721145              -0.000446522               0.999999989               0.000711627              -0.000359419               0.999999989               0.000700618              -0.000325280               0.999999989               0.000693953              -0.000313822               0.999999989               0.000691061              -0.000312017               0.999999989               0.000690361              -0.000313718               0.999999989               0.000690637              -0.000315870               0.999999989               0.000690807              -0.000316558               0.999999989               0.000689890              -0.000314309               0.999999989               0.000687064              -0.000308655               0.999999989               0.000681698              -0.000298779               0.999999989               0.000673397              -0.000283953               0.999999989               0.000661814              -0.000263798               0.999999989               0.000646798              -0.000237625               0.999999989               0.000628544              -0.000205145               0.999999989               0.000607703              -0.000166364               0.999999989               0.000585261              -0.000122268               0.999999989               0.000684308              -0.000550634               0.999999989               0.000650516              -0.000448156               0.999999989               0.000629536              -0.000411200               0.999999989               0.000618369              -0.000400623               0.999999989               0.000612673              -0.000400417               0.999999989               0.000609482              -0.000403539               0.999999989               0.000606774              -0.000406723               0.999999989               0.000603072              -0.000407668               0.999999989               0.000597067              -0.000404831               0.999999989               0.000587830              -0.000397732               0.999999989               0.000574871              -0.000385513               0.999999989               0.000557893              -0.000367689               0.999999989               0.000536800              -0.000343860               0.999999989               0.000511892              -0.000314067               0.999999989               0.000483940              -0.000278683               0.999999989               0.000453997              -0.000238961               0.999999989               0.000423106              -0.000196422               0.999999989               0.000640875              -0.000649910               0.999999989               0.000582562              -0.000536470               0.999999989               0.000553763              -0.000498935               0.999999989               0.000540097              -0.000489921               0.999999989               0.000533042              -0.000491399               0.999999989               0.000527937              -0.000495838               0.999999989               0.000522332              -0.000499905               0.999999989               0.000514324              -0.000501100               0.999999989               0.000502380              -0.000497619               0.999999989               0.000485783              -0.000488893               0.999999989               0.000464231              -0.000474479               0.999999989               0.000437607              -0.000454030               0.999999989               0.000406351              -0.000427703               0.999999989               0.000371292              -0.000395880               0.999999989               0.000333575              -0.000360028               0.999999989               0.000294282              -0.000321590               0.999999989               0.000254448              -0.000282127               0.999999989               0.000591776              -0.000743293               0.999999989               0.000510706              -0.000624348               0.999999989               0.000477392              -0.000587735               0.999999989               0.000463612              -0.000580247               0.999999989               0.000456278              -0.000583180               0.999999989               0.000449702              -0.000588730               0.999999989               0.000441013              -0.000593480               0.999999989               0.000427941              -0.000594599               0.999999989               0.000409177              -0.000590267               0.999999989               0.000384079              -0.000580158               0.999999989               0.000352708              -0.000563814               0.999999989               0.000315303              -0.000541608               0.999999989               0.000272875              -0.000514241               0.999999989               0.000226659              -0.000482911               0.999999989               0.000178258              -0.000449090               0.999999989               0.000128896              -0.000414097               0.999999989               0.000079738              -0.000379528               0.999999989               0.000538403              -0.000829129               0.999999989               0.000437364              -0.000711722               0.999999989               0.000404340              -0.000676275               0.999999989               0.000392123              -0.000669779               0.999999989               0.000385259              -0.000673783               0.999999989               0.000377252              -0.000680123               0.999999989               0.000364943              -0.000685250               0.999999989               0.000345859              -0.000686059               0.999999989               0.000318931              -0.000681025               0.999999989               0.000284024              -0.000669669               0.999999989               0.000241307              -0.000652199               0.999999989               0.000191608              -0.000629489               0.999999989               0.000136726              -0.000603154               0.999999989               0.000078521              -0.000574612               0.999999989               0.000018757              -0.000545356               0.999999989              -0.000041121              -0.000516601               0.999999989              -0.000100368              -0.000488829               0.999999989               0.000483077              -0.000910621               0.999999989               0.000375757              -0.000810362               0.999999989               0.000340346              -0.000772116               0.999999989               0.000327739              -0.000761547               0.999999989               0.000321648              -0.000762997               0.999999989               0.000315064              -0.000769027               0.999999989               0.000305255              -0.000775776               0.999999989               0.000289704              -0.000780923               0.999999989               0.000267351              -0.000782415               0.999999989               0.000237722              -0.000779414               0.999999989               0.000200506              -0.000771721               0.999999989               0.000155696              -0.000759616               0.999999989               0.000104480              -0.000743836               0.999999989               0.000048459              -0.000725674               0.999999989              -0.000010838              -0.000706528               0.999999989              -0.000071575              -0.000687439               0.999999989              -0.000132667              -0.000669186               0.999999989               0.000422751              -0.000985144               0.999999989               0.000316376              -0.000906244               0.999999989               0.000278963              -0.000870677               0.999999989               0.000265119              -0.000858395               0.999999989               0.000258931              -0.000858351               0.999999989               0.000253386              -0.000864365               0.999999989               0.000245367              -0.000872635               0.999999989               0.000232974              -0.000880939               0.999999989               0.000214948              -0.000887688               0.999999989               0.000190312              -0.000891715               0.999999989               0.000158555              -0.000892540               0.999999989               0.000119577              -0.000889760               0.999999989               0.000073594              -0.000883695               0.999999989               0.000021416              -0.000875016               0.999999989              -0.000035527              -0.000865096               0.999999989              -0.000095581              -0.000854886               0.999999989              -0.000156893              -0.000845312               0.999999989               0.000358559              -0.001050856               0.999999989               0.000259311              -0.000996342               0.999999989               0.000221462              -0.000967688               0.999999989               0.000206371              -0.000956639               0.999999989               0.000199438              -0.000956753               0.999999989               0.000194326              -0.000963461               0.999999989               0.000187802              -0.000973508               0.999999989               0.000177904              -0.000984861               0.999999989               0.000163449              -0.000996124               0.999999989               0.000143498              -0.001006219               0.999999989               0.000117304              -0.001014269               0.999999989               0.000084682              -0.001019809               0.999999989               0.000045064              -0.001022675               0.999999989              -0.000001540              -0.001023038               0.999999989              -0.000054491              -0.001021667               0.999999989              -0.000112555              -0.001019542               0.999999989              -0.000173975              -0.001017878               0.999999989               0.000291012              -0.001106624               0.999999989               0.000204520              -0.001076946               0.999999989               0.000168716              -0.001058102               0.999999989               0.000153240              -0.001050993               0.999999989               0.000145632              -0.001053010               0.999999989               0.000140584              -0.001061397               0.999999989               0.000135128              -0.001073698               0.999999989               0.000127217              -0.001088352               0.999999989               0.000115759              -0.001103931               0.999999989               0.000100047              -0.001119477               0.999999989               0.000079351              -0.001134155               0.999999989               0.000052968              -0.001147369               0.999999989               0.000020491              -0.001158712               0.999999989              -0.000019089              -0.001168039               0.999999989              -0.000066130              -0.001175475               0.999999989              -0.000120292              -0.001181664               0.999999989              -0.000180773              -0.001187545               0.999999989               0.000220760              -0.001151212               0.999999989               0.000151685              -0.001144399               0.999999989               0.000120975              -0.001136462               0.999999989               0.000106633              -0.001134941               0.999999989               0.000099216              -0.001140230               0.999999989               0.000094432              -0.001151102               0.999999989               0.000089677              -0.001166224               0.999999989               0.000083500              -0.001184232               0.999999989               0.000074784              -0.001203963               0.999999989               0.000063006              -0.001224610               0.999999989               0.000047522              -0.001245392               0.999999989               0.000027767              -0.001265644               0.999999989               0.000002854              -0.001284911               0.999999989              -0.000028454              -0.001302839               0.999999989              -0.000067224              -0.001319236               0.999999989              -0.000114193              -0.001334254               0.999999989              -0.000169802              -0.001348283               0.999999989               0.000148403              -0.001183729               0.999999989               0.000100362              -0.001195258               0.999999989               0.000077748              -0.001197408               0.999999989               0.000066485              -0.001201650               0.999999989               0.000060505              -0.001210661               0.999999989               0.000056686              -0.001224379               0.999999989               0.000052976              -0.001242119               0.999999989               0.000048510              -0.001263077               0.999999989               0.000042534              -0.001286369               0.999999989               0.000034547              -0.001311317               0.999999989               0.000024279              -0.001337214               0.999999989               0.000011191              -0.001363517               0.999999989              -0.000005655              -0.001389771               0.999999989              -0.000027468              -0.001415526               0.999999989              -0.000055539              -0.001440340               0.999999989              -0.000090954              -0.001463808               0.999999989              -0.000135087              -0.001485769               0.999999989               0.000074584              -0.001203539               0.999999989               0.000049988              -0.001226887               0.999999989               0.000037943              -0.001236127               0.999999989               0.000031709              -0.001244712               0.999999989               0.000028342              -0.001256514               0.999999989               0.000026234              -0.001272417               0.999999989               0.000024164              -0.001292225               0.999999989               0.000021738              -0.001315288               0.999999989               0.000018579              -0.001340951               0.999999989               0.000014556              -0.001368723               0.999999989               0.000009463              -0.001398097               0.999999989               0.000002959              -0.001428683               0.999999989              -0.000005496              -0.001460012               0.999999989              -0.000016698              -0.001491542               0.999999989              -0.000031439              -0.001522670               0.999999989              -0.000050837              -0.001552616               0.999999989              -0.000075911              -0.001580624               0.999999989               0.000000000              -0.001210187               0.999999989               0.000000000              -0.001237682               0.999999989              -0.000000000              -0.001249477               0.999999989              -0.000000000              -0.001259557               0.999999989              -0.000000000              -0.001272440               0.999999989               0.000000000              -0.001289246               0.999999989               0.000000000              -0.001309713               0.999999989               0.000000000              -0.001333424               0.999999989              -0.000000000              -0.001359861               0.999999989               0.000000000              -0.001388597               0.999999989               0.000000000              -0.001419276               0.999999989              -0.000000000              -0.001451468               0.999999989              -0.000000000              -0.001484741               0.999999989              -0.000000000              -0.001518582               0.999999989              -0.000000000              -0.001552300               0.999999989              -0.000000000              -0.001584950               0.999999989               0.000000000              -0.001615404               0.999999989               0.000790095               0.000000000               0.999999989               0.000833769              -0.000000000               0.999999989               0.000852178              -0.000000000               0.999999989               0.000862431               0.000000000               0.999999989               0.000870568              -0.000000000               0.999999989               0.000878848              -0.000000000               0.999999989               0.000887904              -0.000000000               0.999999989               0.000897640              -0.000000000               0.999999989               0.000907849              -0.000000000               0.999999989               0.000918236               0.000000000               0.999999989               0.000928641              -0.000000000               0.999999989               0.000938936               0.000000000               0.999999989               0.000948705               0.000000000               0.999999989               0.000957474              -0.000000000               0.999999989               0.000964877              -0.000000000               0.999999989               0.000970375               0.000000000               0.999999989               0.000973239               0.000000000               0.999999989               0.000785636               0.000114257               0.999999989               0.000825576               0.000090419               0.999999989               0.000841545               0.000079381               0.999999989               0.000850177               0.000074535               0.999999989               0.000857286               0.000072816               0.999999989               0.000864821               0.000072472               0.999999989               0.000873121               0.000072723               0.999999989               0.000882108               0.000072769               0.999999989               0.000891468               0.000072158               0.999999989               0.000900948               0.000070679               0.999999989               0.000910322               0.000068145               0.999999989               0.000919192               0.000064252               0.999999989               0.000927268               0.000058671               0.999999989               0.000934157               0.000051004               0.999999989               0.000939490               0.000040758               0.999999989               0.000942801               0.000027148               0.999999989               0.000943451               0.000009089               0.999999989               0.000772305               0.000227459               0.999999989               0.000801392               0.000180559               0.999999989               0.000810719               0.000159627               0.999999989               0.000815227               0.000150903               0.999999989               0.000819570               0.000148122               0.999999989               0.000824907               0.000147938               0.999999989               0.000831156               0.000148530               0.999999989               0.000838011               0.000148690               0.999999989               0.000844991               0.000147524               0.999999989               0.000851698               0.000144665               0.999999989               0.000857862               0.000139620               0.999999989               0.000862953               0.000131764               0.999999989               0.000866657               0.000120762               0.999999989               0.000868662               0.000106004               0.999999989               0.000868492               0.000086443               0.999999989               0.000865800               0.000061085               0.999999989               0.000860375               0.000028520               0.999999989               0.000750595               0.000338534               0.999999989               0.000762733               0.000270253               0.999999989               0.000762517               0.000241452               0.999999989               0.000761481               0.000230463               0.999999989               0.000762179               0.000227719               0.999999989               0.000764549               0.000228228               0.999999989               0.000767916               0.000229478               0.999999989               0.000771692               0.000229831               0.999999989               0.000775178               0.000228107               0.999999989               0.000777690               0.000223894               0.999999989               0.000778775               0.000216354               0.999999989               0.000778021               0.000204877               0.999999989               0.000775082               0.000188923               0.999999989               0.000769531               0.000167852               0.999999989               0.000761119               0.000140565               0.999999989               0.000749856               0.000106422               0.999999989               0.000736110               0.000064911               0.999999989               0.000721145               0.000446522               0.999999989               0.000711627               0.000359419               0.999999989               0.000700618               0.000325280               0.999999989               0.000693953               0.000313822               0.999999989               0.000691061               0.000312017               0.999999989               0.000690361               0.000313718               0.999999989               0.000690637               0.000315870               0.999999989               0.000690807               0.000316558               0.999999989               0.000689890               0.000314309               0.999999989               0.000687064               0.000308655               0.999999989               0.000681698               0.000298779               0.999999989               0.000673397               0.000283953               0.999999989               0.000661814               0.000263798               0.999999989               0.000646798               0.000237625               0.999999989               0.000628544               0.000205145               0.999999989               0.000607703               0.000166364               0.999999989               0.000585261               0.000122268               0.999999989               0.000684308               0.000550634               0.999999989               0.000650516               0.000448156               0.999999989               0.000629536               0.000411200               0.999999989               0.000618369               0.000400623               0.999999989               0.000612673               0.000400417               0.999999989               0.000609482               0.000403539               0.999999989               0.000606774               0.000406723               0.999999989               0.000603072               0.000407668               0.999999989               0.000597067               0.000404831               0.999999989               0.000587830               0.000397732               0.999999989               0.000574871               0.000385513               0.999999989               0.000557893               0.000367689               0.999999989               0.000536800               0.000343860               0.999999989               0.000511892               0.000314067               0.999999989               0.000483940               0.000278683               0.999999989               0.000453997               0.000238961               0.999999989               0.000423106               0.000196422               0.999999989               0.000640875               0.000649910               0.999999989               0.000582562               0.000536470               0.999999989               0.000553763               0.000498935               0.999999989               0.000540097               0.000489921               0.999999989               0.000533042               0.000491399               0.999999989               0.000527937               0.000495838               0.999999989               0.000522332               0.000499905               0.999999989               0.000514324               0.000501100               0.999999989               0.000502380               0.000497619               0.999999989               0.000485783               0.000488893               0.999999989               0.000464231               0.000474479               0.999999989               0.000437607               0.000454030               0.999999989               0.000406351               0.000427703               0.999999989               0.000371292               0.000395880               0.999999989               0.000333575               0.000360028               0.999999989               0.000294282               0.000321590               0.999999989               0.000254448               0.000282127               0.999999989               0.000591776               0.000743293               0.999999989               0.000510706               0.000624348               0.999999989               0.000477392               0.000587735               0.999999989               0.000463612               0.000580247               0.999999989               0.000456278               0.000583180               0.999999989               0.000449702               0.000588730               0.999999989               0.000441013               0.000593480               0.999999989               0.000427941               0.000594599               0.999999989               0.000409177               0.000590267               0.999999989               0.000384079               0.000580158               0.999999989               0.000352708               0.000563814               0.999999989               0.000315303               0.000541608               0.999999989               0.000272875               0.000514241               0.999999989               0.000226659               0.000482911               0.999999989               0.000178258               0.000449090               0.999999989               0.000128896               0.000414097               0.999999989               0.000079738               0.000379528               0.999999989               0.000538403               0.000829129               0.999999989               0.000437364               0.000711722               0.999999989               0.000404340               0.000676275               0.999999989               0.000392123               0.000669779               0.999999989               0.000385259               0.000673783               0.999999989               0.000377252               0.000680123               0.999999989               0.000364943               0.000685250               0.999999989               0.000345859               0.000686059               0.999999989               0.000318931               0.000681025               0.999999989               0.000284024               0.000669669               0.999999989               0.000241307               0.000652199               0.999999989               0.000191608               0.000629489               0.999999989               0.000136726               0.000603154               0.999999989               0.000078521               0.000574612               0.999999989               0.000018757               0.000545356               0.999999989              -0.000041121               0.000516601               0.999999989              -0.000100368               0.000488829               0.999999989               0.000483077               0.000910621               0.999999989               0.000375757               0.000810362               0.999999989               0.000340346               0.000772116               0.999999989               0.000327739               0.000761547               0.999999989               0.000321648               0.000762997               0.999999989               0.000315064               0.000769027               0.999999989               0.000305255               0.000775776               0.999999989               0.000289704               0.000780923               0.999999989               0.000267351               0.000782415               0.999999989               0.000237722               0.000779414               0.999999989               0.000200506               0.000771721               0.999999989               0.000155696               0.000759616               0.999999989               0.000104480               0.000743836               0.999999989               0.000048459               0.000725674               0.999999989              -0.000010838               0.000706528               0.999999989              -0.000071575               0.000687439               0.999999989              -0.000132667               0.000669186               0.999999989               0.000422751               0.000985144               0.999999989               0.000316376               0.000906244               0.999999989               0.000278963               0.000870677               0.999999989               0.000265119               0.000858395               0.999999989               0.000258931               0.000858351               0.999999989               0.000253386               0.000864365               0.999999989               0.000245367               0.000872635               0.999999989               0.000232974               0.000880939               0.999999989               0.000214948               0.000887688               0.999999989               0.000190312               0.000891715               0.999999989               0.000158555               0.000892540               0.999999989               0.000119577               0.000889760               0.999999989               0.000073594               0.000883695               0.999999989               0.000021416               0.000875016               0.999999989              -0.000035527               0.000865096               0.999999989              -0.000095581               0.000854886               0.999999989              -0.000156893               0.000845312               0.999999989               0.000358559               0.001050856               0.999999989               0.000259311               0.000996342               0.999999989               0.000221462               0.000967688               0.999999989               0.000206371               0.000956639               0.999999989               0.000199438               0.000956753               0.999999989               0.000194326               0.000963461               0.999999989               0.000187802               0.000973508               0.999999989               0.000177904               0.000984861               0.999999989               0.000163449               0.000996124               0.999999989               0.000143498               0.001006219               0.999999989               0.000117304               0.001014269               0.999999989               0.000084682               0.001019809               0.999999989               0.000045064               0.001022675               0.999999989              -0.000001540               0.001023038               0.999999989              -0.000054491               0.001021667               0.999999989              -0.000112555               0.001019542               0.999999989              -0.000173975               0.001017878               0.999999989               0.000291012               0.001106624               0.999999989               0.000204520               0.001076946               0.999999989               0.000168716               0.001058102               0.999999989               0.000153240               0.001050993               0.999999989               0.000145632               0.001053010               0.999999989               0.000140584               0.001061397               0.999999989               0.000135128               0.001073698               0.999999989               0.000127217               0.001088352               0.999999989               0.000115759               0.001103931               0.999999989               0.000100047               0.001119477               0.999999989               0.000079351               0.001134155               0.999999989               0.000052968               0.001147369               0.999999989               0.000020491               0.001158712               0.999999989              -0.000019089               0.001168039               0.999999989              -0.000066130               0.001175475               0.999999989              -0.000120292               0.001181664               0.999999989              -0.000180773               0.001187545               0.999999989               0.000220760               0.001151212               0.999999989               0.000151685               0.001144399               0.999999989               0.000120975               0.001136462               0.999999989               0.000106633               0.001134941               0.999999989               0.000099216               0.001140230               0.999999989               0.000094432               0.001151102               0.999999989               0.000089677               0.001166224               0.999999989               0.000083500               0.001184232               0.999999989               0.000074784               0.001203963               0.999999989               0.000063006               0.001224610               0.999999989               0.000047522               0.001245392               0.999999989               0.000027767               0.001265644               0.999999989               0.000002854               0.001284911               0.999999989              -0.000028454               0.001302839               0.999999989              -0.000067224               0.001319236               0.999999989              -0.000114193               0.001334254               0.999999989              -0.000169802               0.001348283               0.999999989               0.000148403               0.001183729               0.999999989               0.000100362               0.001195258               0.999999989               0.000077748               0.001197408               0.999999989               0.000066485               0.001201650               0.999999989               0.000060505               0.001210661               0.999999989               0.000056686               0.001224379               0.999999989               0.000052976               0.001242119               0.999999989               0.000048510               0.001263077               0.999999989               0.000042534               0.001286369               0.999999989               0.000034547               0.001311317               0.999999989               0.000024279               0.001337214               0.999999989               0.000011191               0.001363517               0.999999989              -0.000005655               0.001389771               0.999999989              -0.000027468               0.001415526               0.999999989              -0.000055539               0.001440340               0.999999989              -0.000090954               0.001463808               0.999999989              -0.000135087               0.001485769               0.999999989               0.000074584               0.001203539               0.999999989               0.000049988               0.001226887               0.999999989               0.000037943               0.001236127               0.999999989               0.000031709               0.001244712               0.999999989               0.000028342               0.001256514               0.999999989               0.000026234               0.001272417               0.999999989               0.000024164               0.001292225               0.999999989               0.000021738               0.001315288               0.999999989               0.000018579               0.001340951               0.999999989               0.000014556               0.001368723               0.999999989               0.000009463               0.001398097               0.999999989               0.000002959               0.001428683               0.999999989              -0.000005496               0.001460012               0.999999989              -0.000016698               0.001491542               0.999999989              -0.000031439               0.001522670               0.999999989              -0.000050837               0.001552616               0.999999989              -0.000075911               0.001580624               0.999999989              -0.000000000               0.001210187               0.999999989              -0.000000000               0.001237682               0.999999989               0.000000000               0.001249477               0.999999989              -0.000000000               0.001259557               0.999999989               0.000000000               0.001272440               0.999999989               0.000000000               0.001289246               0.999999989              -0.000000000               0.001309713               0.999999989               0.000000000               0.001333424               0.999999989               0.000000000               0.001359861               0.999999989               0.000000000               0.001388597               0.999999989              -0.000000000               0.001419276               0.999999989              -0.000000000               0.001451468               0.999999989               0.000000000               0.001484741               0.999999989               0.000000000               0.001518582               0.999999989              -0.000000000               0.001552300               0.999999989               0.000000000               0.001584950               0.999999989              -0.000000000               0.001615404               0.999999989 </DataArray>
<DataArray type="Float64"                                    Name="defo"                                                      NumberOfComponents=" 3" format="ascii">
             -0.000790095              -0.000000000               0.999999989              -0.000833769               0.000000000               0.999999989              -0.000852178               0.000000000               0.999999989              -0.000862431               0.000000000               0.999999989              -0.000870568               0.000000000               0.999999989              -0.000878848              -0.000000000               0.999999989              -0.000887904               0.000000000               0.999999989              -0.000897640               0.000000000               0.999999989              -0.000907849               0.000000000               0.999999989              -0.000918236               0.000000000               0.999999989              -0.000928641               0.000000000               0.999999989              -0.000938936               0.000000000               0.999999989              -0.000948705               0.000000000               0.999999989              -0.000957474              -0.000000000               0.999999989              -0.000964877               0.000000000               0.999999989              -0.000970375               0.000000000               0.999999989              -0.000973239              -0.000000000               0.999999989              -0.000785636               0.000114257               0.999999989              -0.000825576               0.000090419               0.999999989              -0.000841545               0.000079381               0.999999989              -0.000850177               0.000074535               0.999999989              -0.000857286               0.000072816               0.999999989              -0.000864821               0.000072472               0.999999989              -0.000873121               0.000072723               0.999999989              -0.000882108               0.000072769               0.999999989              -0.000891468               0.000072158               0.999999989              -0.000900948               0.000070679               0.999999989              -0.000910322               0.000068145               0.999999989              -0.000919192               0.000064252               0.999999989              -0.000927268               0.000058671               0.999999989              -0.000934157               0.000051004               0.999999989              -0.000939490               0.000040758               0.999999989              -0.000942801               0.000027148               0.999999989              -0.000943451               0.000009089               0.999999989              -0.000772305               0.000227459               0.999999989              -0.000801392               0.000180559               0.999999989              -0.000810719               0.000159627               0.999999989              -0.000815227               0.000150903               0.999999989              -0.000819570               0.000148122               0.999999989              -0.000824907               0.000147938               0.999999989              -0.000831156               0.000148530               0.999999989              -0.000838011               0.000148690               0.999999989              -0.000844991               0.000147524               0.999999989              -0.000851698               0.000144665               0.999999989              -0.000857862               0.000139620               0.999999989              -0.000862953               0.000131764               0.999999989              -0.000866657               0.000120762               0.999999989              -0.000868662               0.000106004               0.999999989              -0.000868492               0.000086443               0.999999989              -0.000865800               0.000061085               0.999999989              -0.000860375               0.000028520               0.999999989              -0.000750595               0.000338534               0.999999989              -0.000762733               0.000270253               0.999999989              -0.000762517               0.000241452               0.999999989              -0.000761481               0.000230463               0.999999989              -0.000762179               0.000227719               0.999999989              -0.000764549               0.000228228               0.999999989              -0.000767916               0.000229478               0.999999989              -0.000771692               0.000229831               0.999999989              -0.000775178               0.000228107               0.999999989              -0.000777690               0.000223894               0.999999989              -0.000778775               0.000216354               0.999999989              -0.000778021               0.000204877               0.999999989              -0.000775082               0.000188923               0.999999989              -0.000769531               0.000167852               0.999999989              -0.000761119               0.000140565               0.999999989              -0.000749856               0.000106422               0.999999989              -0.000736110               0.000064911               0.999999989              -0.000721145               0.000446522               0.999999989              -0.000711627               0.000359419               0.999999989              -0.000700618               0.000325280               0.999999989              -0.000693953               0.000313822               0.999999989              -0.000691061               0.000312017               0.999999989              -0.000690361               0.000313718               0.999999989              -0.000690637               0.000315870               0.999999989              -0.000690807               0.000316558               0.999999989              -0.000689890               0.000314309               0.999999989              -0.000687064               0.000308655               0.999999989              -0.000681698               0.000298779               0.999999989              -0.000673397               0.000283953               0.999999989              -0.000661814               0.000263798               0.999999989              -0.000646798               0.000237625               0.999999989              -0.000628544               0.000205145               0.999999989              -0.000607703               0.000166364               0.999999989              -0.000585261               0.000122268               0.999999989              -0.000684308               0.000550634               0.999999989              -0.000650516               0.000448156               0.999999989              -0.000629536               0.000411200               0.999999989              -0.000618369               0.000400623               0.999999989              -0.000612673               0.000400417               0.999999989              -0.000609482               0.000403539               0.999999989              -0.000606774               0.000406723               0.999999989              -0.000603072               0.000407668               0.999999989              -0.000597067               0.000404831               0.999999989              -0.000587830               0.000397732               0.999999989              -0.000574871               0.000385513               0.999999989              -0.000557893               0.000367689               0.999999989              -0.000536800               0.000343860               0.999999989              -0.000511892               0.000314067               0.999999989              -0.000483940               0.000278683               0.999999989              -0.000453997               0.000238961               0.999999989              -0.000423106               0.000196422               0.999999989              -0.000640875               0.000649910               0.999999989              -0.000582562               0.000536470               0.999999989              -0.000553763               0.000498935               0.999999989              -0.000540097               0.000489921               0.999999989              -0.000533042               0.000491399               0.999999989              -0.000527937               0.000495838               0.999999989              -0.000522332               0.000499905               0.999999989              -0.000514324               0.000501100               0.999999989              -0.000502380               0.000497619               0.999999989              -0.000485783               0.000488893               0.999999989              -0.000464231               0.000474479               0.999999989              -0.000437607               0.000454030               0.999999989              -0.000406351               0.000427703               0.999999989              -0.000371292               0.000395880               0.999999989              -0.000333575               0.000360028               0.999999989              -0.000294282               0.000321590               0.999999989              -0.000254448               0.000282127               0.999999989              -0.000591776               0.000743293               0.999999989              -0.000510706               0.000624348               0.999999989              -0.000477392               0.000587735               0.999999989              -0.000463612               0.000580247               0.999999989              -0.000456278               0.000583180               0.999999989              -0.000449702               0.000588730               0.999999989              -0.000441013               0.000593480               0.999999989              -0.000427941               0.000594599               0.999999989              -0.000409177               0.000590267               0.999999989              -0.000384079               0.000580158               0.999999989              -0.000352708               0.000563814               0.999999989              -0.000315303               0.000541608               0.999999989              -0.000272875               0.000514241               0.999999989              -0.000226659               0.000482911               0.999999989              -0.000178258               0.000449090               0.999999989              -0.000128896               0.000414097               0.999999989              -0.000079738               0.000379528               0.999999989              -0.000538403               0.000829129               0.999999989              -0.000437364               0.000711722               0.999999989              -0.000404340               0.000676275               0.999999989              -0.000392123               0.000669779               0.999999989              -0.000385259               0.000673783               0.999999989              -0.000377252               0.000680123               0.999999989              -0.000364943               0.000685250               0.999999989              -0.000345859               0.000686059               0.999999989              -0.000318931               0.000681025               0.999999989              -0.000284024               0.000669669               0.999999989              -0.000241307               0.000652199               0.999999989              -0.000191608               0.000629489               0.999999989              -0.000136726               0.000603154               0.999999989              -0.000078521               0.000574612               0.999999989              -0.000018757               0.000545356               0.999999989               0.000041121               0.000516601               0.999999989               0.000100368               0.000488829               0.999999989              -0.000483077               0.000910621               0.999999989              -0.000375757               0.000810362               0.999999989              -0.000340346               0.000772116               0.999999989              -0.000327739               0.000761547               0.999999989              -0.000321648               0.000762997               0.999999989              -0.000315064               0.000769027               0.999999989              -0.000305255               0.000775776               0.999999989              -0.000289704               0.000780923               0.999999989              -0.000267351               0.000782415               0.999999989              -0.000237722               0.000779414               0.999999989              -0.000200506               0.000771721               0.999999989              -0.000155696               0.000759616               0.999999989              -0.000104480               0.000743836               0.999999989              -0.000048459               0.000725674               0.999999989               0.000010838               0.000706528               0.999999989               0.000071575               0.000687439               0.999999989               0.000132667               0.000669186               0.999999989              -0.000422751               0.000985144               0.999999989              -0.000316376               0.000906244               0.999999989              -0.000278963               0.000870677               0.999999989              -0.000265119               0.000858395               0.999999989              -0.000258931               0.000858351               0.999999989              -0.000253386               0.000864365               0.999999989              -0.000245367               0.000872635               0.999999989              -0.000232974               0.000880939               0.999999989              -0.000214948               0.000887688               0.999999989              -0.000190312               0.000891715               0.999999989              -0.000158555               0.000892540               0.999999989              -0.000119577               0.000889760               0.999999989              -0.000073594               0.000883695               0.999999989              -0.000021416               0.000875016               0.999999989               0.000035527               0.000865096               0.999999989               0.000095581               0.000854886               0.999999989               0.000156893               0.000845312               0.999999989              -0.000358559               0.001050856               0.999999989              -0.000259311               0.000996342               0.999999989              -0.000221462               0.000967688               0.999999989              -0.000206371               0.000956639               0.999999989              -0.000199438               0.000956753               0.999999989              -0.000194326               0.000963461               0.999999989              -0.000187802               0.000973508               0.999999989              -0.000177904               0.000984861               0.999999989              -0.000163449               0.000996124               0.999999989              -0.000143498               0.001006219               0.999999989              -0.000117304               0.001014269               0.999999989              -0.000084682               0.001019809               0.999999989              -0.000045064               0.001022675               0.999999989               0.000001540               0.001023038               0.999999989               0.000054491               0.001021667               0.999999989               0.000112555               0.001019542               0.999999989               0.000173975               0.001017878               0.999999989              -0.000291012               0.001106624               0.999999989              -0.000204520               0.001076946               0.999999989              -0.000168716               0.001058102               0.999999989              -0.000153240               0.001050993               0.999999989              -0.000145632               0.001053010               0.999999989              -0.000140584               0.001061397               0.999999989              -0.000135128               0.001073698               0.999999989              -0.000127217               0.001088352               0.999999989              -0.000115759               0.001103931               0.999999989              -0.000100047               0.001119477               0.999999989              -0.000079351               0.001134155               0.999999989              -0.000052968               0.001147369               0.999999989              -0.000020491               0.001158712               0.999999989               0.000019089               0.001168039               0.999999989               0.000066130               0.001175475               0.999999989               0.000120292               0.001181664               0.999999989               0.000180773               0.001187545               0.999999989              -0.000220760               0.001151212               0.999999989              -0.000151685               0.001144399               0.999999989              -0.000120975               0.001136462               0.999999989              -0.000106633               0.001134941               0.999999989              -0.000099216               0.001140230               0.999999989              -0.000094432               0.001151102               0.999999989              -0.000089677               0.001166224               0.999999989              -0.000083500               0.001184232               0.999999989              -0.000074784               0.001203963               0.999999989              -0.000063006               0.001224610               0.999999989              -0.000047522               0.001245392               0.999999989              -0.000027767               0.001265644               0.999999989              -0.000002854               0.001284911               0.999999989               0.000028454               0.001302839               0.999999989               0.000067224               0.001319236               0.999999989               0.000114193               0.001334254               0.999999989               0.000169802               0.001348283               0.999999989              -0.000148403               0.001183729               0.999999989              -0.000100362               0.001195258               0.999999989              -0.000077748               0.001197408               0.999999989              -0.000066485               0.001201650               0.999999989              -0.000060505               0.001210661               0.999999989              -0.000056686               0.001224379               0.999999989              -0.000052976               0.001242119               0.999999989              -0.000048510               0.001263077               0.999999989              -0.000042534               0.001286369               0.999999989              -0.000034547               0.001311317               0.999999989              -0.000024279               0.001337214               0.999999989              -0.000011191               0.001363517               0.999999989               0.000005655               0.001389771               0.999999989               0.000027468               0.001415526               0.999999989               0.000055539               0.001440340               0.999999989               0.000090954               0.001463808               0.999999989               0.000135087               0.001485769               0.999999989              -0.000074584               0.001203539               0.999999989              -0.000049988               0.001226887               0.999999989              -0.000037943               0.001236127               0.999999989              -0.000031709               0.001244712               0.999999989              -0.000028342               0.001256514               0.999999989              -0.000026234               0.001272417               0.999999989              -0.000024164               0.001292225               0.999999989              -0.000021738               0.001315288               0.999999989              -0.000018579               0.001340951               0.999999989              -0.000014556               0.001368723               0.999999989              -0.000009463               0.001398097               0.999999989              -0.000002959               0.001428683               0.999999989               0.000005496               0.001460012               0.999999989               0.000016698               0.001491542               0.999999989               0.000031439               0.001522670               0.999999989               0.000050837               0.001552616               0.999999989               0.000075911               0.001580624               0.999999989              -0.000000000               0.001210187               0.999999989              -0.000000000               0.001237682               0.999999989               0.000000000               0.001249477               0.999999989              -0.000000000               0.001259557               0.999999989               0.000000000               0.001272440               0.999999989               0.000000000               0.001289246               0.999999989              -0.000000000               0.001309713               0.999999989               0.000000000               0.001333424               0.999999989               0.000000000               0.001359861               0.999999989               0.000000000               0.001388597               0.999999989              -0.000000000               0.001419276               0.999999989              -0.000000000               0.001451468               0.999999989               0.000000000               0.001484741               0.999999989               0.000000000               0.001518582               0.999999989              -0.000000000               0.001552300               0.999999989               0.000000000               0.001584950               0.999999989              -0.000000000               0.001615404               0.999999989              -0.000790095              -0.000000000               0.999999989              -0.000833769               0.000000000               0.999999989              -0.000852178               0.000000000               0.999999989              -0.000862431               0.000000000               0.999999989              -0.000870568               0.000000000               0.999999989              -0.000878848              -0.000000000               0.999999989              -0.000887904               0.000000000               0.999999989              -0.000897640               0.000000000               0.999999989              -0.000907849               0.000000000               0.999999989              -0.000918236               0.000000000               0.999999989              -0.000928641               0.000000000               0.999999989              -0.000938936               0.000000000               0.999999989              -0.000948705               0.000000000               0.999999989              -0.000957474              -0.000000000               0.999999989              -0.000964877               0.000000000               0.999999989              -0.000970375               0.000000000               0.999999989              -0.000973239              -0.000000000               0.999999989              -0.000785636              -0.000114257               0.999999989              -0.000825576              -0.000090419               0.999999989              -0.000841545              -0.000079381               0.999999989              -0.000850177              -0.000074535               0.999999989              -0.000857286              -0.000072816               0.999999989              -0.000864821              -0.000072472               0.999999989              -0.000873121              -0.000072723               0.999999989              -0.000882108              -0.000072769               0.999999989              -0.000891468              -0.000072158               0.999999989              -0.000900948              -0.000070679               0.999999989              -0.000910322              -0.000068145               0.999999989              -0.000919192              -0.000064252               0.999999989              -0.000927268              -0.000058671               0.999999989              -0.000934157              -0.000051004               0.999999989              -0.000939490              -0.000040758               0.999999989              -0.000942801              -0.000027148               0.999999989              -0.000943451              -0.000009089               0.999999989              -0.000772305              -0.000227459               0.999999989              -0.000801392              -0.000180559               0.999999989              -0.000810719              -0.000159627               0.999999989              -0.000815227              -0.000150903               0.999999989              -0.000819570              -0.000148122               0.999999989              -0.000824907              -0.000147938               0.999999989              -0.000831156              -0.000148530               0.999999989              -0.000838011              -0.000148690               0.999999989              -0.000844991              -0.000147524               0.999999989              -0.000851698              -0.000144665               0.999999989              -0.000857862              -0.000139620               0.999999989              -0.000862953              -0.000131764               0.999999989              -0.000866657              -0.000120762               0.999999989              -0.000868662              -0.000106004               0.999999989              -0.000868492              -0.000086443               0.999999989              -0.000865800              -0.000061085               0.999999989              -0.000860375              -0.000028520               0.999999989              -0.000750595              -0.000338534               0.999999989              -0.000762733              -0.000270253               0.999999989              -0.000762517              -0.000241452               0.999999989              -0.000761481              -0.000230463               0.999999989              -0.000762179              -0.000227719               0.999999989              -0.000764549              -0.000228228               0.999999989              -0.000767916              -0.000229478               0.999999989              -0.000771692              -0.000229831               0.999999989              -0.000775178              -0.000228107               0.999999989              -0.000777690              -0.000223894               0.999999989              -0.000778775              -0.000216354               0.999999989              -0.000778021              -0.000204877               0.999999989              -0.000775082              -0.000188923               0.999999989              -0.000769531              -0.000167852               0.999999989              -0.000761119              -0.000140565               0.999999989              -0.000749856              -0.000106422               0.999999989              -0.000736110              -0.000064911               0.999999989              -0.000721145              -0.000446522               0.999999989              -0.000711627              -0.000359419               0.999999989              -0.000700618              -0.000325280               0.999999989              -0.000693953              -0.000313822               0.999999989              -0.000691061              -0.000312017               0.999999989              -0.000690361              -0.000313718               0.999999989              -0.000690637              -0.000315870               0.999999989              -0.000690807              -0.000316558               0.999999989              -0.000689890              -0.000314309               0.999999989              -0.000687064              -0.000308655               0.999999989              -0.000681698              -0.000298779               0.999999989              -0.000673397              -0.000283953               0.999999989              -0.000661814              -0.000263798               0.999999989              -0.000646798              -0.000237625               0.999999989              -0.000628544              -0.000205145               0.999999989              -0.000607703              -0.000166364               0.999999989              -0.000585261              -0.000122268               0.999999989              -0.000684308              -0.000550634               0.999999989              -0.000650516              -0.000448156               0.999999989              -0.000629536              -0.000411200               0.999999989              -0.000618369              -0.000400623               0.999999989              -0.000612673              -0.000400417               0.999999989              -0.000609482              -0.000403539               0.999999989              -0.000606774              -0.000406723               0.999999989              -0.000603072              -0.000407668               0.999999989              -0.000597067              -0.000404831               0.999999989              -0.000587830              -0.000397732               0.999999989              -0.000574871              -0.000385513               0.999999989              -0.000557893              -0.000367689               0.999999989              -0.000536800              -0.000343860               0.999999989              -0.000511892              -0.000314067               0.999999989              -0.000483940              -0.000278683               0.999999989              -0.000453997              -0.000238961               0.999999989              -0.000423106              -0.000196422               0.999999989              -0.000640875              -0.000649910               0.999999989              -0.000582562              -0.000536470               0.999999989              -0.000553763              -0.000498935               0.999999989              -0.000540097              -0.000489921               0.999999989              -0.000533042              -0.000491399               0.999999989              -0.000527937              -0.000495838               0.999999989              -0.000522332              -0.000499905               0.999999989              -0.000514324              -0.000501100               0.999999989              -0.000502380              -0.000497619               0.999999989              -0.000485783              -0.000488893               0.999999989              -0.000464231              -0.000474479               0.999999989              -0.000437607              -0.000454030               0.999999989              -0.000406351              -0.000427703               0.999999989              -0.000371292              -0.000395880               0.999999989              -0.000333575              -0.000360028               0.999999989              -0.000294282              -0.000321590               0.999999989              -0.000254448              -0.000282127               0.999999989              -0.000591776              -0.000743293               0.999999989              -0.000510706              -0.000624348               0.999999989              -0.000477392              -0.000587735               0.999999989              -0.000463612              -0.000580247               0.999999989              -0.000456278              -0.000583180               0.999999989              -0.000449702              -0.000588730               0.999999989              -0.000441013              -0.000593480               0.999999989              -0.000427941              -0.000594599               0.999999989              -0.000409177              -0.000590267               0.999999989              -0.000384079              -0.000580158               0.999999989              -0.000352708              -0.000563814               0.999999989              -0.000315303              -0.000541608               0.999999989              -0.000272875              -0.000514241               0.999999989              -0.000226659              -0.000482911               0.999999989              -0.000178258              -0.000449090               0.999999989              -0.000128896              -0.000414097               0.999999989              -0.000079738              -0.000379528               0.999999989              -0.000538403              -0.000829129               0.999999989              -0.000437364              -0.000711722               0.999999989              -0.000404340              -0.000676275               0.999999989              -0.000392123              -0.000669779               0.999999989              -0.000385259              -0.000673783               0.999999989              -0.000377252              -0.000680123               0.999999989              -0.000364943              -0.000685250               0.999999989              -0.000345859              -0.000686059               0.999999989              -0.000318931              -0.000681025               0.999999989              -0.000284024              -0.000669669               0.999999989              -0.000241307              -0.000652199               0.999999989              -0.000191608              -0.000629489               0.999999989              -0.000136726              -0.000603154               0.999999989              -0.000078521              -0.000574612               0.999999989              -0.000018757              -0.000545356               0.999999989               0.000041121              -0.000516601               0.999999989               0.000100368              -0.000488829               0.999999989              -0.000483077              -0.000910621               0.999999989              -0.000375757              -0.000810362               0.999999989              -0.000340346              -0.000772116               0.999999989              -0.000327739              -0.000761547               0.999999989              -0.000321648              -0.000762997               0.999999989              -0.000315064              -0.000769027               0.999999989              -0.000305255              -0.000775776               0.999999989              -0.000289704              -0.000780923               0.999999989              -0.000267351              -0.000782415               0.999999989              -0.000237722              -0.000779414               0.999999989              -0.000200506              -0.000771721               0.999999989              -0.000155696              -0.000759616               0.999999989              -0.000104480              -0.000743836               0.999999989              -0.000048459              -0.000725674               0.999999989               0.000010838              -0.000706528               0.999999989               0.000071575              -0.000687439               0.999999989               0.000132667              -0.000669186               0.999999989              -0.000422751              -0.000985144               0.999999989              -0.000316376              -0.000906244               0.999999989              -0.000278963              -0.000870677               0.999999989              -0.000265119              -0.000858395               0.999999989              -0.000258931              -0.000858351               0.999999989              -0.000253386              -0.000864365               0.999999989              -0.000245367              -0.000872635               0.999999989              -0.000232974              -0.000880939               0.999999989              -0.000214948              -0.000887688               0.999999989              -0.000190312              -0.000891715               0.999999989              -0.000158555              -0.000892540               0.999999989              -0.000119577              -0.000889760               0.999999989              -0.000073594              -0.000883695               0.999999989              -0.000021416              -0.000875016               0.999999989               0.000035527              -0.000865096               0.999999989               0.000095581              -0.000854886               0.999999989               0.000156893              -0.000845312               0.999999989              -0.000358559              -0.001050856               0.999999989              -0.000259311              -0.000996342               0.999999989              -0.000221462              -0.000967688               0.999999989              -0.000206371              -0.000956639               0.999999989              -0.000199438              -0.000956753               0.999999989              -0.000194326              -0.000963461               0.999999989              -0.000187802              -0.000973508               0.999999989              -0.000177904              -0.000984861               0.999999989              -0.000163449              -0.000996124               0.999999989              -0.000143498              -0.001006219               0.999999989              -0.000117304              -0.001014269               0.999999989              -0.000084682              -0.001019809               0.999999989              -0.000045064              -0.001022675               0.999999989               0.000001540              -0.001023038               0.999999989               0.000054491              -0.001021667               0.999999989               0.000112555              -0.001019542               0.999999989               0.000173975              -0.001017878               0.999999989              -0.000291012              -0.001106624               0.999999989              -0.000204520              -0.001076946               0.999999989              -0.000168716              -0.001058102               0.999999989              -0.000153240              -0.001050993               0.999999989              -0.000145632              -0.001053010               0.999999989              -0.000140584              -0.001061397               0.999999989              -0.000135128              -0.001073698               0.999999989              -0.000127217              -0.001088352               0.999999989              -0.000115759              -0.001103931               0.999999989              -0.000100047              -0.001119477               0.999999989              -0.000079351              -0.001134155               0.999999989              -0.000052968              -0.001147369               0.999999989              -0.000020491              -0.001158712               0.999999989               0.000019089              -0.001168039               0.999999989               0.000066130              -0.001175475               0.999999989               0.000120292              -0.001181664               0.999999989               0.000180773              -0.001187545               0.999999989              -0.000220760              -0.001151212               0.999999989              -0.000151685              -0.001144399               0.999999989              -0.000120975              -0.001136462               0.999999989              -0.000106633              -0.001134941               0.999999989              -0.000099216              -0.001140230               0.999999989              -0.000094432              -0.001151102               0.999999989              -0.000089677              -0.001166224               0.999999989              -0.000083500              -0.001184232               0.999999989              -0.000074784              -0.001203963               0.999999989              -0.000063006              -0.001224610               0.999999989              -0.000047522              -0.001245392               0.999999989              -0.000027767              -0.001265644               0.999999989              -0.000002854              -0.001284911               0.999999989               0.000028454              -0.001302839               0.999999989               0.000067224              -0.001319236               0.999999989               0.000114193              -0.001334254               0.999999989               0.000169802              -0.001348283               0.999999989              -0.000148403              -0.001183729               0.999999989              -0.000100362              -0.001195258               0.999999989              -0.000077748              -0.001197408               0.999999989              -0.000066485              -0.001201650               0.999999989              -0.000060505              -0.001210661               0.999999989              -0.000056686              -0.001224379               0.999999989              -0.000052976              -0.001242119               0.999999989              -0.000048510              -0.001263077               0.999999989              -0.000042534              -0.001286369               0.999999989              -0.000034547              -0.001311317               0.999999989              -0.000024279              -0.001337214               0.999999989              -0.000011191              -0.001363517               0.999999989               0.000005655              -0.001389771               0.999999989               0.000027468              -0.001415526               0.999999989               0.000055539              -0.001440340               0.999999989               0.000090954              -0.001463808               0.999999989               0.000135087              -0.001485769               0.999999989              -0.000074584              -0.001203539               0.999999989              -0.000049988              -0.001226887               0.999999989              -0.000037943              -0.001236127               0.999999989              -0.000031709              -0.001244712               0.999999989              -0.000028342              -0.001256514               0.999999989              -0.000026234              -0.001272417               0.999999989              -0.000024164              -0.001292225               0.999999989              -0.000021738              -0.001315288               0.999999989              -0.000018579              -0.001340951               0.999999989              -0.000014556              -0.001368723               0.999999989              -0.000009463              -0.001398097               0.999999989              -0.000002959              -0.001428683               0.999999989               0.000005496              -0.001460012               0.999999989               0.000016698              -0.001491542               0.999999989               0.000031439              -0.001522670               0.999999989               0.000050837              -0.001552616               0.999999989               0.000075911              -0.001580624               0.999999989               0.000000000              -0.001210187               0.999999989               0.000000000              -0.001237682               0.999999989              -0.000000000              -0.001249477               0.999999989              -0.000000000              -0.001259557               0.999999989              -0.000000000              -0.001272440               0.999999989               0.000000000              -0.001289246               0.999999989               0.000000000              -0.001309713               0.999999989               0.000000000              -0.001333424               0.999999989              -0.000000000              -0.001359861               0.999999989               0.000000000              -0.001388597               0.999999989               0.000000000              -0.001419276               0.999999989              -0.000000000              -0.001451468               0.999999989              -0.000000000              -0.001484741               0.999999989              -0.000000000              -0.001518582               0.999999989              -0.000000000              -0.001552300               0.999999989              -0.000000000              -0.001584950               0.999999989               0.000000000              -0.001615404               0.999999989               0.000790095               0.000000000               0.999999989               0.000833769              -0.000000000               0.999999989               0.000852178              -0.000000000               0.999999989               0.000862431               0.000000000               0.999999989               0.000870568              -0.000000000               0.999999989               0.000878848              -0.000000000               0.999999989               0.000887904              -0.000000000               0.999999989               0.000897640              -0.000000000               0.999999989               0.000907849              -0.000000000               0.999999989               0.000918236               0.000000000               0.999999989               0.000928641              -0.000000000               0.999999989               0.000938936               0.000000000               0.999999989               0.000948705               0.000000000               0.999999989               0.000957474              -0.000000000               0.999999989               0.000964877              -0.000000000               0.999999989               0.000970375               0.000000000               0.999999989               0.000973239               0.000000000               0.999999989               0.000785636              -0.000114257               0.999999989               0.000825576              -0.000090419               0.999999989               0.000841545              -0.000079381               0.999999989               0.000850177              -0.000074535               0.999999989               0.000857286              -0.000072816               0.999999989               0.000864821              -0.000072472               0.999999989               0.000873121              -0.000072723               0.999999989               0.000882108              -0.000072769               0.999999989               0.000891468              -0.000072158               0.999999989               0.000900948              -0.000070679               0.999999989               0.000910322              -0.000068145               0.999999989               0.000919192              -0.000064252               0.999999989               0.000927268              -0.000058671               0.999999989               0.000934157              -0.000051004               0.999999989               0.000939490              -0.000040758               0.999999989               0.000942801              -0.000027148               0.999999989               0.000943451              -0.000009089               0.999999989               0.000772305              -0.000227459               0.999999989               0.000801392              -0.000180559               0.999999989               0.000810719              -0.000159627               0.999999989               0.000815227              -0.000150903               0.999999989               0.000819570              -0.000148122               0.999999989               0.000824907              -0.000147938               0.999999989               0.000831156              -0.000148530               0.999999989               0.000838011              -0.000148690               0.999999989               0.000844991              -0.000147524               0.999999989               0.000851698              -0.000144665               0.999999989               0.000857862              -0.000139620               0.999999989               0.000862953              -0.000131764               0.999999989               0.000866657              -0.000120762               0.999999989               0.000868662              -0.000106004               0.999999989               0.000868492              -0.000086443               0.999999989               0.000865800              -0.000061085               0.999999989               0.000860375              -0.000028520               0.999999989               0.000750595              -0.000338534               0.999999989               0.000762733              -0.000270253               0.999999989               0.000762517              -0.000241452               0.999999989               0.000761481              -0.000230463               0.999999989               0.000762179              -0.000227719               0.999999989               0.000764549              -0.000228228               0.999999989               0.000767916              -0.000229478               0.999999989               0.000771692              -0.000229831               0.999999989               0.000775178              -0.000228107               0.999999989               0.000777690              -0.000223894               0.999999989               0.000778775              -0.000216354               0.999999989               0.000778021              -0.000204877               0.999999989               0.000775082              -0.000188923               0.999999989               0.000769531              -0.000167852               0.999999989               0.000761119              -0.000140565               0.999999989               0.000749856              -0.000106422               0.999999989               0.000736110              -0.000064911               0.999999989               0.000721145              -0.000446522               0.999999989               0.000711627              -0.000359419               0.999999989               0.000700618              -0.000325280               0.999999989               0.000693953              -0.000313822               0.999999989               0.000691061              -0.000312017               0.999999989               0.000690361              -0.000313718               0.999999989               0.000690637              -0.000315870               0.999999989               0.000690807              -0.000316558               0.999999989               0.000689890              -0.000314309               0.999999989               0.000687064              -0.000308655               0.999999989               0.000681698              -0.000298779               0.999999989               0.000673397              -0.000283953               0.999999989               0.000661814              -0.000263798               0.999999989               0.000646798              -0.000237625               0.999999989               0.000628544              -0.000205145               0.999999989               0.000607703              -0.000166364               0.999999989               0.000585261              -0.000122268               0.999999989               0.000684308              -0.000550634               0.999999989               0.000650516              -0.000448156               0.999999989               0.000629536              -0.000411200               0.999999989               0.000618369              -0.000400623               0.999999989               0.000612673              -0.000400417               0.999999989               0.000609482              -0.000403539               0.999999989               0.000606774              -0.000406723               0.999999989               0.000603072              -0.000407668               0.999999989               0.000597067              -0.000404831               0.999999989               0.000587830              -0.000397732               0.999999989               0.000574871              -0.000385513               0.999999989               0.000557893              -0.000367689               0.999999989               0.000536800              -0.000343860               0.999999989               0.000511892              -0.000314067               0.999999989               0.000483940              -0.000278683               0.999999989               0.000453997              -0.000238961               0.999999989               0.000423106              -0.000196422               0.999999989               0.000640875              -0.000649910               0.999999989               0.000582562              -0.000536470               0.999999989               0.000553763              -0.000498935               0.999999989               0.000540097              -0.000489921               0.999999989               0.000533042              -0.000491399               0.999999989               0.000527937              -0.000495838               0.999999989               0.000522332              -0.000499905               0.999999989               0.000514324              -0.000501100               0.999999989               0.000502380              -0.000497619               0.999999989               0.000485783              -0.000488893               0.999999989               0.000464231              -0.000474479               0.999999989               0.000437607              -0.000454030               0.999999989               0.000406351              -0.000427703               0.999999989               0.000371292              -0.000395880               0.999999989               0.000333575              -0.000360028               0.999999989               0.000294282              -0.000321590               0.999999989               0.000254448              -0.000282127               0.999999989               0.000591776              -0.000743293               0.999999989               0.000510706              -0.000624348               0.999999989               0.000477392              -0.000587735               0.999999989               0.000463612              -0.000580247               0.999999989               0.000456278              -0.000583180               0.999999989               0.000449702              -0.000588730               0.999999989               0.000441013              -0.000593480               0.999999989               0.000427941              -0.000594599               0.999999989               0.000409177              -0.000590267               0.999999989               0.000384079              -0.000580158               0.999999989               0.000352708              -0.000563814               0.999999989               0.000315303              -0.000541608               0.999999989               0.000272875              -0.000514241               0.999999989               0.000226659              -0.000482911               0.999999989               0.000178258              -0.000449090               0.999999989               0.000128896              -0.000414097               0.999999989               0.000079738              -0.000379528               0.999999989               0.000538403              -0.000829129               0.999999989               0.000437364              -0.000711722               0.999999989               0.000404340              -0.000676275               0.999999989               0.000392123              -0.000669779               0.999999989               0.000385259              -0.000673783               0.999999989               0.000377252              -0.000680123               0.999999989               0.000364943              -0.000685250               0.999999989               0.000345859              -0.000686059               0.999999989               0.000318931              -0.000681025               0.999999989               0.000284024              -0.000669669               0.999999989               0.000241307              -0.000652199               0.999999989               0.000191608              -0.000629489               0.999999989               0.000136726              -0.000603154               0.999999989               0.000078521              -0.000574612               0.999999989               0.000018757              -0.000545356               0.999999989              -0.000041121              -0.000516601               0.999999989              -0.000100368              -0.000488829               0.999999989               0.000483077              -0.000910621               0.999999989               0.000375757              -0.000810362               0.999999989               0.000340346              -0.000772116               0.999999989               0.000327739              -0.000761547               0.999999989               0.000321648              -0.000762997               0.999999989               0.000315064              -0.000769027               0.999999989               0.000305255              -0.000775776               0.999999989               0.000289704              -0.000780923               0.999999989               0.000267351              -0.000782415               0.999999989               0.000237722              -0.000779414               0.999999989               0.000200506              -0.000771721               0.999999989               0.000155696              -0.000759616               0.999999989               0.000104480              -0.000743836               0.999999989               0.000048459              -0.000725674               0.999999989              -0.000010838              -0.000706528               0.999999989              -0.000071575              -0.000687439               0.999999989              -0.000132667              -0.000669186               0.999999989               0.000422751              -0.000985144               0.999999989               0.000316376              -0.000906244               0.999999989               0.000278963              -0.000870677               0.999999989               0.000265119              -0.000858395               0.999999989               0.000258931              -0.000858351               0.999999989               0.000253386              -0.000864365               0.999999989               0.000245367              -0.000872635               0.999999989               0.000232974              -0.000880939               0.999999989               0.000214948              -0.000887688               0.999999989               0.000190312              -0.000891715               0.999999989               0.000158555              -0.000892540               0.999999989               0.000119577              -0.000889760               0.999999989               0.000073594              -0.000883695               0.999999989               0.000021416              -0.000875016               0.999999989              -0.000035527              -0.000865096               0.999999989              -0.000095581              -0.000854886               0.999999989              -0.000156893              -0.000845312               0.999999989               0.000358559              -0.001050856               0.999999989               0.000259311              -0.000996342               0.999999989               0.000221462              -0.000967688               0.999999989               0.000206371              -0.000956639               0.999999989               0.000199438              -0.000956753               0.999999989               0.000194326              -0.000963461               0.999999989               0.000187802              -0.000973508               0.999999989               0.000177904              -0.000984861               0.999999989               0.000163449              -0.000996124               0.999999989               0.000143498              -0.001006219               0.999999989               0.000117304              -0.001014269               0.999999989               0.000084682              -0.001019809               0.999999989               0.000045064              -0.001022675               0.999999989              -0.000001540              -0.001023038               0.999999989              -0.000054491              -0.001021667               0.999999989              -0.000112555              -0.001019542               0.999999989              -0.000173975              -0.001017878               0.999999989               0.000291012              -0.001106624               0.999999989               0.000204520              -0.001076946               0.999999989               0.000168716              -0.001058102               0.999999989               0.000153240              -0.001050993               0.999999989               0.000145632              -0.001053010               0.999999989               0.000140584              -0.001061397               0.999999989               0.000135128              -0.001073698               0.999999989               0.000127217              -0.001088352               0.999999989               0.000115759              -0.001103931               0.999999989               0.000100047              -0.001119477               0.999999989               0.000079351              -0.001134155               0.999999989               0.000052968              -0.001147369               0.999999989               0.000020491              -0.001158712               0.999999989              -0.000019089              -0.001168039               0.999999989              -0.000066130              -0.001175475               0.999999989              -0.000120292              -0.001181664               0.999999989              -0.000180773              -0.001187545               0.999999989               0.000220760              -0.001151212               0.999999989               0.000151685              -0.001144399               0.999999989               0.000120975              -0.001136462               0.999999989               0.000106633              -0.001134941               0.999999989               0.000099216              -0.001140230               0.999999989               0.000094432              -0.001151102               0.999999989               0.000089677              -0.001166224               0.999999989               0.000083500              -0.001184232               0.999999989               0.000074784              -0.001203963               0.999999989               0.000063006              -0.001224610               0.999999989               0.000047522              -0.001245392               0.999999989               0.000027767              -0.001265644               0.999999989               0.000002854              -0.001284911               0.999999989              -0.000028454              -0.001302839               0.999999989              -0.000067224              -0.001319236               0.999999989              -0.000114193              -0.001334254               0.999999989              -0.000169802              -0.001348283               0.999999989               0.000148403              -0.001183729               0.999999989               0.000100362              -0.001195258               0.999999989               0.000077748              -0.001197408               0.999999989               0.000066485              -0.001201650               0.999999989               0.000060505              -0.001210661               0.999999989               0.000056686              -0.001224379               0.999999989               0.000052976              -0.001242119               0.999999989               0.000048510              -0.001263077               0.999999989               0.000042534              -0.001286369               0.999999989               0.000034547              -0.001311317               0.999999989               0.000024279              -0.001337214               0.999999989               0.000011191              -0.001363517               0.999999989              -0.000005655              -0.001389771               0.999999989              -0.000027468              -0.001415526               0.999999989              -0.000055539              -0.001440340               0.999999989              -0.000090954              -0.001463808               0.999999989              -0.000135087              -0.001485769               0.999999989               0.000074584              -0.001203539               0.999999989               0.000049988              -0.001226887               0.999999989               0.000037943              -0.001236127               0.999999989               0.000031709              -0.001244712               0.999999989               0.000028342              -0.001256514               0.999999989               0.000026234              -0.001272417               0.999999989               0.000024164              -0.001292225               0.999999989               0.000021738              -0.001315288               0.999999989               0.000018579              -0.001340951               0.999999989               0.000014556              -0.001368723               0.999999989               0.000009463              -0.001398097               0.999999989               0.000002959              -0.001428683               0.999999989              -0.000005496              -0.001460012               0.999999989              -0.000016698              -0.001491542               0.999999989              -0.000031439              -0.001522670               0.999999989              -0.000050837              -0.001552616               0.999999989              -0.000075911              -0.001580624               0.999999989               0.000000000              -0.001210187               0.999999989               0.000000000              -0.001237682               0.999999989              -0.000000000              -0.001249477               0.999999989              -0.000000000              -0.001259557               0.999999989              -0.000000000              -0.001272440               0.999999989               0.000000000              -0.001289246               0.999999989               0.000000000              -0.001309713               0.999999989               0.000000000              -0.001333424               0.999999989              -0.000000000              -0.001359861               0.999999989               0.000000000              -0.001388597               0.999999989               0.000000000              -0.001419276               0.999999989              -0.000000000              -0.001451468               0.999999989              -0.000000000              -0.001484741               0.999999989              -0.000000000              -0.001518582               0.999999989              -0.000000000              -0.001552300               0.999999989              -0.000000000              -0.001584950               0.999999989               0.000000000              -0.001615404               0.999999989               0.000790095               0.000000000               0.999999989               0.000833769              -0.000000000               0.999999989               0.000852178              -0.000000000               0.999999989               0.000862431               0.000000000               0.999999989               0.000870568              -0.000000000               0.999999989               0.000878848              -0.000000000               0.999999989               0.000887904              -0.000000000               0.999999989               0.000897640              -0.000000000               0.999999989               0.000907849              -0.000000000               0.999999989               0.000918236               0.000000000               0.999999989               0.000928641              -0.000000000               0.999999989               0.000938936               0.000000000               0.999999989               0.000948705               0.000000000               0.999999989               0.000957474              -0.000000000               0.999999989               0.000964877              -0.000000000               0.999999989               0.000970375               0.000000000               0.999999989               0.000973239               0.000000000               0.999999989               0.000785636               0.000114257               0.999999989               0.000825576               0.000090419               0.999999989               0.000841545               0.000079381               0.999999989               0.000850177               0.000074535               0.999999989               0.000857286               0.000072816               0.999999989               0.000864821               0.000072472               0.999999989               0.000873121               0.000072723               0.999999989               0.000882108               0.000072769               0.999999989               0.000891468               0.000072158               0.999999989               0.000900948               0.000070679               0.999999989               0.000910322               0.000068145               0.999999989               0.000919192               0.000064252               0.999999989               0.000927268               0.000058671               0.999999989               0.000934157               0.000051004               0.999999989               0.000939490               0.000040758               0.999999989               0.000942801               0.000027148               0.999999989               0.000943451               0.000009089               0.999999989               0.000772305               0.000227459               0.999999989               0.000801392               0.000180559               0.999999989               0.000810719               0.000159627               0.999999989               0.000815227               0.000150903               0.999999989               0.000819570               0.000148122               0.999999989               0.000824907               0.000147938               0.999999989               0.000831156               0.000148530               0.999999989               0.000838011               0.000148690               0.999999989               0.000844991               0.000147524               0.999999989               0.000851698               0.000144665               0.999999989               0.000857862               0.000139620               0.999999989               0.000862953               0.000131764               0.999999989               0.000866657               0.000120762               0.999999989               0.000868662               0.000106004               0.999999989               0.000868492               0.000086443               0.999999989               0.000865800               0.000061085               0.999999989               0.000860375               0.000028520               0.999999989               0.000750595               0.000338534               0.999999989               0.000762733               0.000270253               0.999999989               0.000762517               0.000241452               0.999999989               0.000761481               0.000230463               0.999999989               0.000762179               0.000227719               0.999999989               0.000764549               0.000228228               0.999999989               0.000767916               0.000229478               0.999999989               0.000771692               0.000229831               0.999999989               0.000775178               0.000228107               0.999999989               0.000777690               0.000223894               0.999999989               0.000778775               0.000216354               0.999999989               0.000778021               0.000204877               0.999999989               0.000775082               0.000188923               0.999999989               0.000769531               0.000167852               0.999999989               0.000761119               0.000140565               0.999999989               0.000749856               0.000106422               0.999999989               0.000736110               0.000064911               0.999999989               0.000721145               0.000446522               0.999999989               0.000711627               0.000359419               0.999999989               0.000700618               0.000325280               0.999999989               0.000693953               0.000313822               0.999999989               0.000691061               0.000312017               0.999999989               0.000690361               0.000313718               0.999999989               0.000690637               0.000315870               0.999999989               0.000690807               0.000316558               0.999999989               0.000689890               0.000314309               0.999999989               0.000687064               0.000308655               0.999999989               0.000681698               0.000298779               0.999999989               0.000673397               0.000283953               0.999999989               0.000661814               0.000263798               0.999999989               0.000646798               0.000237625               0.999999989               0.000628544               0.000205145               0.999999989               0.000607703               0.000166364               0.999999989               0.000585261               0.000122268               0.999999989               0.000684308               0.000550634               0.999999989               0.000650516               0.000448156               0.999999989               0.000629536               0.000411200               0.999999989               0.000618369               0.000400623               0.999999989               0.000612673               0.000400417               0.999999989               0.000609482               0.000403539               0.999999989               0.000606774               0.000406723               0.999999989               0.000603072               0.000407668               0.999999989               0.000597067               0.000404831               0.999999989               0.000587830               0.000397732               0.999999989               0.000574871               0.000385513               0.999999989               0.000557893               0.000367689               0.999999989               0.000536800               0.000343860               0.999999989               0.000511892               0.000314067               0.999999989               0.000483940               0.000278683               0.999999989               0.000453997               0.000238961               0.999999989               0.000423106               0.000196422               0.999999989               0.000640875               0.000649910               0.999999989               0.000582562               0.000536470               0.999999989               0.000553763               0.000498935               0.999999989               0.000540097               0.000489921               0.999999989               0.000533042               0.000491399               0.999999989               0.000527937               0.000495838               0.999999989               0.000522332               0.000499905               0.999999989               0.000514324               0.000501100               0.999999989               0.000502380               0.000497619               0.999999989               0.000485783               0.000488893               0.999999989               0.000464231               0.000474479               0.999999989               0.000437607               0.000454030               0.999999989               0.000406351               0.000427703               0.999999989               0.000371292               0.000395880               0.999999989               0.000333575               0.000360028               0.999999989               0.000294282               0.000321590               0.999999989               0.000254448               0.000282127               0.999999989               0.000591776               0.000743293               0.999999989               0.000510706               0.000624348               0.999999989               0.000477392               0.000587735               0.999999989               0.000463612               0.000580247               0.999999989               0.000456278               0.000583180               0.999999989               0.000449702               0.000588730               0.999999989               0.000441013               0.000593480               0.999999989               0.000427941               0.000594599               0.999999989               0.000409177               0.000590267               0.999999989               0.000384079               0.000580158               0.999999989               0.000352708               0.000563814               0.999999989               0.000315303               0.000541608               0.999999989               0.000272875               0.000514241               0.999999989               0.000226659               0.000482911               0.999999989               0.000178258               0.000449090               0.999999989               0.000128896               0.000414097               0.999999989               0.000079738               0.000379528               0.999999989               0.000538403               0.000829129               0.999999989               0.000437364               0.000711722               0.999999989               0.000404340               0.000676275               0.999999989               0.000392123               0.000669779               0.999999989               0.000385259               0.000673783               0.999999989               0.000377252               0.000680123               0.999999989               0.000364943               0.000685250               0.999999989               0.000345859               0.000686059               0.999999989               0.000318931               0.000681025               0.999999989               0.000284024               0.000669669               0.999999989               0.000241307               0.000652199               0.999999989               0.000191608               0.000629489               0.999999989               0.000136726               0.000603154               0.999999989               0.000078521               0.000574612               0.999999989               0.000018757               0.000545356               0.999999989              -0.000041121               0.000516601               0.999999989              -0.000100368               0.000488829               0.999999989               0.000483077               0.000910621               0.999999989               0.000375757               0.000810362               0.999999989               0.000340346               0.000772116               0.999999989               0.000327739               0.000761547               0.999999989               0.000321648               0.000762997               0.999999989               0.000315064               0.000769027               0.999999989               0.000305255               0.000775776               0.999999989               0.000289704               0.000780923               0.999999989               0.000267351               0.000782415               0.999999989               0.000237722               0.000779414               0.999999989               0.000200506               0.000771721               0.999999989               0.000155696               0.000759616               0.999999989               0.000104480               0.000743836               0.999999989               0.000048459               0.000725674               0.999999989              -0.000010838               0.000706528               0.999999989              -0.000071575               0.000687439               0.999999989              -0.000132667               0.000669186               0.999999989               0.000422751               0.000985144               0.999999989               0.000316376               0.000906244               0.999999989               0.000278963               0.000870677               0.999999989               0.000265119               0.000858395               0.999999989               0.000258931               0.000858351               0.999999989               0.000253386               0.000864365               0.999999989               0.000245367               0.000872635               0.999999989               0.000232974               0.000880939               0.999999989               0.000214948               0.000887688               0.999999989               0.000190312               0.000891715               0.999999989               0.000158555               0.000892540               0.999999989               0.000119577               0.000889760               0.999999989               0.000073594               0.000883695               0.999999989               0.000021416               0.000875016               0.999999989              -0.000035527               0.000865096               0.999999989              -0.000095581               0.000854886               0.999999989              -0.000156893               0.000845312               0.999999989               0.000358559               0.001050856               0.999999989               0.000259311               0.000996342               0.999999989               0.000221462               0.000967688               0.999999989               0.000206371               0.000956639               0.999999989               0.000199438               0.000956753               0.999999989               0.000194326               0.000963461               0.999999989               0.000187802               0.000973508               0.999999989               0.000177904               0.000984861               0.999999989               0.000163449               0.000996124               0.999999989               0.000143498               0.001006219               0.999999989               0.000117304               0.001014269               0.999999989               0.000084682               0.001019809               0.999999989               0.000045064               0.001022675               0.999999989              -0.000001540               0.001023038               0.999999989              -0.000054491               0.001021667               0.999999989              -0.000112555               0.001019542               0.999999989              -0.000173975               0.001017878               0.999999989               0.000291012               0.001106624               0.999999989               0.000204520               0.001076946               0.999999989               0.000168716               0.001058102               0.999999989               0.000153240               0.001050993               0.999999989               0.000145632               0.001053010               0.999999989               0.000140584               0.001061397               0.999999989               0.000135128               0.001073698               0.999999989               0.000127217               0.001088352               0.999999989               0.000115759               0.001103931               0.999999989               0.000100047               0.001119477               0.999999989               0.000079351               0.001134155               0.999999989               0.000052968               0.001147369               0.999999989               0.000020491               0.001158712               0.999999989              -0.000019089               0.001168039               0.999999989              -0.000066130               0.001175475               0.999999989              -0.000120292               0.001181664               0.999999989              -0.000180773               0.001187545               0.999999989               0.000220760               0.001151212               0.999999989               0.000151685               0.001144399               0.999999989               0.000120975               0.001136462               0.999999989               0.000106633               0.001134941               0.999999989               0.000099216               0.001140230               0.999999989               0.000094432               0.001151102               0.999999989               0.000089677               0.001166224               0.999999989               0.000083500               0.001184232               0.999999989               0.000074784               0.001203963               0.999999989               0.000063006               0.001224610               0.999999989               0.000047522               0.001245392               0.999999989               0.000027767               0.001265644               0.999999989               0.000002854               0.001284911               0.999999989              -0.000028454               0.001302839               0.999999989              -0.000067224               0.001319236               0.999999989              -0.000114193               0.001334254               0.999999989              -0.000169802               0.001348283               0.999999989               0.000148403               0.001183729               0.999999989               0.000100362               0.001195258               0.999999989               0.000077748               0.001197408               0.999999989               0.000066485               0.001201650               0.999999989               0.000060505               0.001210661               0.999999989               0.000056686               0.001224379               0.999999989               0.000052976               0.001242119               0.999999989               0.000048510               0.001263077               0.999999989               0.000042534               0.001286369               0.999999989               0.000034547               0.001311317               0.999999989               0.000024279               0.001337214               0.999999989               0.000011191               0.001363517               0.999999989              -0.000005655               0.001389771               0.999999989              -0.000027468               0.001415526               0.999999989              -0.000055539               0.001440340               0.999999989              -0.000090954               0.001463808               0.999999989              -0.000135087               0.001485769               0.999999989               0.000074584               0.001203539               0.999999989               0.000049988               0.001226887               0.999999989               0.000037943               0.001236127               0.999999989               0.000031709               0.001244712               0.999999989               0.000028342               0.001256514               0.999999989               0.000026234               0.001272417               0.999999989               0.000024164               0.001292225               0.999999989               0.000021738               0.001315288               0.999999989               0.000018579               0.001340951               0.999999989               0.000014556               0.001368723               0.999999989               0.000009463               0.001398097               0.999999989               0.000002959               0.001428683               0.999999989              -0.000005496               0.001460012               0.999999989              -0.000016698               0.001491542               0.999999989              -0.000031439               0.001522670               0.999999989              -0.000050837               0.001552616               0.999999989              -0.000075911               0.001580624               0.999999989              -0.000000000               0.001210187               0.999999989              -0.000000000               0.001237682               0.999999989               0.000000000               0.001249477               0.999999989              -0.000000000               0.001259557               0.999999989               0.000000000               0.001272440               0.999999989               0.000000000               0.001289246               0.999999989              -0.000000000               0.001309713               0.999999989               0.000000000               0.001333424               0.999999989               0.000000000               0.001359861               0.999999989               0.000000000               0.001388597               0.999999989              -0.000000000               0.001419276               0.999999989              -0.000000000               0.001451468               0.999999989               0.000000000               0.001484741               0.999999989               0.000000000               0.001518582               0.999999989              -0.000000000               0.001552300               0.999999989               0.000000000               0.001584950               0.999999989              -0.000000000               0.001615404               0.999999989 </DataArray>
<DataArray type="Float64"                                    Name="stress"                                                      NumberOfComponents="10" format="ascii">
              0.001937622               0.020718356               0.000000000              -0.001863182               0.007527110               0.005663928               0.000000000               0.000000000               0.000000000               0.000000000               0.001840187               0.015865878               0.000000000              -0.001293161               0.005719627               0.004426465               0.000000000               0.000000000               0.000000000               0.000000000               0.002346807               0.011916016               0.000000000              -0.000609448               0.004175115               0.003565667               0.000000000               0.000000000               0.000000000               0.000000000               0.002148947               0.009675026               0.000000000              -0.000403522               0.003359484               0.002955962               0.000000000               0.000000000               0.000000000               0.000000000               0.001768614               0.008250461              -0.000000000              -0.000368076               0.002872818               0.002504742               0.000000000               0.000000000               0.000000000               0.000000000               0.001377506               0.007246247              -0.000000000              -0.000389215               0.002545130               0.002155915               0.000000000               0.000000000               0.000000000               0.000000000               0.001040911               0.006480541               0.000000000              -0.000419725               0.002300067               0.001880342               0.000000000               0.000000000               0.000000000               0.000000000               0.000764966               0.005839896               0.000000000              -0.000443124               0.002094320               0.001651197               0.000000000               0.000000000               0.000000000               0.000000000               0.000539800               0.005262314               0.000000000              -0.000455363               0.001905875               0.001450512               0.000000000               0.000000000               0.000000000               0.000000000               0.000351494               0.004716600              -0.000000000              -0.000457764               0.001724772               0.001267009               0.000000000               0.000000000               0.000000000               0.000000000               0.000189722               0.004182445              -0.000000000              -0.000451659               0.001544687               0.001093028               0.000000000               0.000000000               0.000000000               0.000000000               0.000060377               0.003644954              -0.000000000              -0.000432977               0.001359298               0.000926321               0.000000000               0.000000000               0.000000000               0.000000000              -0.000026964               0.003092063              -0.000000000              -0.000396618               0.001162884               0.000766265               0.000000000               0.000000000               0.000000000               0.000000000              -0.000078267               0.002506742               0.000000000              -0.000342692               0.000949803               0.000607111               0.000000000               0.000000000               0.000000000               0.000000000              -0.000095311               0.001870858               0.000000000              -0.000269598               0.000713479               0.000443881               0.000000000               0.000000000               0.000000000               0.000000000              -0.000065833               0.001162955              -0.000000000              -0.000170057               0.000444333               0.000274277               0.000000000               0.000000000               0.000000000               0.000000000              -0.000095892               0.000623344              -0.000000000              -0.000113877               0.000245738               0.000131861               0.000000000               0.000000000               0.000000000               0.000000000               0.001988560               0.020268384              -0.001363395              -0.001787834               0.007352005               0.005564171               0.000000000               0.000000000               0.000000000               0.000000000               0.001779283               0.015583856              -0.000604962              -0.001280748               0.005621483               0.004340735               0.000000000               0.000000000               0.000000000               0.000000000               0.002166541               0.011806855               0.000139420              -0.000663402               0.004156713               0.003493311               0.000000000               0.000000000               0.000000000               0.000000000               0.001920321               0.009652782               0.000441439              -0.000486476               0.003379720               0.002893244               0.000000000               0.000000000               0.000000000               0.000000000               0.001527136               0.008270494               0.000553330              -0.000461135               0.002910515               0.002449381               0.000000000               0.000000000               0.000000000               0.000000000               0.001147896               0.007288630               0.000583475              -0.000480617               0.002589725               0.002109108               0.000000000               0.000000000               0.000000000               0.000000000               0.000828670               0.006526967               0.000577004              -0.000505118               0.002344007               0.001838888               0.000000000               0.000000000               0.000000000               0.000000000               0.000571574               0.005885972               0.000549797              -0.000521405               0.002135773               0.001614367               0.000000000               0.000000000               0.000000000               0.000000000               0.000366385               0.005308640               0.000516682              -0.000526184               0.001944924               0.001418739               0.000000000               0.000000000               0.000000000               0.000000000               0.000197300               0.004764195               0.000483209              -0.000521536               0.001761894               0.001240359               0.000000000               0.000000000               0.000000000               0.000000000               0.000063613               0.004233129               0.000447797              -0.000505285               0.001579457               0.001074172               0.000000000               0.000000000               0.000000000               0.000000000              -0.000035164               0.003699403               0.000410787              -0.000475611               0.001391659               0.000916048               0.000000000               0.000000000               0.000000000               0.000000000              -0.000099883               0.003154145               0.000368872              -0.000431723               0.001195279               0.000763555               0.000000000               0.000000000               0.000000000               0.000000000              -0.000129471               0.002585853               0.000315155              -0.000371782               0.000985870               0.000614087               0.000000000               0.000000000               0.000000000               0.000000000              -0.000125549               0.001977033               0.000242656              -0.000294209               0.000757074               0.000462865               0.000000000               0.000000000               0.000000000               0.000000000              -0.000080097               0.001314655               0.000139590              -0.000194368               0.000503003               0.000308635               0.000000000               0.000000000               0.000000000               0.000000000              -0.000099284               0.000820175               0.000089935              -0.000139753               0.000319973               0.000180220               0.000000000               0.000000000               0.000000000               0.000000000               0.002105245               0.018981994              -0.002522078              -0.001583279               0.006855028               0.005271748               0.000000000               0.000000000               0.000000000               0.000000000               0.001585126               0.014782945              -0.001120268              -0.001253443               0.005345413               0.004091970               0.000000000               0.000000000               0.000000000               0.000000000               0.001639366               0.011493449               0.000241339              -0.000821917               0.004105084               0.003283167               0.000000000               0.000000000               0.000000000               0.000000000               0.001279470               0.009582036               0.000772318              -0.000717952               0.003433297               0.002715346               0.000000000               0.000000000               0.000000000               0.000000000               0.000876122               0.008318952               0.000963231              -0.000711322               0.003010063               0.002298742               0.000000000               0.000000000               0.000000000               0.000000000               0.000533614               0.007390332               0.001010087              -0.000723685               0.002704647               0.001980963               0.000000000               0.000000000               0.000000000               0.000000000               0.000264813               0.006644258               0.000993538              -0.000731226               0.002458472               0.001727247               0.000000000               0.000000000               0.000000000               0.000000000               0.000063149               0.006004720               0.000944127              -0.000726908               0.002243856               0.001516948               0.000000000               0.000000000               0.000000000               0.000000000              -0.000080382               0.005428504               0.000884879              -0.000708705               0.002045718               0.001337013               0.000000000               0.000000000               0.000000000               0.000000000              -0.000185951               0.004888743               0.000825100              -0.000680823               0.001856505               0.001175682               0.000000000               0.000000000               0.000000000               0.000000000              -0.000254859               0.004364658               0.000760265              -0.000641153               0.001668589               0.001027436               0.000000000               0.000000000               0.000000000               0.000000000              -0.000286898               0.003846568               0.000691097              -0.000588407               0.001478312               0.000889905               0.000000000               0.000000000               0.000000000               0.000000000              -0.000290635               0.003327168               0.000615089              -0.000524883               0.001284006               0.000759123               0.000000000               0.000000000               0.000000000               0.000000000              -0.000259557               0.002803255               0.000517581              -0.000447740               0.001083655               0.000635916               0.000000000               0.000000000               0.000000000               0.000000000              -0.000195799               0.002267481               0.000389148              -0.000356859               0.000874772               0.000517913               0.000000000               0.000000000               0.000000000               0.000000000              -0.000107476               0.001723566               0.000217985              -0.000255749               0.000659766               0.000404017               0.000000000               0.000000000               0.000000000               0.000000000              -0.000099315               0.001344589               0.000135348              -0.000205316               0.000516630               0.000311314               0.000000000               0.000000000               0.000000000               0.000000000               0.002195242               0.017038596              -0.003323533              -0.001306608               0.006115010               0.004808403               0.000000000               0.000000000               0.000000000               0.000000000               0.001239894               0.013583936              -0.001481339              -0.001233030               0.004938943               0.003705914               0.000000000               0.000000000               0.000000000               0.000000000               0.000830762               0.011019439               0.000284472              -0.001065892               0.004028407               0.002962515               0.000000000               0.000000000               0.000000000               0.000000000               0.000347503               0.009451112               0.000935052              -0.001051073               0.003500697               0.002449624               0.000000000               0.000000000               0.000000000               0.000000000              -0.000035802               0.008345647               0.001153590              -0.001056630               0.003134064               0.002077435               0.000000000               0.000000000               0.000000000               0.000000000              -0.000305700               0.007485337               0.001197687              -0.001050303               0.002845188               0.001794885               0.000000000               0.000000000               0.000000000               0.000000000              -0.000486814               0.006768936               0.001167683              -0.001028670               0.002599179               0.001570509               0.000000000               0.000000000               0.000000000               0.000000000              -0.000597987               0.006140790               0.001101278              -0.000991842               0.002377523               0.001385682               0.000000000               0.000000000               0.000000000               0.000000000              -0.000645732               0.005571546               0.001026961              -0.000938591               0.002170027               0.001231436               0.000000000               0.000000000               0.000000000               0.000000000              -0.000648195               0.005042510               0.000952104              -0.000873385               0.001971948               0.001098563               0.000000000               0.000000000               0.000000000               0.000000000              -0.000620274               0.004536699               0.000870723              -0.000799688               0.001778780               0.000979092               0.000000000               0.000000000               0.000000000               0.000000000              -0.000564335               0.004048814               0.000784340              -0.000717726               0.001588833               0.000871107               0.000000000               0.000000000               0.000000000               0.000000000              -0.000480179               0.003576692               0.000688658              -0.000627152               0.001401269               0.000774117               0.000000000               0.000000000               0.000000000               0.000000000              -0.000369390               0.003120937               0.000568239              -0.000528637               0.001216514               0.000687877               0.000000000               0.000000000               0.000000000               0.000000000              -0.000243830               0.002693137               0.000414262              -0.000428078               0.001040396               0.000612318               0.000000000               0.000000000               0.000000000               0.000000000              -0.000121414               0.002311708               0.000225696              -0.000334493               0.000882059               0.000547566               0.000000000               0.000000000               0.000000000               0.000000000              -0.000085981               0.002082907               0.000134062              -0.000292605               0.000791830               0.000499225               0.000000000               0.000000000               0.000000000               0.000000000               0.002131774               0.014687553              -0.003684248              -0.001036529               0.005241311               0.004204782               0.000000000               0.000000000               0.000000000               0.000000000               0.000726887               0.012150491              -0.001661742              -0.001246227               0.004465532               0.003219305               0.000000000               0.000000000               0.000000000               0.000000000              -0.000157295               0.010441247               0.000246197              -0.001364138               0.003935094               0.002570956               0.000000000               0.000000000               0.000000000               0.000000000              -0.000713327               0.009243350               0.000901258              -0.001422913               0.003555390               0.002132477               0.000000000               0.000000000               0.000000000               0.000000000              -0.001023754               0.008300367               0.001103514              -0.001421450               0.003240578               0.001819128               0.000000000               0.000000000               0.000000000               0.000000000              -0.001178885               0.007515359               0.001133899              -0.001381499               0.002965594               0.001584096               0.000000000               0.000000000               0.000000000               0.000000000              -0.001236666               0.006838768               0.001094354              -0.001318593               0.002719097               0.001400504               0.000000000               0.000000000               0.000000000               0.000000000              -0.001222358               0.006233999               0.001021809              -0.001237631               0.002490522               0.001252891               0.000000000               0.000000000               0.000000000               0.000000000              -0.001149158               0.005682994               0.000945541              -0.001141306               0.002274747               0.001133441               0.000000000               0.000000000               0.000000000               0.000000000              -0.001033914               0.005173759               0.000871624              -0.001034435               0.002069381               0.001034945               0.000000000               0.000000000               0.000000000               0.000000000              -0.000893387               0.004695942               0.000789240              -0.000922011               0.001872635               0.000950624               0.000000000               0.000000000               0.000000000               0.000000000              -0.000732934               0.004248819               0.000699956              -0.000805951               0.001684909               0.000878958               0.000000000               0.000000000               0.000000000               0.000000000              -0.000556643               0.003834088               0.000598162              -0.000688001               0.001507350               0.000819349               0.000000000               0.000000000               0.000000000               0.000000000              -0.000377640               0.003461918               0.000473919              -0.000574354               0.001345412               0.000771059               0.000000000               0.000000000               0.000000000               0.000000000              -0.000217161               0.003153081               0.000326352              -0.000475569               0.001209540               0.000733970               0.000000000               0.000000000               0.000000000               0.000000000              -0.000095172               0.002932283               0.000166221              -0.000402224               0.001111493               0.000709269               0.000000000               0.000000000               0.000000000               0.000000000              -0.000052193               0.002834223               0.000089783              -0.000373849               0.001069348               0.000695499               0.000000000               0.000000000               0.000000000               0.000000000               0.001794437               0.012164937              -0.003621896              -0.000847704               0.004337506               0.003489802               0.000000000               0.000000000               0.000000000               0.000000000               0.000047223               0.010637328              -0.001694543              -0.001311955               0.003983059               0.002671103               0.000000000               0.000000000               0.000000000               0.000000000              -0.001207766               0.009809573               0.000099734              -0.001679105               0.003829527               0.002150422               0.000000000               0.000000000               0.000000000               0.000000000              -0.001735491               0.008953581               0.000673789              -0.001770002               0.003574498               0.001804496               0.000000000               0.000000000               0.000000000               0.000000000              -0.001909703               0.008156730               0.000837963              -0.001735726               0.003297458               0.001561732               0.000000000               0.000000000               0.000000000               0.000000000              -0.001914774               0.007443916               0.000860957              -0.001648526               0.003030789               0.001382263               0.000000000               0.000000000               0.000000000               0.000000000              -0.001824921               0.006813359               0.000827293              -0.001536011               0.002783101               0.001247089               0.000000000               0.000000000               0.000000000               0.000000000              -0.001667434               0.006244254               0.000765109              -0.001405816               0.002550002               0.001144186               0.000000000               0.000000000               0.000000000               0.000000000              -0.001462285               0.005723802               0.000702966              -0.001263829               0.002329191               0.001065362               0.000000000               0.000000000               0.000000000               0.000000000              -0.001234253               0.005241202               0.000643840              -0.001117992               0.002119714               0.001001722               0.000000000               0.000000000               0.000000000               0.000000000              -0.000995079               0.004797170               0.000574735              -0.000972799               0.001923307               0.000950508               0.000000000               0.000000000               0.000000000               0.000000000              -0.000750624               0.004397462               0.000494342              -0.000831165               0.001742861               0.000911696               0.000000000               0.000000000               0.000000000               0.000000000              -0.000513625               0.004048062               0.000399533              -0.000698616               0.001582212               0.000883597               0.000000000               0.000000000               0.000000000               0.000000000              -0.000306585               0.003761274               0.000291362              -0.000585127               0.001448788               0.000863661               0.000000000               0.000000000               0.000000000               0.000000000              -0.000148951               0.003557014               0.000179637              -0.000500482               0.001352487               0.000852005               0.000000000               0.000000000               0.000000000               0.000000000              -0.000051040               0.003445944               0.000080346              -0.000449882               0.001298597               0.000848715               0.000000000               0.000000000               0.000000000               0.000000000              -0.000017977               0.003416629               0.000036120              -0.000433819               0.001283471               0.000849652               0.000000000               0.000000000               0.000000000               0.000000000               0.001127816               0.009674296              -0.003218760              -0.000786357               0.003486851               0.002700494               0.000000000               0.000000000               0.000000000               0.000000000              -0.000760705               0.009171031              -0.001631144              -0.001431641               0.003534193               0.002102552               0.000000000               0.000000000               0.000000000               0.000000000              -0.002207375               0.009154239              -0.000158903              -0.001972040               0.003708729               0.001736689               0.000000000               0.000000000               0.000000000               0.000000000              -0.002601412               0.008578412               0.000291558              -0.002047826               0.003542051               0.001494225               0.000000000               0.000000000               0.000000000               0.000000000              -0.002584023               0.007907575               0.000427580              -0.001957451               0.003288315               0.001330865               0.000000000               0.000000000               0.000000000               0.000000000              -0.002413682               0.007269081               0.000463879              -0.001813762               0.003027590               0.001213828               0.000000000               0.000000000               0.000000000               0.000000000              -0.002170030               0.006689999               0.000458715              -0.001650007               0.002779980               0.001129972               0.000000000               0.000000000               0.000000000               0.000000000              -0.001873874               0.006161170               0.000427544              -0.001472845               0.002544651               0.001071806               0.000000000               0.000000000               0.000000000               0.000000000              -0.001550773               0.005676708               0.000391835              -0.001291125               0.002322592               0.001031467               0.000000000               0.000000000               0.000000000               0.000000000              -0.001230841               0.005232649               0.000357449              -0.001115644               0.002116080               0.001000437               0.000000000               0.000000000               0.000000000               0.000000000              -0.000919141               0.004834753               0.000314215              -0.000949020               0.001927908               0.000978888               0.000000000               0.000000000               0.000000000               0.000000000              -0.000627795               0.004495923               0.000259638              -0.000797412               0.001764430               0.000967018               0.000000000               0.000000000               0.000000000               0.000000000              -0.000377426               0.004227657               0.000191140              -0.000669990               0.001632535               0.000962545               0.000000000               0.000000000               0.000000000               0.000000000              -0.000187431               0.004038749               0.000119528              -0.000575129               0.001537946               0.000962817               0.000000000               0.000000000               0.000000000               0.000000000              -0.000063837               0.003932540               0.000058184              -0.000515505               0.001482668               0.000967163               0.000000000               0.000000000               0.000000000               0.000000000              -0.000007234               0.003895710               0.000017589              -0.000489675               0.001461782               0.000972107               0.000000000               0.000000000               0.000000000               0.000000000               0.000006306               0.003902716               0.000001886              -0.000485474               0.001462717               0.000977243               0.000000000               0.000000000               0.000000000               0.000000000               0.000166692               0.007381871              -0.002563216              -0.000860224               0.002747340               0.001887116               0.000000000               0.000000000               0.000000000               0.000000000              -0.001654100               0.007837544              -0.001516421              -0.001599977               0.003145814               0.001545837               0.000000000               0.000000000               0.000000000               0.000000000              -0.003062635               0.008474139              -0.000519956              -0.002207750               0.003560601               0.001352851               0.000000000               0.000000000               0.000000000               0.000000000              -0.003226003               0.008116556              -0.000181487              -0.002224315               0.003446930               0.001222615               0.000000000               0.000000000               0.000000000               0.000000000              -0.002994325               0.007563180              -0.000041333              -0.002068264               0.003210456               0.001142192               0.000000000               0.000000000               0.000000000               0.000000000              -0.002649439               0.007003470               0.000031347              -0.001868969               0.002957456               0.001088488               0.000000000               0.000000000               0.000000000               0.000000000              -0.002258990               0.006480812               0.000071972              -0.001657219               0.002712655               0.001055437               0.000000000               0.000000000               0.000000000               0.000000000              -0.001846010               0.005993508               0.000086561              -0.001441439               0.002478296               0.001036857               0.000000000               0.000000000               0.000000000               0.000000000              -0.001433427               0.005554438               0.000091053              -0.001231837               0.002262073               0.001030236               0.000000000               0.000000000               0.000000000               0.000000000              -0.001045020               0.005163791               0.000091099              -0.001037354               0.002067031               0.001029677               0.000000000               0.000000000               0.000000000               0.000000000              -0.000691476               0.004830574               0.000084081              -0.000863123               0.001897883               0.001034760               0.000000000               0.000000000               0.000000000               0.000000000              -0.000391094               0.004571971               0.000071070              -0.000718155               0.001763360               0.001045205               0.000000000               0.000000000               0.000000000               0.000000000              -0.000162109               0.004401621               0.000048203              -0.000610992               0.001670856               0.001059864               0.000000000               0.000000000               0.000000000               0.000000000              -0.000015468               0.004319598               0.000021928              -0.000545749               0.001621768               0.001076019               0.000000000               0.000000000               0.000000000               0.000000000               0.000049231               0.004308915               0.000000647              -0.000520152               0.001609675               0.001089523               0.000000000               0.000000000               0.000000000               0.000000000               0.000046673               0.004349182              -0.000006781              -0.000526144               0.001625094               0.001098950               0.000000000               0.000000000               0.000000000               0.000000000               0.000031333               0.004394396              -0.000009071              -0.000537548               0.001643967               0.001106418               0.000000000               0.000000000               0.000000000               0.000000000              -0.000967538               0.005450294              -0.001766556              -0.001044112               0.002164783               0.001120671               0.000000000               0.000000000               0.000000000               0.000000000              -0.002526846               0.006644038              -0.001392915              -0.001778068               0.002807346               0.001029278               0.000000000               0.000000000               0.000000000               0.000000000              -0.003733957               0.007792188              -0.000955410              -0.002374252               0.003388787               0.001014536               0.000000000               0.000000000               0.000000000               0.000000000              -0.003647170               0.007667293              -0.000689123              -0.002326095               0.003331104               0.001005009               0.000000000               0.000000000               0.000000000               0.000000000              -0.003232575               0.007250968              -0.000518604              -0.002118582               0.003123159               0.001004578               0.000000000               0.000000000               0.000000000               0.000000000              -0.002745656               0.006788155              -0.000395782              -0.001878136               0.002888741               0.001010605               0.000000000               0.000000000               0.000000000               0.000000000              -0.002239203               0.006332155              -0.000299986              -0.001631216               0.002654436               0.001023220               0.000000000               0.000000000               0.000000000               0.000000000              -0.001735237               0.005897078              -0.000229722              -0.001387845               0.002428288               0.001040443               0.000000000               0.000000000               0.000000000               0.000000000              -0.001257437               0.005501843              -0.000178542              -0.001159266               0.002220351               0.001061085               0.000000000               0.000000000               0.000000000               0.000000000              -0.000817931               0.005157600              -0.000136181              -0.000951422               0.002036323               0.001084902               0.000000000               0.000000000               0.000000000               0.000000000              -0.000432863               0.004880834              -0.000095906              -0.000772426               0.001884404               0.001111978               0.000000000               0.000000000               0.000000000               0.000000000              -0.000132173               0.004683879              -0.000057647              -0.000635048               0.001772960               0.001137912               0.000000000               0.000000000               0.000000000               0.000000000               0.000070867               0.004572827              -0.000028473              -0.000545027               0.001705936               0.001160909               0.000000000               0.000000000               0.000000000               0.000000000               0.000184614               0.004548582              -0.000010175              -0.000499341               0.001682626               0.001183285               0.000000000               0.000000000               0.000000000               0.000000000               0.000220190               0.004600989              -0.000001502              -0.000492551               0.001697831               0.001205280               0.000000000               0.000000000               0.000000000               0.000000000               0.000202038               0.004702623              -0.000000246              -0.000512062               0.001738213               0.001226150               0.000000000               0.000000000               0.000000000               0.000000000               0.000175243               0.004769972              -0.000001008              -0.000530529               0.001766818               0.001236289               0.000000000               0.000000000               0.000000000               0.000000000              -0.002276650               0.003665496              -0.000932757              -0.001311928               0.001659129               0.000347201               0.000000000               0.000000000               0.000000000               0.000000000              -0.003259036               0.005266796              -0.001257030              -0.001880484               0.002382409               0.000501925               0.000000000               0.000000000               0.000000000               0.000000000              -0.004139502               0.006780873              -0.001409660              -0.002399917               0.003060240               0.000660324               0.000000000               0.000000000               0.000000000               0.000000000              -0.003919296               0.007002596              -0.001229188              -0.002345055               0.003115860               0.000770805               0.000000000               0.000000000               0.000000000               0.000000000              -0.003425284               0.006834430              -0.001029479              -0.002138780               0.002991047               0.000852267               0.000000000               0.000000000               0.000000000               0.000000000              -0.002880342               0.006555775              -0.000859457              -0.001899596               0.002818435               0.000918839               0.000000000               0.000000000               0.000000000               0.000000000              -0.002340150               0.006243046              -0.000711775              -0.001657933               0.002633639               0.000975706               0.000000000               0.000000000               0.000000000               0.000000000              -0.001808717               0.005921087              -0.000586664              -0.001418401               0.002446476               0.001028075               0.000000000               0.000000000               0.000000000               0.000000000              -0.001303306               0.005605999              -0.000487663              -0.001189487               0.002265143               0.001075656               0.000000000               0.000000000               0.000000000               0.000000000              -0.000838479               0.005324206              -0.000398469              -0.000979953               0.002101369               0.001121416               0.000000000               0.000000000               0.000000000               0.000000000              -0.000426863               0.005085702              -0.000307419              -0.000795784               0.001960478               0.001164694               0.000000000               0.000000000               0.000000000               0.000000000              -0.000086206               0.004896756              -0.000218664              -0.000644420               0.001847042               0.001202622               0.000000000               0.000000000               0.000000000               0.000000000               0.000165430               0.004771153              -0.000139702              -0.000534357               0.001768487               0.001234131               0.000000000               0.000000000               0.000000000               0.000000000               0.000330685               0.004730179              -0.000072695              -0.000467264               0.001732465               0.001265201               0.000000000               0.000000000               0.000000000               0.000000000               0.000421585               0.004771345              -0.000027601              -0.000438323               0.001736540               0.001298217               0.000000000               0.000000000               0.000000000               0.000000000               0.000454885               0.004869601              -0.000006554              -0.000438117               0.001769223               0.001331106               0.000000000               0.000000000               0.000000000               0.000000000               0.000451717               0.004931730               0.000000391              -0.000447071               0.001792917               0.001345846               0.000000000               0.000000000               0.000000000               0.000000000              -0.003936246               0.002059966              -0.000124677              -0.001733585               0.001264508              -0.000469076               0.000000000               0.000000000               0.000000000               0.000000000              -0.004087452               0.003877900              -0.001067189              -0.002017528               0.001965129              -0.000052399               0.000000000               0.000000000               0.000000000               0.000000000              -0.004470846               0.005585590              -0.001776402              -0.002374760               0.002653431               0.000278671               0.000000000               0.000000000               0.000000000               0.000000000              -0.004128165               0.006140827              -0.001740711              -0.002315660               0.002818808               0.000503148               0.000000000               0.000000000               0.000000000               0.000000000              -0.003595142               0.006257615              -0.001550433              -0.002130375               0.002795976               0.000665600               0.000000000               0.000000000               0.000000000               0.000000000              -0.003020196               0.006195065              -0.001351526              -0.001906952               0.002700652               0.000793699               0.000000000               0.000000000               0.000000000               0.000000000              -0.002462139               0.006046290              -0.001168458              -0.001679085               0.002575104               0.000896020               0.000000000               0.000000000               0.000000000               0.000000000              -0.001919833               0.005858759              -0.001003730              -0.001452279               0.002436993               0.000984714               0.000000000               0.000000000               0.000000000               0.000000000              -0.001399600               0.005654164              -0.000858354              -0.001231618               0.002295242               0.001063624               0.000000000               0.000000000               0.000000000               0.000000000              -0.000911112               0.005451479              -0.000722630              -0.001023100               0.002158174               0.001135075               0.000000000               0.000000000               0.000000000               0.000000000              -0.000463903               0.005253304              -0.000591754              -0.000830625               0.002027959               0.001197334               0.000000000               0.000000000               0.000000000               0.000000000              -0.000062398               0.005072482              -0.000464350              -0.000657458               0.001909963               0.001252505               0.000000000               0.000000000               0.000000000               0.000000000               0.000269054               0.004929480              -0.000337774              -0.000515289               0.001814906               0.001299618               0.000000000               0.000000000               0.000000000               0.000000000               0.000516054               0.004852587              -0.000217293              -0.000413052               0.001755197               0.001342145               0.000000000               0.000000000               0.000000000               0.000000000               0.000676696               0.004848583              -0.000114779              -0.000352311               0.001733615               0.001381304               0.000000000               0.000000000               0.000000000               0.000000000               0.000756933               0.004905959              -0.000043217              -0.000329394               0.001745101               0.001415707               0.000000000               0.000000000               0.000000000               0.000000000               0.000772516               0.004948832              -0.000015475              -0.000328910               0.001759231               0.001430321               0.000000000               0.000000000               0.000000000               0.000000000              -0.005846318               0.000756014               0.000575594              -0.002286868               0.001014287              -0.001272581               0.000000000               0.000000000               0.000000000               0.000000000              -0.005051980               0.002567752              -0.000811887              -0.002215458               0.001594392              -0.000621065               0.000000000               0.000000000               0.000000000               0.000000000              -0.004754818               0.004223332              -0.001957420              -0.002310968               0.002178085              -0.000132883               0.000000000               0.000000000               0.000000000               0.000000000              -0.004206516               0.005011784              -0.002099082              -0.002203912               0.002405214               0.000201303               0.000000000               0.000000000               0.000000000               0.000000000              -0.003614679               0.005387703              -0.001965339              -0.002028963               0.002472203               0.000443240               0.000000000               0.000000000               0.000000000               0.000000000              -0.003024689               0.005545071              -0.001773714              -0.001827388               0.002457468               0.000630079               0.000000000               0.000000000               0.000000000               0.000000000              -0.002454847               0.005582983              -0.001579735              -0.001618437               0.002400454               0.000782017               0.000000000               0.000000000               0.000000000               0.000000000              -0.001912728               0.005557670              -0.001396201              -0.001411979               0.002323197               0.000911219               0.000000000               0.000000000               0.000000000               0.000000000              -0.001395496               0.005489300              -0.001226013              -0.001209471               0.002232905               0.001023434               0.000000000               0.000000000               0.000000000               0.000000000              -0.000895920               0.005391411              -0.001066158              -0.001009894               0.002133750               0.001123856               0.000000000               0.000000000               0.000000000               0.000000000              -0.000420143               0.005271519              -0.000914816              -0.000816492               0.002029319               0.001212827               0.000000000               0.000000000               0.000000000               0.000000000               0.000023291               0.005146317              -0.000764002              -0.000634554               0.001926940               0.001292386               0.000000000               0.000000000               0.000000000               0.000000000               0.000421611               0.005029871              -0.000603328              -0.000470629               0.001833483               0.001362854               0.000000000               0.000000000               0.000000000               0.000000000               0.000748563               0.004945022              -0.000435527              -0.000337416               0.001760796               0.001423380               0.000000000               0.000000000               0.000000000               0.000000000               0.000981859               0.004908322              -0.000269599              -0.000245342               0.001717872               0.001472529               0.000000000               0.000000000               0.000000000               0.000000000               0.001114244               0.004934976              -0.000122152              -0.000199030               0.001711319               0.001512289               0.000000000               0.000000000               0.000000000               0.000000000               0.001142784               0.004959869              -0.000052339              -0.000191439               0.001717086               0.001525647               0.000000000               0.000000000               0.000000000               0.000000000              -0.007873338              -0.000183751               0.001061996              -0.002929531               0.000915253              -0.002014277               0.000000000               0.000000000               0.000000000               0.000000000              -0.006096785               0.001404846              -0.000536919              -0.002461897               0.001288905              -0.001172992               0.000000000               0.000000000               0.000000000               0.000000000              -0.005003906               0.002805650              -0.001925294              -0.002227167               0.001677594              -0.000549574               0.000000000               0.000000000               0.000000000               0.000000000              -0.004176314               0.003704020              -0.002220925              -0.002029116               0.001911031              -0.000118085               0.000000000               0.000000000               0.000000000               0.000000000              -0.003483079               0.004278181              -0.002168713              -0.001840924               0.002039686               0.000198763               0.000000000               0.000000000               0.000000000               0.000000000              -0.002869491               0.004637667              -0.002015077              -0.001655764               0.002097794               0.000442030               0.000000000               0.000000000               0.000000000               0.000000000              -0.002303012               0.004866232              -0.001834955              -0.001471906               0.002112696               0.000640790               0.000000000               0.000000000               0.000000000               0.000000000              -0.001766390               0.005008798              -0.001655087              -0.001288493               0.002099080               0.000810586               0.000000000               0.000000000               0.000000000               0.000000000              -0.001254694               0.005084843              -0.001487239              -0.001106114               0.002063635               0.000957521               0.000000000               0.000000000               0.000000000               0.000000000              -0.000754262               0.005114820              -0.001330942              -0.000922199               0.002012322               0.001090123               0.000000000               0.000000000               0.000000000               0.000000000              -0.000262570               0.005108277              -0.001180066              -0.000736997               0.001948408               0.001211410               0.000000000               0.000000000               0.000000000               0.000000000               0.000213434               0.005076188              -0.001027859              -0.000554485               0.001876874               0.001322389               0.000000000               0.000000000               0.000000000               0.000000000               0.000665311               0.005030174              -0.000857890              -0.000379279               0.001803134               0.001423855               0.000000000               0.000000000               0.000000000               0.000000000               0.001069615               0.004982040              -0.000661004              -0.000221649               0.001734546               0.001512897               0.000000000               0.000000000               0.000000000               0.000000000               0.001399218               0.004952012              -0.000446527              -0.000094295               0.001682086               0.001587791               0.000000000               0.000000000               0.000000000               0.000000000               0.001629553               0.004962780              -0.000223970              -0.000009266               0.001657332               0.001648066               0.000000000               0.000000000               0.000000000               0.000000000               0.001717879               0.004978600              -0.000112496               0.000021879               0.001652224               0.001674103               0.000000000               0.000000000               0.000000000               0.000000000              -0.009812896              -0.000766278               0.001247178              -0.003584049               0.000939250              -0.002644799               0.000000000               0.000000000               0.000000000               0.000000000              -0.007123369               0.000458329              -0.000293621              -0.002728552               0.001062286              -0.001666266               0.000000000               0.000000000               0.000000000               0.000000000              -0.005225734               0.001473947              -0.001677450              -0.002143891               0.001205937              -0.000937954               0.000000000               0.000000000               0.000000000               0.000000000              -0.004078789               0.002369062              -0.002053033              -0.001825676               0.001398235              -0.000427440               0.000000000               0.000000000               0.000000000               0.000000000              -0.003250976               0.003065939              -0.002076266              -0.001602355               0.001556086              -0.000046269               0.000000000               0.000000000               0.000000000               0.000000000              -0.002587693               0.003591035              -0.001972509              -0.001419262               0.001670086               0.000250824               0.000000000               0.000000000               0.000000000               0.000000000              -0.002017134               0.003985417              -0.001826080              -0.001254600               0.001746658               0.000492058               0.000000000               0.000000000               0.000000000               0.000000000              -0.001489639               0.004277225              -0.001672998              -0.001093266               0.001790149               0.000696883               0.000000000               0.000000000               0.000000000               0.000000000              -0.000982819               0.004495637              -0.001528426              -0.000930510               0.001808700               0.000878190               0.000000000               0.000000000               0.000000000               0.000000000              -0.000485598               0.004658274              -0.001395826              -0.000764382               0.001807536               0.001043154               0.000000000               0.000000000               0.000000000               0.000000000               0.000012546               0.004772035              -0.001269384              -0.000591799               0.001787929               0.001196129               0.000000000               0.000000000               0.000000000               0.000000000               0.000514862               0.004850597              -0.001138375              -0.000413251               0.001754600               0.001341348               0.000000000               0.000000000               0.000000000               0.000000000               0.001010936               0.004901490              -0.000982181              -0.000233585               0.001711675               0.001478090               0.000000000               0.000000000               0.000000000               0.000000000               0.001491233               0.004930085              -0.000789458              -0.000057049               0.001662362               0.001605313               0.000000000               0.000000000               0.000000000               0.000000000               0.001938762               0.004950179              -0.000561809               0.000108262               0.001613956               0.001722218               0.000000000               0.000000000               0.000000000               0.000000000               0.002328871               0.004976601              -0.000298460               0.000251249               0.001575101               0.001826350               0.000000000               0.000000000               0.000000000               0.000000000               0.002548497               0.005008559              -0.000166771               0.000329613               0.001559632               0.001889245               0.000000000               0.000000000               0.000000000               0.000000000              -0.011440093              -0.001064430               0.001089961              -0.004156978               0.001030842              -0.003126136               0.000000000               0.000000000               0.000000000               0.000000000              -0.008004470              -0.000226302              -0.000121257              -0.002973386               0.000915688              -0.002057698               0.000000000               0.000000000               0.000000000               0.000000000              -0.005409275               0.000382026              -0.001236298              -0.002076230               0.000819412              -0.001256817               0.000000000               0.000000000               0.000000000               0.000000000              -0.003952947               0.001200867              -0.001584796              -0.001632462               0.000944436              -0.000688026               0.000000000               0.000000000               0.000000000               0.000000000              -0.002990642               0.001951185              -0.001644905              -0.001365387               0.001105516              -0.000259871               0.000000000               0.000000000               0.000000000               0.000000000              -0.002270322               0.002580939              -0.001587036              -0.001173986               0.001251632               0.000077646               0.000000000               0.000000000               0.000000000               0.000000000              -0.001677880               0.003097055              -0.001485766              -0.001016335               0.001371119               0.000354784               0.000000000               0.000000000               0.000000000               0.000000000              -0.001150250               0.003512824              -0.001376474              -0.000870445               0.001461078               0.000590632               0.000000000               0.000000000               0.000000000               0.000000000              -0.000648126               0.003852405              -0.001270594              -0.000724597               0.001525654               0.000801057               0.000000000               0.000000000               0.000000000               0.000000000              -0.000153151               0.004131036              -0.001175628              -0.000573810               0.001568268               0.000994458               0.000000000               0.000000000               0.000000000               0.000000000               0.000346637               0.004358201              -0.001088305              -0.000414786               0.001590981               0.001176195               0.000000000               0.000000000               0.000000000               0.000000000               0.000859443               0.004547666              -0.000994581              -0.000246167               0.001597929               0.001351762               0.000000000               0.000000000               0.000000000               0.000000000               0.001390666               0.004703357              -0.000876990              -0.000066421               0.001589910               0.001523490               0.000000000               0.000000000               0.000000000               0.000000000               0.001944039               0.004824679              -0.000724339               0.000125928               0.001566234               0.001692162               0.000000000               0.000000000               0.000000000               0.000000000               0.002517071               0.004910560              -0.000532523               0.000330078               0.001526811               0.001856889               0.000000000               0.000000000               0.000000000               0.000000000               0.003098769               0.004966246              -0.000291779               0.000541252               0.001474981               0.002016233               0.000000000               0.000000000               0.000000000               0.000000000               0.003494239               0.005026153              -0.000171620               0.000682064               0.001448013               0.002130077               0.000000000               0.000000000               0.000000000               0.000000000              -0.012534210              -0.001184668               0.000631674              -0.004552242               0.001122517              -0.003429725               0.000000000               0.000000000               0.000000000               0.000000000              -0.008609912              -0.000636397              -0.000033823              -0.003149165               0.000837584              -0.002311581               0.000000000               0.000000000               0.000000000               0.000000000              -0.005533279              -0.000336836              -0.000654920              -0.002032874               0.000565342              -0.001467532               0.000000000               0.000000000               0.000000000               0.000000000              -0.003846172               0.000392673              -0.000863457              -0.001491397               0.000628019              -0.000863378               0.000000000               0.000000000               0.000000000               0.000000000              -0.002784013               0.001154000              -0.000910643              -0.001188253               0.000780745              -0.000407508               0.000000000               0.000000000               0.000000000               0.000000000              -0.002022852               0.001841049              -0.000886840              -0.000988699               0.000943242              -0.000045456               0.000000000               0.000000000               0.000000000               0.000000000              -0.001407719               0.002430326              -0.000834652              -0.000831684               0.001087328               0.000255644               0.000000000               0.000000000               0.000000000               0.000000000              -0.000869413               0.002924081              -0.000776638              -0.000691539               0.001205197               0.000513658               0.000000000               0.000000000               0.000000000               0.000000000              -0.000364329               0.003344656              -0.000720962              -0.000554704               0.001299775               0.000745071               0.000000000               0.000000000               0.000000000               0.000000000               0.000131080               0.003708608              -0.000672700              -0.000414420               0.001374330               0.000959910               0.000000000               0.000000000               0.000000000               0.000000000               0.000628597               0.004025135              -0.000629159              -0.000267418               0.001430837               0.001163420               0.000000000               0.000000000               0.000000000               0.000000000               0.001143013               0.004301529              -0.000582011              -0.000109061               0.001470182               0.001361121               0.000000000               0.000000000               0.000000000               0.000000000               0.001692824               0.004537175              -0.000520853               0.000067661               0.001489823               0.001557484               0.000000000               0.000000000               0.000000000               0.000000000               0.002298035               0.004730057              -0.000439073               0.000270503               0.001486502               0.001757005               0.000000000               0.000000000               0.000000000               0.000000000               0.002972938               0.004870302              -0.000329327               0.000506059               0.001454732               0.001960790               0.000000000               0.000000000               0.000000000               0.000000000               0.003727705               0.004951910              -0.000182892               0.000778893               0.001390989               0.002169882               0.000000000               0.000000000               0.000000000               0.000000000               0.004290808               0.005036422              -0.000110852               0.000979491               0.001352294               0.002331784               0.000000000               0.000000000               0.000000000               0.000000000              -0.012920899              -0.001210735               0.000000000              -0.004693992               0.001161078              -0.003532914               0.000000000               0.000000000               0.000000000               0.000000000              -0.008827463              -0.000771449               0.000000000              -0.003213865               0.000814133              -0.002399732               0.000000000               0.000000000               0.000000000               0.000000000              -0.005578509              -0.000590905               0.000000000              -0.002018077               0.000475721              -0.001542356               0.000000000               0.000000000               0.000000000               0.000000000              -0.003804799               0.000101663               0.000000000              -0.001439506               0.000513720              -0.000925787               0.000000000               0.000000000               0.000000000               0.000000000              -0.002703415               0.000868039               0.000000000              -0.001122284               0.000663436              -0.000458848               0.000000000               0.000000000               0.000000000               0.000000000              -0.001929971               0.001568692              -0.000000000              -0.000919824               0.000829499              -0.000090324               0.000000000               0.000000000               0.000000000               0.000000000              -0.001307401               0.002176406               0.000000000              -0.000762325               0.000979570               0.000217245               0.000000000               0.000000000               0.000000000               0.000000000              -0.000761007               0.002698115               0.000000000              -0.000622641               0.001106910               0.000484269               0.000000000               0.000000000               0.000000000               0.000000000              -0.000249713               0.003150792               0.000000000              -0.000487490               0.001212750               0.000725260               0.000000000               0.000000000               0.000000000               0.000000000               0.000246491               0.003550020              -0.000000000              -0.000351318               0.001300434               0.000949116               0.000000000               0.000000000               0.000000000               0.000000000               0.000742294               0.003902461              -0.000000000              -0.000209447               0.001370623               0.001161176               0.000000000               0.000000000               0.000000000               0.000000000               0.001255835               0.004211727               0.000000000              -0.000055528               0.001422404               0.001366876               0.000000000               0.000000000               0.000000000               0.000000000               0.001810975               0.004479451              -0.000000000               0.000119183               0.001453408               0.001572591               0.000000000               0.000000000               0.000000000               0.000000000               0.002434415               0.004701762              -0.000000000               0.000325182               0.001458844               0.001784026               0.000000000               0.000000000               0.000000000               0.000000000               0.003147572               0.004863982              -0.000000000               0.000572336               0.001430533               0.002002868               0.000000000               0.000000000               0.000000000               0.000000000               0.003976433               0.004954667              -0.000000000               0.000871820               0.001360932               0.002232753               0.000000000               0.000000000               0.000000000               0.000000000               0.004613341               0.005047698              -0.000000000               0.001099030               0.001316206               0.002415236               0.000000000               0.000000000               0.000000000               0.000000000               0.000000000               0.000000000               0.000000000               0.000000000               0.000000000               0.000000000               0.000000000               0.000000000               0.000000000               0.000000000               0.000000000               0.000000000               0.000000000               0.000000000               0.000000000               0.000000000               0.000000000               0.000000000               0.000000000               0.000000000               0.000000000               0.000000000               0.000000000               0.000000000               0.000000000               0.000000000               0.000000000               0.000000000               0.000000000               0.000000000               0.000000000               0.000000000               0.000000000               0.000000000               0.000000000               0.000000000               0.000000000               0.000000000               0.000000000               0.000000000               0.000000000               0.000000000               0.000000000               0.000000000               0.000000000               0.000000000               0.000000000               0.000000000               0.000000000               0.000000000               0.000000000               0.000000000               0.000000000               0.000000000               0.000000000               0.000000000               0.000000000               0.000000000               0.000000000               0.000000000               0.000000000               0.000000000               0.000000000               0.000000000               0.000000000               0.000000000               0.000000000               0.000000000               0.000000000               0.000000000               0.000000000               0.000000000               0.000000000               0.000000000               0.000000000               0.000000000               0.000000000               0.000000000               0.000000000               0.000000000               0.000000000               0.000000000               0.000000000               0.000000000               0.000000000               0.000000000               0.000000000               0.000000000               0.000000000               0.000000000               0.000000000               0.000000000               0.000000000               0.000000000               0.000000000               0.000000000               0.000000000               0.000000000               0.000000000               0.000000000               0.000000000               0.000000000               0.000000000               0.000000000               0.000000000               0.000000000               0.000000000               0.000000000               0.000000000               0.000000000               0.000000000               0.000000000               0.000000000               0.000000000               0.000000000               0.000000000               0.000000000               0.000000000               0.000000000               0.000000000               0.000000000               0.000000000               0.000000000               0.000000000               0.000000000               0.000000000               0.000000000               0.000000000               0.000000000               0.000000000               0.000000000               0.000000000               0.000000000               0.000000000               0.000000000               0.000000000               0.000000000               0.000000000               0.000000000               0.000000000               0.000000000               0.000000000               0.000000000               0.000000000               0.000000000               0.000000000               0.000000000               0.000000000               0.000000000               0.000000000               0.000000000               0.000000000               0.000000000               0.000000000               0.000000000               0.000000000               0.000000000               0.000000000               0.000000000               0.000000000               0.000000000               0.000000000               0.000000000               0.000000000               0.000000000               0.000000000               0.000000000               0.000000000               0.000000000               0.000000000               0.001988560               0.020268384               0.001363395              -0.001787834               0.007352005               0.005564171               0.000000000               0.000000000               0.000000000               0.000000000               0.001779283               0.015583856               0.000604962              -0.001280748               0.005621483               0.004340735               0.000000000               0.000000000               0.000000000               0.000000000               0.002166541               0.011806855              -0.000139420              -0.000663402               0.004156713               0.003493311               0.000000000               0.000000000               0.000000000               0.000000000               0.001920321               0.009652782              -0.000441439              -0.000486476               0.003379720               0.002893244               0.000000000               0.000000000               0.000000000               0.000000000               0.001527136               0.008270494              -0.000553330              -0.000461135               0.002910515               0.002449381               0.000000000               0.000000000               0.000000000               0.000000000               0.001147896               0.007288630              -0.000583475              -0.000480617               0.002589725               0.002109108               0.000000000               0.000000000               0.000000000               0.000000000               0.000828670               0.006526967              -0.000577004              -0.000505118               0.002344007               0.001838888               0.000000000               0.000000000               0.000000000               0.000000000               0.000571574               0.005885972              -0.000549797              -0.000521405               0.002135773               0.001614367               0.000000000               0.000000000               0.000000000               0.000000000               0.000366385               0.005308640              -0.000516682              -0.000526184               0.001944924               0.001418739               0.000000000               0.000000000               0.000000000               0.000000000               0.000197300               0.004764195              -0.000483209              -0.000521536               0.001761894               0.001240359               0.000000000               0.000000000               0.000000000               0.000000000               0.000063613               0.004233129              -0.000447797              -0.000505285               0.001579457               0.001074172               0.000000000               0.000000000               0.000000000               0.000000000              -0.000035164               0.003699403              -0.000410787              -0.000475611               0.001391659               0.000916048               0.000000000               0.000000000               0.000000000               0.000000000              -0.000099883               0.003154145              -0.000368872              -0.000431723               0.001195279               0.000763555               0.000000000               0.000000000               0.000000000               0.000000000              -0.000129471               0.002585853              -0.000315155              -0.000371782               0.000985870               0.000614087               0.000000000               0.000000000               0.000000000               0.000000000              -0.000125549               0.001977033              -0.000242656              -0.000294209               0.000757074               0.000462865               0.000000000               0.000000000               0.000000000               0.000000000              -0.000080097               0.001314655              -0.000139590              -0.000194368               0.000503003               0.000308635               0.000000000               0.000000000               0.000000000               0.000000000              -0.000099284               0.000820175              -0.000089935              -0.000139753               0.000319973               0.000180220               0.000000000               0.000000000               0.000000000               0.000000000               0.002105245               0.018981994               0.002522078              -0.001583279               0.006855028               0.005271748               0.000000000               0.000000000               0.000000000               0.000000000               0.001585126               0.014782945               0.001120268              -0.001253443               0.005345413               0.004091970               0.000000000               0.000000000               0.000000000               0.000000000               0.001639366               0.011493449              -0.000241339              -0.000821917               0.004105084               0.003283167               0.000000000               0.000000000               0.000000000               0.000000000               0.001279470               0.009582036              -0.000772318              -0.000717952               0.003433297               0.002715346               0.000000000               0.000000000               0.000000000               0.000000000               0.000876122               0.008318952              -0.000963231              -0.000711322               0.003010063               0.002298742               0.000000000               0.000000000               0.000000000               0.000000000               0.000533614               0.007390332              -0.001010087              -0.000723685               0.002704647               0.001980963               0.000000000               0.000000000               0.000000000               0.000000000               0.000264813               0.006644258              -0.000993538              -0.000731226               0.002458472               0.001727247               0.000000000               0.000000000               0.000000000               0.000000000               0.000063149               0.006004720              -0.000944127              -0.000726908               0.002243856               0.001516948               0.000000000               0.000000000               0.000000000               0.000000000              -0.000080382               0.005428504              -0.000884879              -0.000708705               0.002045718               0.001337013               0.000000000               0.000000000               0.000000000               0.000000000              -0.000185951               0.004888743              -0.000825100              -0.000680823               0.001856505               0.001175682               0.000000000               0.000000000               0.000000000               0.000000000              -0.000254859               0.004364658              -0.000760265              -0.000641153               0.001668589               0.001027436               0.000000000               0.000000000               0.000000000               0.000000000              -0.000286898               0.003846568              -0.000691097              -0.000588407               0.001478312               0.000889905               0.000000000               0.000000000               0.000000000               0.000000000              -0.000290635               0.003327168              -0.000615089              -0.000524883               0.001284006               0.000759123               0.000000000               0.000000000               0.000000000               0.000000000              -0.000259557               0.002803255              -0.000517581              -0.000447740               0.001083655               0.000635916               0.000000000               0.000000000               0.000000000               0.000000000              -0.000195799               0.002267481              -0.000389148              -0.000356859               0.000874772               0.000517913               0.000000000               0.000000000               0.000000000               0.000000000              -0.000107476               0.001723566              -0.000217985              -0.000255749               0.000659766               0.000404017               0.000000000               0.000000000               0.000000000               0.000000000              -0.000099315               0.001344589              -0.000135348              -0.000205316               0.000516630               0.000311314               0.000000000               0.000000000               0.000000000               0.000000000               0.002195242               0.017038596               0.003323533              -0.001306608               0.006115010               0.004808403               0.000000000               0.000000000               0.000000000               0.000000000               0.001239894               0.013583936               0.001481339              -0.001233030               0.004938943               0.003705914               0.000000000               0.000000000               0.000000000               0.000000000               0.000830762               0.011019439              -0.000284472              -0.001065892               0.004028407               0.002962515               0.000000000               0.000000000               0.000000000               0.000000000               0.000347503               0.009451112              -0.000935052              -0.001051073               0.003500697               0.002449624               0.000000000               0.000000000               0.000000000               0.000000000              -0.000035802               0.008345647              -0.001153590              -0.001056630               0.003134064               0.002077435               0.000000000               0.000000000               0.000000000               0.000000000              -0.000305700               0.007485337              -0.001197687              -0.001050303               0.002845188               0.001794885               0.000000000               0.000000000               0.000000000               0.000000000              -0.000486814               0.006768936              -0.001167683              -0.001028670               0.002599179               0.001570509               0.000000000               0.000000000               0.000000000               0.000000000              -0.000597987               0.006140790              -0.001101278              -0.000991842               0.002377523               0.001385682               0.000000000               0.000000000               0.000000000               0.000000000              -0.000645732               0.005571546              -0.001026961              -0.000938591               0.002170027               0.001231436               0.000000000               0.000000000               0.000000000               0.000000000              -0.000648195               0.005042510              -0.000952104              -0.000873385               0.001971948               0.001098563               0.000000000               0.000000000               0.000000000               0.000000000              -0.000620274               0.004536699              -0.000870723              -0.000799688               0.001778780               0.000979092               0.000000000               0.000000000               0.000000000               0.000000000              -0.000564335               0.004048814              -0.000784340              -0.000717726               0.001588833               0.000871107               0.000000000               0.000000000               0.000000000               0.000000000              -0.000480179               0.003576692              -0.000688658              -0.000627152               0.001401269               0.000774117               0.000000000               0.000000000               0.000000000               0.000000000              -0.000369390               0.003120937              -0.000568239              -0.000528637               0.001216514               0.000687877               0.000000000               0.000000000               0.000000000               0.000000000              -0.000243830               0.002693137              -0.000414262              -0.000428078               0.001040396               0.000612318               0.000000000               0.000000000               0.000000000               0.000000000              -0.000121414               0.002311708              -0.000225696              -0.000334493               0.000882059               0.000547566               0.000000000               0.000000000               0.000000000               0.000000000              -0.000085981               0.002082907              -0.000134062              -0.000292605               0.000791830               0.000499225               0.000000000               0.000000000               0.000000000               0.000000000               0.002131774               0.014687553               0.003684248              -0.001036529               0.005241311               0.004204782               0.000000000               0.000000000               0.000000000               0.000000000               0.000726887               0.012150491               0.001661742              -0.001246227               0.004465532               0.003219305               0.000000000               0.000000000               0.000000000               0.000000000              -0.000157295               0.010441247              -0.000246197              -0.001364138               0.003935094               0.002570956               0.000000000               0.000000000               0.000000000               0.000000000              -0.000713327               0.009243350              -0.000901258              -0.001422913               0.003555390               0.002132477               0.000000000               0.000000000               0.000000000               0.000000000              -0.001023754               0.008300367              -0.001103514              -0.001421450               0.003240578               0.001819128               0.000000000               0.000000000               0.000000000               0.000000000              -0.001178885               0.007515359              -0.001133899              -0.001381499               0.002965594               0.001584096               0.000000000               0.000000000               0.000000000               0.000000000              -0.001236666               0.006838768              -0.001094354              -0.001318593               0.002719097               0.001400504               0.000000000               0.000000000               0.000000000               0.000000000              -0.001222358               0.006233999              -0.001021809              -0.001237631               0.002490522               0.001252891               0.000000000               0.000000000               0.000000000               0.000000000              -0.001149158               0.005682994              -0.000945541              -0.001141306               0.002274747               0.001133441               0.000000000               0.000000000               0.000000000               0.000000000              -0.001033914               0.005173759              -0.000871624              -0.001034435               0.002069381               0.001034945               0.000000000               0.000000000               0.000000000               0.000000000              -0.000893387               0.004695942              -0.000789240              -0.000922011               0.001872635               0.000950624               0.000000000               0.000000000               0.000000000               0.000000000              -0.000732934               0.004248819              -0.000699956              -0.000805951               0.001684909               0.000878958               0.000000000               0.000000000               0.000000000               0.000000000              -0.000556643               0.003834088              -0.000598162              -0.000688001               0.001507350               0.000819349               0.000000000               0.000000000               0.000000000               0.000000000              -0.000377640               0.003461918              -0.000473919              -0.000574354               0.001345412               0.000771059               0.000000000               0.000000000               0.000000000               0.000000000              -0.000217161               0.003153081              -0.000326352              -0.000475569               0.001209540               0.000733970               0.000000000               0.000000000               0.000000000               0.000000000              -0.000095172               0.002932283              -0.000166221              -0.000402224               0.001111493               0.000709269               0.000000000               0.000000000               0.000000000               0.000000000              -0.000052193               0.002834223              -0.000089783              -0.000373849               0.001069348               0.000695499               0.000000000               0.000000000               0.000000000               0.000000000               0.001794437               0.012164937               0.003621896              -0.000847704               0.004337506               0.003489802               0.000000000               0.000000000               0.000000000               0.000000000               0.000047223               0.010637328               0.001694543              -0.001311955               0.003983059               0.002671103               0.000000000               0.000000000               0.000000000               0.000000000              -0.001207766               0.009809573              -0.000099734              -0.001679105               0.003829527               0.002150422               0.000000000               0.000000000               0.000000000               0.000000000              -0.001735491               0.008953581              -0.000673789              -0.001770002               0.003574498               0.001804496               0.000000000               0.000000000               0.000000000               0.000000000              -0.001909703               0.008156730              -0.000837963              -0.001735726               0.003297458               0.001561732               0.000000000               0.000000000               0.000000000               0.000000000              -0.001914774               0.007443916              -0.000860957              -0.001648526               0.003030789               0.001382263               0.000000000               0.000000000               0.000000000               0.000000000              -0.001824921               0.006813359              -0.000827293              -0.001536011               0.002783101               0.001247089               0.000000000               0.000000000               0.000000000               0.000000000              -0.001667434               0.006244254              -0.000765109              -0.001405816               0.002550002               0.001144186               0.000000000               0.000000000               0.000000000               0.000000000              -0.001462285               0.005723802              -0.000702966              -0.001263829               0.002329191               0.001065362               0.000000000               0.000000000               0.000000000               0.000000000              -0.001234253               0.005241202              -0.000643840              -0.001117992               0.002119714               0.001001722               0.000000000               0.000000000               0.000000000               0.000000000              -0.000995079               0.004797170              -0.000574735              -0.000972799               0.001923307               0.000950508               0.000000000               0.000000000               0.000000000               0.000000000              -0.000750624               0.004397462              -0.000494342              -0.000831165               0.001742861               0.000911696               0.000000000               0.000000000               0.000000000               0.000000000              -0.000513625               0.004048062              -0.000399533              -0.000698616               0.001582212               0.000883597               0.000000000               0.000000000               0.000000000               0.000000000              -0.000306585               0.003761274              -0.000291362              -0.000585127               0.001448788               0.000863661               0.000000000               0.000000000               0.000000000               0.000000000              -0.000148951               0.003557014              -0.000179637              -0.000500482               0.001352487               0.000852005               0.000000000               0.000000000               0.000000000               0.000000000              -0.000051040               0.003445944              -0.000080346              -0.000449882               0.001298597               0.000848715               0.000000000               0.000000000               0.000000000               0.000000000              -0.000017977               0.003416629              -0.000036120              -0.000433819               0.001283471               0.000849652               0.000000000               0.000000000               0.000000000               0.000000000               0.001127816               0.009674296               0.003218760              -0.000786357               0.003486851               0.002700494               0.000000000               0.000000000               0.000000000               0.000000000              -0.000760705               0.009171031               0.001631144              -0.001431641               0.003534193               0.002102552               0.000000000               0.000000000               0.000000000               0.000000000              -0.002207375               0.009154239               0.000158903              -0.001972040               0.003708729               0.001736689               0.000000000               0.000000000               0.000000000               0.000000000              -0.002601412               0.008578412              -0.000291558              -0.002047826               0.003542051               0.001494225               0.000000000               0.000000000               0.000000000               0.000000000              -0.002584023               0.007907575              -0.000427580              -0.001957451               0.003288315               0.001330865               0.000000000               0.000000000               0.000000000               0.000000000              -0.002413682               0.007269081              -0.000463879              -0.001813762               0.003027590               0.001213828               0.000000000               0.000000000               0.000000000               0.000000000              -0.002170030               0.006689999              -0.000458715              -0.001650007               0.002779980               0.001129972               0.000000000               0.000000000               0.000000000               0.000000000              -0.001873874               0.006161170              -0.000427544              -0.001472845               0.002544651               0.001071806               0.000000000               0.000000000               0.000000000               0.000000000              -0.001550773               0.005676708              -0.000391835              -0.001291125               0.002322592               0.001031467               0.000000000               0.000000000               0.000000000               0.000000000              -0.001230841               0.005232649              -0.000357449              -0.001115644               0.002116080               0.001000437               0.000000000               0.000000000               0.000000000               0.000000000              -0.000919141               0.004834753              -0.000314215              -0.000949020               0.001927908               0.000978888               0.000000000               0.000000000               0.000000000               0.000000000              -0.000627795               0.004495923              -0.000259638              -0.000797412               0.001764430               0.000967018               0.000000000               0.000000000               0.000000000               0.000000000              -0.000377426               0.004227657              -0.000191140              -0.000669990               0.001632535               0.000962545               0.000000000               0.000000000               0.000000000               0.000000000              -0.000187431               0.004038749              -0.000119528              -0.000575129               0.001537946               0.000962817               0.000000000               0.000000000               0.000000000               0.000000000              -0.000063837               0.003932540              -0.000058184              -0.000515505               0.001482668               0.000967163               0.000000000               0.000000000               0.000000000               0.000000000              -0.000007234               0.003895710              -0.000017589              -0.000489675               0.001461782               0.000972107               0.000000000               0.000000000               0.000000000               0.000000000               0.000006306               0.003902716              -0.000001886              -0.000485474               0.001462717               0.000977243               0.000000000               0.000000000               0.000000000               0.000000000               0.000166692               0.007381871               0.002563216              -0.000860224               0.002747340               0.001887116               0.000000000               0.000000000               0.000000000               0.000000000              -0.001654100               0.007837544               0.001516421              -0.001599977               0.003145814               0.001545837               0.000000000               0.000000000               0.000000000               0.000000000              -0.003062635               0.008474139               0.000519956              -0.002207750               0.003560601               0.001352851               0.000000000               0.000000000               0.000000000               0.000000000              -0.003226003               0.008116556               0.000181487              -0.002224315               0.003446930               0.001222615               0.000000000               0.000000000               0.000000000               0.000000000              -0.002994325               0.007563180               0.000041333              -0.002068264               0.003210456               0.001142192               0.000000000               0.000000000               0.000000000               0.000000000              -0.002649439               0.007003470              -0.000031347              -0.001868969               0.002957456               0.001088488               0.000000000               0.000000000               0.000000000               0.000000000              -0.002258990               0.006480812              -0.000071972              -0.001657219               0.002712655               0.001055437               0.000000000               0.000000000               0.000000000               0.000000000              -0.001846010               0.005993508              -0.000086561              -0.001441439               0.002478296               0.001036857               0.000000000               0.000000000               0.000000000               0.000000000              -0.001433427               0.005554438              -0.000091053              -0.001231837               0.002262073               0.001030236               0.000000000               0.000000000               0.000000000               0.000000000              -0.001045020               0.005163791              -0.000091099              -0.001037354               0.002067031               0.001029677               0.000000000               0.000000000               0.000000000               0.000000000              -0.000691476               0.004830574              -0.000084081              -0.000863123               0.001897883               0.001034760               0.000000000               0.000000000               0.000000000               0.000000000              -0.000391094               0.004571971              -0.000071070              -0.000718155               0.001763360               0.001045205               0.000000000               0.000000000               0.000000000               0.000000000              -0.000162109               0.004401621              -0.000048203              -0.000610992               0.001670856               0.001059864               0.000000000               0.000000000               0.000000000               0.000000000              -0.000015468               0.004319598              -0.000021928              -0.000545749               0.001621768               0.001076019               0.000000000               0.000000000               0.000000000               0.000000000               0.000049231               0.004308915              -0.000000647              -0.000520152               0.001609675               0.001089523               0.000000000               0.000000000               0.000000000               0.000000000               0.000046673               0.004349182               0.000006781              -0.000526144               0.001625094               0.001098950               0.000000000               0.000000000               0.000000000               0.000000000               0.000031333               0.004394396               0.000009071              -0.000537548               0.001643967               0.001106418               0.000000000               0.000000000               0.000000000               0.000000000              -0.000967538               0.005450294               0.001766556              -0.001044112               0.002164783               0.001120671               0.000000000               0.000000000               0.000000000               0.000000000              -0.002526846               0.006644038               0.001392915              -0.001778068               0.002807346               0.001029278               0.000000000               0.000000000               0.000000000               0.000000000              -0.003733957               0.007792188               0.000955410              -0.002374252               0.003388787               0.001014536               0.000000000               0.000000000               0.000000000               0.000000000              -0.003647170               0.007667293               0.000689123              -0.002326095               0.003331104               0.001005009               0.000000000               0.000000000               0.000000000               0.000000000              -0.003232575               0.007250968               0.000518604              -0.002118582               0.003123159               0.001004578               0.000000000               0.000000000               0.000000000               0.000000000              -0.002745656               0.006788155               0.000395782              -0.001878136               0.002888741               0.001010605               0.000000000               0.000000000               0.000000000               0.000000000              -0.002239203               0.006332155               0.000299986              -0.001631216               0.002654436               0.001023220               0.000000000               0.000000000               0.000000000               0.000000000              -0.001735237               0.005897078               0.000229722              -0.001387845               0.002428288               0.001040443               0.000000000               0.000000000               0.000000000               0.000000000              -0.001257437               0.005501843               0.000178542              -0.001159266               0.002220351               0.001061085               0.000000000               0.000000000               0.000000000               0.000000000              -0.000817931               0.005157600               0.000136181              -0.000951422               0.002036323               0.001084902               0.000000000               0.000000000               0.000000000               0.000000000              -0.000432863               0.004880834               0.000095906              -0.000772426               0.001884404               0.001111978               0.000000000               0.000000000               0.000000000               0.000000000              -0.000132173               0.004683879               0.000057647              -0.000635048               0.001772960               0.001137912               0.000000000               0.000000000               0.000000000               0.000000000               0.000070867               0.004572827               0.000028473              -0.000545027               0.001705936               0.001160909               0.000000000               0.000000000               0.000000000               0.000000000               0.000184614               0.004548582               0.000010175              -0.000499341               0.001682626               0.001183285               0.000000000               0.000000000               0.000000000               0.000000000               0.000220190               0.004600989               0.000001502              -0.000492551               0.001697831               0.001205280               0.000000000               0.000000000               0.000000000               0.000000000               0.000202038               0.004702623               0.000000246              -0.000512062               0.001738213               0.001226150               0.000000000               0.000000000               0.000000000               0.000000000               0.000175243               0.004769972               0.000001008              -0.000530529               0.001766818               0.001236289               0.000000000               0.000000000               0.000000000               0.000000000              -0.002276650               0.003665496               0.000932757              -0.001311928               0.001659129               0.000347201               0.000000000               0.000000000               0.000000000               0.000000000              -0.003259036               0.005266796               0.001257030              -0.001880484               0.002382409               0.000501925               0.000000000               0.000000000               0.000000000               0.000000000              -0.004139502               0.006780873               0.001409660              -0.002399917               0.003060240               0.000660324               0.000000000               0.000000000               0.000000000               0.000000000              -0.003919296               0.007002596               0.001229188              -0.002345055               0.003115860               0.000770805               0.000000000               0.000000000               0.000000000               0.000000000              -0.003425284               0.006834430               0.001029479              -0.002138780               0.002991047               0.000852267               0.000000000               0.000000000               0.000000000               0.000000000              -0.002880342               0.006555775               0.000859457              -0.001899596               0.002818435               0.000918839               0.000000000               0.000000000               0.000000000               0.000000000              -0.002340150               0.006243046               0.000711775              -0.001657933               0.002633639               0.000975706               0.000000000               0.000000000               0.000000000               0.000000000              -0.001808717               0.005921087               0.000586664              -0.001418401               0.002446476               0.001028075               0.000000000               0.000000000               0.000000000               0.000000000              -0.001303306               0.005605999               0.000487663              -0.001189487               0.002265143               0.001075656               0.000000000               0.000000000               0.000000000               0.000000000              -0.000838479               0.005324206               0.000398469              -0.000979953               0.002101369               0.001121416               0.000000000               0.000000000               0.000000000               0.000000000              -0.000426863               0.005085702               0.000307419              -0.000795784               0.001960478               0.001164694               0.000000000               0.000000000               0.000000000               0.000000000              -0.000086206               0.004896756               0.000218664              -0.000644420               0.001847042               0.001202622               0.000000000               0.000000000               0.000000000               0.000000000               0.000165430               0.004771153               0.000139702              -0.000534357               0.001768487               0.001234131               0.000000000               0.000000000               0.000000000               0.000000000               0.000330685               0.004730179               0.000072695              -0.000467264               0.001732465               0.001265201               0.000000000               0.000000000               0.000000000               0.000000000               0.000421585               0.004771345               0.000027601              -0.000438323               0.001736540               0.001298217               0.000000000               0.000000000               0.000000000               0.000000000               0.000454885               0.004869601               0.000006554              -0.000438117               0.001769223               0.001331106               0.000000000               0.000000000               0.000000000               0.000000000               0.000451717               0.004931730              -0.000000391              -0.000447071               0.001792917               0.001345846               0.000000000               0.000000000               0.000000000               0.000000000              -0.003936246               0.002059966               0.000124677              -0.001733585               0.001264508              -0.000469076               0.000000000               0.000000000               0.000000000               0.000000000              -0.004087452               0.003877900               0.001067189              -0.002017528               0.001965129              -0.000052399               0.000000000               0.000000000               0.000000000               0.000000000              -0.004470846               0.005585590               0.001776402              -0.002374760               0.002653431               0.000278671               0.000000000               0.000000000               0.000000000               0.000000000              -0.004128165               0.006140827               0.001740711              -0.002315660               0.002818808               0.000503148               0.000000000               0.000000000               0.000000000               0.000000000              -0.003595142               0.006257615               0.001550433              -0.002130375               0.002795976               0.000665600               0.000000000               0.000000000               0.000000000               0.000000000              -0.003020196               0.006195065               0.001351526              -0.001906952               0.002700652               0.000793699               0.000000000               0.000000000               0.000000000               0.000000000              -0.002462139               0.006046290               0.001168458              -0.001679085               0.002575104               0.000896020               0.000000000               0.000000000               0.000000000               0.000000000              -0.001919833               0.005858759               0.001003730              -0.001452279               0.002436993               0.000984714               0.000000000               0.000000000               0.000000000               0.000000000              -0.001399600               0.005654164               0.000858354              -0.001231618               0.002295242               0.001063624               0.000000000               0.000000000               0.000000000               0.000000000              -0.000911112               0.005451479               0.000722630              -0.001023100               0.002158174               0.001135075               0.000000000               0.000000000               0.000000000               0.000000000              -0.000463903               0.005253304               0.000591754              -0.000830625               0.002027959               0.001197334               0.000000000               0.000000000               0.000000000               0.000000000              -0.000062398               0.005072482               0.000464350              -0.000657458               0.001909963               0.001252505               0.000000000               0.000000000               0.000000000               0.000000000               0.000269054               0.004929480               0.000337774              -0.000515289               0.001814906               0.001299618               0.000000000               0.000000000               0.000000000               0.000000000               0.000516054               0.004852587               0.000217293              -0.000413052               0.001755197               0.001342145               0.000000000               0.000000000               0.000000000               0.000000000               0.000676696               0.004848583               0.000114779              -0.000352311               0.001733615               0.001381304               0.000000000               0.000000000               0.000000000               0.000000000               0.000756933               0.004905959               0.000043217              -0.000329394               0.001745101               0.001415707               0.000000000               0.000000000               0.000000000               0.000000000               0.000772516               0.004948832               0.000015475              -0.000328910               0.001759231               0.001430321               0.000000000               0.000000000               0.000000000               0.000000000              -0.005846318               0.000756014              -0.000575594              -0.002286868               0.001014287              -0.001272581               0.000000000               0.000000000               0.000000000               0.000000000              -0.005051980               0.002567752               0.000811887              -0.002215458               0.001594392              -0.000621065               0.000000000               0.000000000               0.000000000               0.000000000              -0.004754818               0.004223332               0.001957420              -0.002310968               0.002178085              -0.000132883               0.000000000               0.000000000               0.000000000               0.000000000              -0.004206516               0.005011784               0.002099082              -0.002203912               0.002405214               0.000201303               0.000000000               0.000000000               0.000000000               0.000000000              -0.003614679               0.005387703               0.001965339              -0.002028963               0.002472203               0.000443240               0.000000000               0.000000000               0.000000000               0.000000000              -0.003024689               0.005545071               0.001773714              -0.001827388               0.002457468               0.000630079               0.000000000               0.000000000               0.000000000               0.000000000              -0.002454847               0.005582983               0.001579735              -0.001618437               0.002400454               0.000782017               0.000000000               0.000000000               0.000000000               0.000000000              -0.001912728               0.005557670               0.001396201              -0.001411979               0.002323197               0.000911219               0.000000000               0.000000000               0.000000000               0.000000000              -0.001395496               0.005489300               0.001226013              -0.001209471               0.002232905               0.001023434               0.000000000               0.000000000               0.000000000               0.000000000              -0.000895920               0.005391411               0.001066158              -0.001009894               0.002133750               0.001123856               0.000000000               0.000000000               0.000000000               0.000000000              -0.000420143               0.005271519               0.000914816              -0.000816492               0.002029319               0.001212827               0.000000000               0.000000000               0.000000000               0.000000000               0.000023291               0.005146317               0.000764002              -0.000634554               0.001926940               0.001292386               0.000000000               0.000000000               0.000000000               0.000000000               0.000421611               0.005029871               0.000603328              -0.000470629               0.001833483               0.001362854               0.000000000               0.000000000               0.000000000               0.000000000               0.000748563               0.004945022               0.000435527              -0.000337416               0.001760796               0.001423380               0.000000000               0.000000000               0.000000000               0.000000000               0.000981859               0.004908322               0.000269599              -0.000245342               0.001717872               0.001472529               0.000000000               0.000000000               0.000000000               0.000000000               0.001114244               0.004934976               0.000122152              -0.000199030               0.001711319               0.001512289               0.000000000               0.000000000               0.000000000               0.000000000               0.001142784               0.004959869               0.000052339              -0.000191439               0.001717086               0.001525647               0.000000000               0.000000000               0.000000000               0.000000000              -0.007873338              -0.000183751              -0.001061996              -0.002929531               0.000915253              -0.002014277               0.000000000               0.000000000               0.000000000               0.000000000              -0.006096785               0.001404846               0.000536919              -0.002461897               0.001288905              -0.001172992               0.000000000               0.000000000               0.000000000               0.000000000              -0.005003906               0.002805650               0.001925294              -0.002227167               0.001677594              -0.000549574               0.000000000               0.000000000               0.000000000               0.000000000              -0.004176314               0.003704020               0.002220925              -0.002029116               0.001911031              -0.000118085               0.000000000               0.000000000               0.000000000               0.000000000              -0.003483079               0.004278181               0.002168713              -0.001840924               0.002039686               0.000198763               0.000000000               0.000000000               0.000000000               0.000000000              -0.002869491               0.004637667               0.002015077              -0.001655764               0.002097794               0.000442030               0.000000000               0.000000000               0.000000000               0.000000000              -0.002303012               0.004866232               0.001834955              -0.001471906               0.002112696               0.000640790               0.000000000               0.000000000               0.000000000               0.000000000              -0.001766390               0.005008798               0.001655087              -0.001288493               0.002099080               0.000810586               0.000000000               0.000000000               0.000000000               0.000000000              -0.001254694               0.005084843               0.001487239              -0.001106114               0.002063635               0.000957521               0.000000000               0.000000000               0.000000000               0.000000000              -0.000754262               0.005114820               0.001330942              -0.000922199               0.002012322               0.001090123               0.000000000               0.000000000               0.000000000               0.000000000              -0.000262570               0.005108277               0.001180066              -0.000736997               0.001948408               0.001211410               0.000000000               0.000000000               0.000000000               0.000000000               0.000213434               0.005076188               0.001027859              -0.000554485               0.001876874               0.001322389               0.000000000               0.000000000               0.000000000               0.000000000               0.000665311               0.005030174               0.000857890              -0.000379279               0.001803134               0.001423855               0.000000000               0.000000000               0.000000000               0.000000000               0.001069615               0.004982040               0.000661004              -0.000221649               0.001734546               0.001512897               0.000000000               0.000000000               0.000000000               0.000000000               0.001399218               0.004952012               0.000446527              -0.000094295               0.001682086               0.001587791               0.000000000               0.000000000               0.000000000               0.000000000               0.001629553               0.004962780               0.000223970              -0.000009266               0.001657332               0.001648066               0.000000000               0.000000000               0.000000000               0.000000000               0.001717879               0.004978600               0.000112496               0.000021879               0.001652224               0.001674103               0.000000000               0.000000000               0.000000000               0.000000000              -0.009812896              -0.000766278              -0.001247178              -0.003584049               0.000939250              -0.002644799               0.000000000               0.000000000               0.000000000               0.000000000              -0.007123369               0.000458329               0.000293621              -0.002728552               0.001062286              -0.001666266               0.000000000               0.000000000               0.000000000               0.000000000              -0.005225734               0.001473947               0.001677450              -0.002143891               0.001205937              -0.000937954               0.000000000               0.000000000               0.000000000               0.000000000              -0.004078789               0.002369062               0.002053033              -0.001825676               0.001398235              -0.000427440               0.000000000               0.000000000               0.000000000               0.000000000              -0.003250976               0.003065939               0.002076266              -0.001602355               0.001556086              -0.000046269               0.000000000               0.000000000               0.000000000               0.000000000              -0.002587693               0.003591035               0.001972509              -0.001419262               0.001670086               0.000250824               0.000000000               0.000000000               0.000000000               0.000000000              -0.002017134               0.003985417               0.001826080              -0.001254600               0.001746658               0.000492058               0.000000000               0.000000000               0.000000000               0.000000000              -0.001489639               0.004277225               0.001672998              -0.001093266               0.001790149               0.000696883               0.000000000               0.000000000               0.000000000               0.000000000              -0.000982819               0.004495637               0.001528426              -0.000930510               0.001808700               0.000878190               0.000000000               0.000000000               0.000000000               0.000000000              -0.000485598               0.004658274               0.001395826              -0.000764382               0.001807536               0.001043154               0.000000000               0.000000000               0.000000000               0.000000000               0.000012546               0.004772035               0.001269384              -0.000591799               0.001787929               0.001196129               0.000000000               0.000000000               0.000000000               0.000000000               0.000514862               0.004850597               0.001138375              -0.000413251               0.001754600               0.001341348               0.000000000               0.000000000               0.000000000               0.000000000               0.001010936               0.004901490               0.000982181              -0.000233585               0.001711675               0.001478090               0.000000000               0.000000000               0.000000000               0.000000000               0.001491233               0.004930085               0.000789458              -0.000057049               0.001662362               0.001605313               0.000000000               0.000000000               0.000000000               0.000000000               0.001938762               0.004950179               0.000561809               0.000108262               0.001613956               0.001722218               0.000000000               0.000000000               0.000000000               0.000000000               0.002328871               0.004976601               0.000298460               0.000251249               0.001575101               0.001826350               0.000000000               0.000000000               0.000000000               0.000000000               0.002548497               0.005008559               0.000166771               0.000329613               0.001559632               0.001889245               0.000000000               0.000000000               0.000000000               0.000000000              -0.011440093              -0.001064430              -0.001089961              -0.004156978               0.001030842              -0.003126136               0.000000000               0.000000000               0.000000000               0.000000000              -0.008004470              -0.000226302               0.000121257              -0.002973386               0.000915688              -0.002057698               0.000000000               0.000000000               0.000000000               0.000000000              -0.005409275               0.000382026               0.001236298              -0.002076230               0.000819412              -0.001256817               0.000000000               0.000000000               0.000000000               0.000000000              -0.003952947               0.001200867               0.001584796              -0.001632462               0.000944436              -0.000688026               0.000000000               0.000000000               0.000000000               0.000000000              -0.002990642               0.001951185               0.001644905              -0.001365387               0.001105516              -0.000259871               0.000000000               0.000000000               0.000000000               0.000000000              -0.002270322               0.002580939               0.001587036              -0.001173986               0.001251632               0.000077646               0.000000000               0.000000000               0.000000000               0.000000000              -0.001677880               0.003097055               0.001485766              -0.001016335               0.001371119               0.000354784               0.000000000               0.000000000               0.000000000               0.000000000              -0.001150250               0.003512824               0.001376474              -0.000870445               0.001461078               0.000590632               0.000000000               0.000000000               0.000000000               0.000000000              -0.000648126               0.003852405               0.001270594              -0.000724597               0.001525654               0.000801057               0.000000000               0.000000000               0.000000000               0.000000000              -0.000153151               0.004131036               0.001175628              -0.000573810               0.001568268               0.000994458               0.000000000               0.000000000               0.000000000               0.000000000               0.000346637               0.004358201               0.001088305              -0.000414786               0.001590981               0.001176195               0.000000000               0.000000000               0.000000000               0.000000000               0.000859443               0.004547666               0.000994581              -0.000246167               0.001597929               0.001351762               0.000000000               0.000000000               0.000000000               0.000000000               0.001390666               0.004703357               0.000876990              -0.000066421               0.001589910               0.001523490               0.000000000               0.000000000               0.000000000               0.000000000               0.001944039               0.004824679               0.000724339               0.000125928               0.001566234               0.001692162               0.000000000               0.000000000               0.000000000               0.000000000               0.002517071               0.004910560               0.000532523               0.000330078               0.001526811               0.001856889               0.000000000               0.000000000               0.000000000               0.000000000               0.003098769               0.004966246               0.000291779               0.000541252               0.001474981               0.002016233               0.000000000               0.000000000               0.000000000               0.000000000               0.003494239               0.005026153               0.000171620               0.000682064               0.001448013               0.002130077               0.000000000               0.000000000               0.000000000               0.000000000              -0.012534210              -0.001184668              -0.000631674              -0.004552242               0.001122517              -0.003429725               0.000000000               0.000000000               0.000000000               0.000000000              -0.008609912              -0.000636397               0.000033823              -0.003149165               0.000837584              -0.002311581               0.000000000               0.000000000               0.000000000               0.000000000              -0.005533279              -0.000336836               0.000654920              -0.002032874               0.000565342              -0.001467532               0.000000000               0.000000000               0.000000000               0.000000000              -0.003846172               0.000392673               0.000863457              -0.001491397               0.000628019              -0.000863378               0.000000000               0.000000000               0.000000000               0.000000000              -0.002784013               0.001154000               0.000910643              -0.001188253               0.000780745              -0.000407508               0.000000000               0.000000000               0.000000000               0.000000000              -0.002022852               0.001841049               0.000886840              -0.000988699               0.000943242              -0.000045456               0.000000000               0.000000000               0.000000000               0.000000000              -0.001407719               0.002430326               0.000834652              -0.000831684               0.001087328               0.000255644               0.000000000               0.000000000               0.000000000               0.000000000              -0.000869413               0.002924081               0.000776638              -0.000691539               0.001205197               0.000513658               0.000000000               0.000000000               0.000000000               0.000000000              -0.000364329               0.003344656               0.000720962              -0.000554704               0.001299775               0.000745071               0.000000000               0.000000000               0.000000000               0.000000000               0.000131080               0.003708608               0.000672700              -0.000414420               0.001374330               0.000959910               0.000000000               0.000000000               0.000000000               0.000000000               0.000628597               0.004025135               0.000629159              -0.000267418               0.001430837               0.001163420               0.000000000               0.000000000               0.000000000               0.000000000               0.001143013               0.004301529               0.000582011              -0.000109061               0.001470182               0.001361121               0.000000000               0.000000000               0.000000000               0.000000000               0.001692824               0.004537175               0.000520853               0.000067661               0.001489823               0.001557484               0.000000000               0.000000000               0.000000000               0.000000000               0.002298035               0.004730057               0.000439073               0.000270503               0.001486502               0.001757005               0.000000000               0.000000000               0.000000000               0.000000000               0.002972938               0.004870302               0.000329327               0.000506059               0.001454732               0.001960790               0.000000000               0.000000000               0.000000000               0.000000000               0.003727705               0.004951910               0.000182892               0.000778893               0.001390989               0.002169882               0.000000000               0.000000000               0.000000000               0.000000000               0.004290808               0.005036422               0.000110852               0.000979491               0.001352294               0.002331784               0.000000000               0.000000000               0.000000000               0.000000000              -0.012920899              -0.001210735              -0.000000000              -0.004693992               0.001161078              -0.003532914               0.000000000               0.000000000               0.000000000               0.000000000              -0.008827463              -0.000771449               0.000000000              -0.003213865               0.000814133              -0.002399732               0.000000000               0.000000000               0.000000000               0.000000000              -0.005578509              -0.000590905               0.000000000              -0.002018077               0.000475721              -0.001542356               0.000000000               0.000000000               0.000000000               0.000000000              -0.003804799               0.000101663              -0.000000000              -0.001439506               0.000513720              -0.000925787               0.000000000               0.000000000               0.000000000               0.000000000              -0.002703415               0.000868039               0.000000000              -0.001122284               0.000663436              -0.000458848               0.000000000               0.000000000               0.000000000               0.000000000              -0.001929971               0.001568692               0.000000000              -0.000919824               0.000829499              -0.000090324               0.000000000               0.000000000               0.000000000               0.000000000              -0.001307401               0.002176406               0.000000000              -0.000762325               0.000979570               0.000217245               0.000000000               0.000000000               0.000000000               0.000000000              -0.000761007               0.002698115               0.000000000              -0.000622641               0.001106910               0.000484269               0.000000000               0.000000000               0.000000000               0.000000000              -0.000249713               0.003150792              -0.000000000              -0.000487490               0.001212750               0.000725260               0.000000000               0.000000000               0.000000000               0.000000000               0.000246491               0.003550020              -0.000000000              -0.000351318               0.001300434               0.000949116               0.000000000               0.000000000               0.000000000               0.000000000               0.000742294               0.003902461               0.000000000              -0.000209447               0.001370623               0.001161176               0.000000000               0.000000000               0.000000000               0.000000000               0.001255835               0.004211727               0.000000000              -0.000055528               0.001422404               0.001366876               0.000000000               0.000000000               0.000000000               0.000000000               0.001810975               0.004479451               0.000000000               0.000119183               0.001453408               0.001572591               0.000000000               0.000000000               0.000000000               0.000000000               0.002434415               0.004701762              -0.000000000               0.000325182               0.001458844               0.001784026               0.000000000               0.000000000               0.000000000               0.000000000               0.003147572               0.004863982               0.000000000               0.000572336               0.001430533               0.002002868               0.000000000               0.000000000               0.000000000               0.000000000               0.003976433               0.004954667               0.000000000               0.000871820               0.001360932               0.002232753               0.000000000               0.000000000               0.000000000               0.000000000               0.004613341               0.005047698              -0.000000000               0.001099030               0.001316206               0.002415236               0.000000000               0.000000000               0.000000000               0.000000000               0.001937622               0.020718356               0.000000000              -0.001863182               0.007527110               0.005663928               0.000000000               0.000000000               0.000000000               0.000000000               0.001840187               0.015865878               0.000000000              -0.001293161               0.005719627               0.004426465               0.000000000               0.000000000               0.000000000               0.000000000               0.002346807               0.011916016              -0.000000000              -0.000609448               0.004175115               0.003565667               0.000000000               0.000000000               0.000000000               0.000000000               0.002148947               0.009675026              -0.000000000              -0.000403522               0.003359484               0.002955962               0.000000000               0.000000000               0.000000000               0.000000000               0.001768614               0.008250461               0.000000000              -0.000368076               0.002872818               0.002504742               0.000000000               0.000000000               0.000000000               0.000000000               0.001377506               0.007246247               0.000000000              -0.000389215               0.002545130               0.002155915               0.000000000               0.000000000               0.000000000               0.000000000               0.001040911               0.006480541               0.000000000              -0.000419725               0.002300067               0.001880342               0.000000000               0.000000000               0.000000000               0.000000000               0.000764966               0.005839896              -0.000000000              -0.000443124               0.002094320               0.001651197               0.000000000               0.000000000               0.000000000               0.000000000               0.000539800               0.005262314              -0.000000000              -0.000455363               0.001905875               0.001450512               0.000000000               0.000000000               0.000000000               0.000000000               0.000351494               0.004716600              -0.000000000              -0.000457764               0.001724772               0.001267009               0.000000000               0.000000000               0.000000000               0.000000000               0.000189722               0.004182445              -0.000000000              -0.000451659               0.001544687               0.001093028               0.000000000               0.000000000               0.000000000               0.000000000               0.000060377               0.003644954              -0.000000000              -0.000432977               0.001359298               0.000926321               0.000000000               0.000000000               0.000000000               0.000000000              -0.000026964               0.003092063               0.000000000              -0.000396618               0.001162884               0.000766265               0.000000000               0.000000000               0.000000000               0.000000000              -0.000078267               0.002506742               0.000000000              -0.000342692               0.000949803               0.000607111               0.000000000               0.000000000               0.000000000               0.000000000              -0.000095311               0.001870858              -0.000000000              -0.000269598               0.000713479               0.000443881               0.000000000               0.000000000               0.000000000               0.000000000              -0.000065833               0.001162955              -0.000000000              -0.000170057               0.000444333               0.000274277               0.000000000               0.000000000               0.000000000               0.000000000              -0.000095892               0.000623344              -0.000000000              -0.000113877               0.000245738               0.000131861               0.000000000               0.000000000               0.000000000               0.000000000               0.001988560               0.020268384              -0.001363395              -0.001787834               0.007352005               0.005564171               0.000000000               0.000000000               0.000000000               0.000000000               0.001779283               0.015583856              -0.000604962              -0.001280748               0.005621483               0.004340735               0.000000000               0.000000000               0.000000000               0.000000000               0.002166541               0.011806855               0.000139420              -0.000663402               0.004156713               0.003493311               0.000000000               0.000000000               0.000000000               0.000000000               0.001920321               0.009652782               0.000441439              -0.000486476               0.003379720               0.002893244               0.000000000               0.000000000               0.000000000               0.000000000               0.001527136               0.008270494               0.000553330              -0.000461135               0.002910515               0.002449381               0.000000000               0.000000000               0.000000000               0.000000000               0.001147896               0.007288630               0.000583475              -0.000480617               0.002589725               0.002109108               0.000000000               0.000000000               0.000000000               0.000000000               0.000828670               0.006526967               0.000577004              -0.000505118               0.002344007               0.001838888               0.000000000               0.000000000               0.000000000               0.000000000               0.000571574               0.005885972               0.000549797              -0.000521405               0.002135773               0.001614367               0.000000000               0.000000000               0.000000000               0.000000000               0.000366385               0.005308640               0.000516682              -0.000526184               0.001944924               0.001418739               0.000000000               0.000000000               0.000000000               0.000000000               0.000197300               0.004764195               0.000483209              -0.000521536               0.001761894               0.001240359               0.000000000               0.000000000               0.000000000               0.000000000               0.000063613               0.004233129               0.000447797              -0.000505285               0.001579457               0.001074172               0.000000000               0.000000000               0.000000000               0.000000000              -0.000035164               0.003699403               0.000410787              -0.000475611               0.001391659               0.000916048               0.000000000               0.000000000               0.000000000               0.000000000              -0.000099883               0.003154145               0.000368872              -0.000431723               0.001195279               0.000763555               0.000000000               0.000000000               0.000000000               0.000000000              -0.000129471               0.002585853               0.000315155              -0.000371782               0.000985870               0.000614087               0.000000000               0.000000000               0.000000000               0.000000000              -0.000125549               0.001977033               0.000242656              -0.000294209               0.000757074               0.000462865               0.000000000               0.000000000               0.000000000               0.000000000              -0.000080097               0.001314655               0.000139590              -0.000194368               0.000503003               0.000308635               0.000000000               0.000000000               0.000000000               0.000000000              -0.000099284               0.000820175               0.000089935              -0.000139753               0.000319973               0.000180220               0.000000000               0.000000000               0.000000000               0.000000000               0.002105245               0.018981994              -0.002522078              -0.001583279               0.006855028               0.005271748               0.000000000               0.000000000               0.000000000               0.000000000               0.001585126               0.014782945              -0.001120268              -0.001253443               0.005345413               0.004091970               0.000000000               0.000000000               0.000000000               0.000000000               0.001639366               0.011493449               0.000241339              -0.000821917               0.004105084               0.003283167               0.000000000               0.000000000               0.000000000               0.000000000               0.001279470               0.009582036               0.000772318              -0.000717952               0.003433297               0.002715346               0.000000000               0.000000000               0.000000000               0.000000000               0.000876122               0.008318952               0.000963231              -0.000711322               0.003010063               0.002298742               0.000000000               0.000000000               0.000000000               0.000000000               0.000533614               0.007390332               0.001010087              -0.000723685               0.002704647               0.001980963               0.000000000               0.000000000               0.000000000               0.000000000               0.000264813               0.006644258               0.000993538              -0.000731226               0.002458472               0.001727247               0.000000000               0.000000000               0.000000000               0.000000000               0.000063149               0.006004720               0.000944127              -0.000726908               0.002243856               0.001516948               0.000000000               0.000000000               0.000000000               0.000000000              -0.000080382               0.005428504               0.000884879              -0.000708705               0.002045718               0.001337013               0.000000000               0.000000000               0.000000000               0.000000000              -0.000185951               0.004888743               0.000825100              -0.000680823               0.001856505               0.001175682               0.000000000               0.000000000               0.000000000               0.000000000              -0.000254859               0.004364658               0.000760265              -0.000641153               0.001668589               0.001027436               0.000000000               0.000000000               0.000000000               0.000000000              -0.000286898               0.003846568               0.000691097              -0.000588407               0.001478312               0.000889905               0.000000000               0.000000000               0.000000000               0.000000000              -0.000290635               0.003327168               0.000615089              -0.000524883               0.001284006               0.000759123               0.000000000               0.000000000               0.000000000               0.000000000              -0.000259557               0.002803255               0.000517581              -0.000447740               0.001083655               0.000635916               0.000000000               0.000000000               0.000000000               0.000000000              -0.000195799               0.002267481               0.000389148              -0.000356859               0.000874772               0.000517913               0.000000000               0.000000000               0.000000000               0.000000000              -0.000107476               0.001723566               0.000217985              -0.000255749               0.000659766               0.000404017               0.000000000               0.000000000               0.000000000               0.000000000              -0.000099315               0.001344589               0.000135348              -0.000205316               0.000516630               0.000311314               0.000000000               0.000000000               0.000000000               0.000000000               0.002195242               0.017038596              -0.003323533              -0.001306608               0.006115010               0.004808403               0.000000000               0.000000000               0.000000000               0.000000000               0.001239894               0.013583936              -0.001481339              -0.001233030               0.004938943               0.003705914               0.000000000               0.000000000               0.000000000               0.000000000               0.000830762               0.011019439               0.000284472              -0.001065892               0.004028407               0.002962515               0.000000000               0.000000000               0.000000000               0.000000000               0.000347503               0.009451112               0.000935052              -0.001051073               0.003500697               0.002449624               0.000000000               0.000000000               0.000000000               0.000000000              -0.000035802               0.008345647               0.001153590              -0.001056630               0.003134064               0.002077435               0.000000000               0.000000000               0.000000000               0.000000000              -0.000305700               0.007485337               0.001197687              -0.001050303               0.002845188               0.001794885               0.000000000               0.000000000               0.000000000               0.000000000              -0.000486814               0.006768936               0.001167683              -0.001028670               0.002599179               0.001570509               0.000000000               0.000000000               0.000000000               0.000000000              -0.000597987               0.006140790               0.001101278              -0.000991842               0.002377523               0.001385682               0.000000000               0.000000000               0.000000000               0.000000000              -0.000645732               0.005571546               0.001026961              -0.000938591               0.002170027               0.001231436               0.000000000               0.000000000               0.000000000               0.000000000              -0.000648195               0.005042510               0.000952104              -0.000873385               0.001971948               0.001098563               0.000000000               0.000000000               0.000000000               0.000000000              -0.000620274               0.004536699               0.000870723              -0.000799688               0.001778780               0.000979092               0.000000000               0.000000000               0.000000000               0.000000000              -0.000564335               0.004048814               0.000784340              -0.000717726               0.001588833               0.000871107               0.000000000               0.000000000               0.000000000               0.000000000              -0.000480179               0.003576692               0.000688658              -0.000627152               0.001401269               0.000774117               0.000000000               0.000000000               0.000000000               0.000000000              -0.000369390               0.003120937               0.000568239              -0.000528637               0.001216514               0.000687877               0.000000000               0.000000000               0.000000000               0.000000000              -0.000243830               0.002693137               0.000414262              -0.000428078               0.001040396               0.000612318               0.000000000               0.000000000               0.000000000               0.000000000              -0.000121414               0.002311708               0.000225696              -0.000334493               0.000882059               0.000547566               0.000000000               0.000000000               0.000000000               0.000000000              -0.000085981               0.002082907               0.000134062              -0.000292605               0.000791830               0.000499225               0.000000000               0.000000000               0.000000000               0.000000000               0.002131774               0.014687553              -0.003684248              -0.001036529               0.005241311               0.004204782               0.000000000               0.000000000               0.000000000               0.000000000               0.000726887               0.012150491              -0.001661742              -0.001246227               0.004465532               0.003219305               0.000000000               0.000000000               0.000000000               0.000000000              -0.000157295               0.010441247               0.000246197              -0.001364138               0.003935094               0.002570956               0.000000000               0.000000000               0.000000000               0.000000000              -0.000713327               0.009243350               0.000901258              -0.001422913               0.003555390               0.002132477               0.000000000               0.000000000               0.000000000               0.000000000              -0.001023754               0.008300367               0.001103514              -0.001421450               0.003240578               0.001819128               0.000000000               0.000000000               0.000000000               0.000000000              -0.001178885               0.007515359               0.001133899              -0.001381499               0.002965594               0.001584096               0.000000000               0.000000000               0.000000000               0.000000000              -0.001236666               0.006838768               0.001094354              -0.001318593               0.002719097               0.001400504               0.000000000               0.000000000               0.000000000               0.000000000              -0.001222358               0.006233999               0.001021809              -0.001237631               0.002490522               0.001252891               0.000000000               0.000000000               0.000000000               0.000000000              -0.001149158               0.005682994               0.000945541              -0.001141306               0.002274747               0.001133441               0.000000000               0.000000000               0.000000000               0.000000000              -0.001033914               0.005173759               0.000871624              -0.001034435               0.002069381               0.001034945               0.000000000               0.000000000               0.000000000               0.000000000              -0.000893387               0.004695942               0.000789240              -0.000922011               0.001872635               0.000950624               0.000000000               0.000000000               0.000000000               0.000000000              -0.000732934               0.004248819               0.000699956              -0.000805951               0.001684909               0.000878958               0.000000000               0.000000000               0.000000000               0.000000000              -0.000556643               0.003834088               0.000598162              -0.000688001               0.001507350               0.000819349               0.000000000               0.000000000               0.000000000               0.000000000              -0.000377640               0.003461918               0.000473919              -0.000574354               0.001345412               0.000771059               0.000000000               0.000000000               0.000000000               0.000000000              -0.000217161               0.003153081               0.000326352              -0.000475569               0.001209540               0.000733970               0.000000000               0.000000000               0.000000000               0.000000000              -0.000095172               0.002932283               0.000166221              -0.000402224               0.001111493               0.000709269               0.000000000               0.000000000               0.000000000               0.000000000              -0.000052193               0.002834223               0.000089783              -0.000373849               0.001069348               0.000695499               0.000000000               0.000000000               0.000000000               0.000000000               0.001794437               0.012164937              -0.003621896              -0.000847704               0.004337506               0.003489802               0.000000000               0.000000000               0.000000000               0.000000000               0.000047223               0.010637328              -0.001694543              -0.001311955               0.003983059               0.002671103               0.000000000               0.000000000               0.000000000               0.000000000              -0.001207766               0.009809573               0.000099734              -0.001679105               0.003829527               0.002150422               0.000000000               0.000000000               0.000000000               0.000000000              -0.001735491               0.008953581               0.000673789              -0.001770002               0.003574498               0.001804496               0.000000000               0.000000000               0.000000000               0.000000000              -0.001909703               0.008156730               0.000837963              -0.001735726               0.003297458               0.001561732               0.000000000               0.000000000               0.000000000               0.000000000              -0.001914774               0.007443916               0.000860957              -0.001648526               0.003030789               0.001382263               0.000000000               0.000000000               0.000000000               0.000000000              -0.001824921               0.006813359               0.000827293              -0.001536011               0.002783101               0.001247089               0.000000000               0.000000000               0.000000000               0.000000000              -0.001667434               0.006244254               0.000765109              -0.001405816               0.002550002               0.001144186               0.000000000               0.000000000               0.000000000               0.000000000              -0.001462285               0.005723802               0.000702966              -0.001263829               0.002329191               0.001065362               0.000000000               0.000000000               0.000000000               0.000000000              -0.001234253               0.005241202               0.000643840              -0.001117992               0.002119714               0.001001722               0.000000000               0.000000000               0.000000000               0.000000000              -0.000995079               0.004797170               0.000574735              -0.000972799               0.001923307               0.000950508               0.000000000               0.000000000               0.000000000               0.000000000              -0.000750624               0.004397462               0.000494342              -0.000831165               0.001742861               0.000911696               0.000000000               0.000000000               0.000000000               0.000000000              -0.000513625               0.004048062               0.000399533              -0.000698616               0.001582212               0.000883597               0.000000000               0.000000000               0.000000000               0.000000000              -0.000306585               0.003761274               0.000291362              -0.000585127               0.001448788               0.000863661               0.000000000               0.000000000               0.000000000               0.000000000              -0.000148951               0.003557014               0.000179637              -0.000500482               0.001352487               0.000852005               0.000000000               0.000000000               0.000000000               0.000000000              -0.000051040               0.003445944               0.000080346              -0.000449882               0.001298597               0.000848715               0.000000000               0.000000000               0.000000000               0.000000000              -0.000017977               0.003416629               0.000036120              -0.000433819               0.001283471               0.000849652               0.000000000               0.000000000               0.000000000               0.000000000               0.001127816               0.009674296              -0.003218760              -0.000786357               0.003486851               0.002700494               0.000000000               0.000000000               0.000000000               0.000000000              -0.000760705               0.009171031              -0.001631144              -0.001431641               0.003534193               0.002102552               0.000000000               0.000000000               0.000000000               0.000000000              -0.002207375               0.009154239              -0.000158903              -0.001972040               0.003708729               0.001736689               0.000000000               0.000000000               0.000000000               0.000000000              -0.002601412               0.008578412               0.000291558              -0.002047826               0.003542051               0.001494225               0.000000000               0.000000000               0.000000000               0.000000000              -0.002584023               0.007907575               0.000427580              -0.001957451               0.003288315               0.001330865               0.000000000               0.000000000               0.000000000               0.000000000              -0.002413682               0.007269081               0.000463879              -0.001813762               0.003027590               0.001213828               0.000000000               0.000000000               0.000000000               0.000000000              -0.002170030               0.006689999               0.000458715              -0.001650007               0.002779980               0.001129972               0.000000000               0.000000000               0.000000000               0.000000000              -0.001873874               0.006161170               0.000427544              -0.001472845               0.002544651               0.001071806               0.000000000               0.000000000               0.000000000               0.000000000              -0.001550773               0.005676708               0.000391835              -0.001291125               0.002322592               0.001031467               0.000000000               0.000000000               0.000000000               0.000000000              -0.001230841               0.005232649               0.000357449              -0.001115644               0.002116080               0.001000437               0.000000000               0.000000000               0.000000000               0.000000000              -0.000919141               0.004834753               0.000314215              -0.000949020               0.001927908               0.000978888               0.000000000               0.000000000               0.000000000               0.000000000              -0.000627795               0.004495923               0.000259638              -0.000797412               0.001764430               0.000967018               0.000000000               0.000000000               0.000000000               0.000000000              -0.000377426               0.004227657               0.000191140              -0.000669990               0.001632535               0.000962545               0.000000000               0.000000000               0.000000000               0.000000000              -0.000187431               0.004038749               0.000119528              -0.000575129               0.001537946               0.000962817               0.000000000               0.000000000               0.000000000               0.000000000              -0.000063837               0.003932540               0.000058184              -0.000515505               0.001482668               0.000967163               0.000000000               0.000000000               0.000000000               0.000000000              -0.000007234               0.003895710               0.000017589              -0.000489675               0.001461782               0.000972107               0.000000000               0.000000000               0.000000000               0.000000000               0.000006306               0.003902716               0.000001886              -0.000485474               0.001462717               0.000977243               0.000000000               0.000000000               0.000000000               0.000000000               0.000166692               0.007381871              -0.002563216              -0.000860224               0.002747340               0.001887116               0.000000000               0.000000000               0.000000000               0.000000000              -0.001654100               0.007837544              -0.001516421              -0.001599977               0.003145814               0.001545837               0.000000000               0.000000000               0.000000000               0.000000000              -0.003062635               0.008474139              -0.000519956              -0.002207750               0.003560601               0.001352851               0.000000000               0.000000000               0.000000000               0.000000000              -0.003226003               0.008116556              -0.000181487              -0.002224315               0.003446930               0.001222615               0.000000000               0.000000000               0.000000000               0.000000000              -0.002994325               0.007563180              -0.000041333              -0.002068264               0.003210456               0.001142192               0.000000000               0.000000000               0.000000000               0.000000000              -0.002649439               0.007003470               0.000031347              -0.001868969               0.002957456               0.001088488               0.000000000               0.000000000               0.000000000               0.000000000              -0.002258990               0.006480812               0.000071972              -0.001657219               0.002712655               0.001055437               0.000000000               0.000000000               0.000000000               0.000000000              -0.001846010               0.005993508               0.000086561              -0.001441439               0.002478296               0.001036857               0.000000000               0.000000000               0.000000000               0.000000000              -0.001433427               0.005554438               0.000091053              -0.001231837               0.002262073               0.001030236               0.000000000               0.000000000               0.000000000               0.000000000              -0.001045020               0.005163791               0.000091099              -0.001037354               0.002067031               0.001029677               0.000000000               0.000000000               0.000000000               0.000000000              -0.000691476               0.004830574               0.000084081              -0.000863123               0.001897883               0.001034760               0.000000000               0.000000000               0.000000000               0.000000000              -0.000391094               0.004571971               0.000071070              -0.000718155               0.001763360               0.001045205               0.000000000               0.000000000               0.000000000               0.000000000              -0.000162109               0.004401621               0.000048203              -0.000610992               0.001670856               0.001059864               0.000000000               0.000000000               0.000000000               0.000000000              -0.000015468               0.004319598               0.000021928              -0.000545749               0.001621768               0.001076019               0.000000000               0.000000000               0.000000000               0.000000000               0.000049231               0.004308915               0.000000647              -0.000520152               0.001609675               0.001089523               0.000000000               0.000000000               0.000000000               0.000000000               0.000046673               0.004349182              -0.000006781              -0.000526144               0.001625094               0.001098950               0.000000000               0.000000000               0.000000000               0.000000000               0.000031333               0.004394396              -0.000009071              -0.000537548               0.001643967               0.001106418               0.000000000               0.000000000               0.000000000               0.000000000              -0.000967538               0.005450294              -0.001766556              -0.001044112               0.002164783               0.001120671               0.000000000               0.000000000               0.000000000               0.000000000              -0.002526846               0.006644038              -0.001392915              -0.001778068               0.002807346               0.001029278               0.000000000               0.000000000               0.000000000               0.000000000              -0.003733957               0.007792188              -0.000955410              -0.002374252               0.003388787               0.001014536               0.000000000               0.000000000               0.000000000               0.000000000              -0.003647170               0.007667293              -0.000689123              -0.002326095               0.003331104               0.001005009               0.000000000               0.000000000               0.000000000               0.000000000              -0.003232575               0.007250968              -0.000518604              -0.002118582               0.003123159               0.001004578               0.000000000               0.000000000               0.000000000               0.000000000              -0.002745656               0.006788155              -0.000395782              -0.001878136               0.002888741               0.001010605               0.000000000               0.000000000               0.000000000               0.000000000              -0.002239203               0.006332155              -0.000299986              -0.001631216               0.002654436               0.001023220               0.000000000               0.000000000               0.000000000               0.000000000              -0.001735237               0.005897078              -0.000229722              -0.001387845               0.002428288               0.001040443               0.000000000               0.000000000               0.000000000               0.000000000              -0.001257437               0.005501843              -0.000178542              -0.001159266               0.002220351               0.001061085               0.000000000               0.000000000               0.000000000               0.000000000              -0.000817931               0.005157600              -0.000136181              -0.000951422               0.002036323               0.001084902               0.000000000               0.000000000               0.000000000               0.000000000              -0.000432863               0.004880834              -0.000095906              -0.000772426               0.001884404               0.001111978               0.000000000               0.000000000               0.000000000               0.000000000              -0.000132173               0.004683879              -0.000057647              -0.000635048               0.001772960               0.001137912               0.000000000               0.000000000               0.000000000               0.000000000               0.000070867               0.004572827              -0.000028473              -0.000545027               0.001705936               0.001160909               0.000000000               0.000000000               0.000000000               0.000000000               0.000184614               0.004548582              -0.000010175              -0.000499341               0.001682626               0.001183285               0.000000000               0.000000000               0.000000000               0.000000000               0.000220190               0.004600989              -0.000001502              -0.000492551               0.001697831               0.001205280               0.000000000               0.000000000               0.000000000               0.000000000               0.000202038               0.004702623              -0.000000246              -0.000512062               0.001738213               0.001226150               0.000000000               0.000000000               0.000000000               0.000000000               0.000175243               0.004769972              -0.000001008              -0.000530529               0.001766818               0.001236289               0.000000000               0.000000000               0.000000000               0.000000000              -0.002276650               0.003665496              -0.000932757              -0.001311928               0.001659129               0.000347201               0.000000000               0.000000000               0.000000000               0.000000000              -0.003259036               0.005266796              -0.001257030              -0.001880484               0.002382409               0.000501925               0.000000000               0.000000000               0.000000000               0.000000000              -0.004139502               0.006780873              -0.001409660              -0.002399917               0.003060240               0.000660324               0.000000000               0.000000000               0.000000000               0.000000000              -0.003919296               0.007002596              -0.001229188              -0.002345055               0.003115860               0.000770805               0.000000000               0.000000000               0.000000000               0.000000000              -0.003425284               0.006834430              -0.001029479              -0.002138780               0.002991047               0.000852267               0.000000000               0.000000000               0.000000000               0.000000000              -0.002880342               0.006555775              -0.000859457              -0.001899596               0.002818435               0.000918839               0.000000000               0.000000000               0.000000000               0.000000000              -0.002340150               0.006243046              -0.000711775              -0.001657933               0.002633639               0.000975706               0.000000000               0.000000000               0.000000000               0.000000000              -0.001808717               0.005921087              -0.000586664              -0.001418401               0.002446476               0.001028075               0.000000000               0.000000000               0.000000000               0.000000000              -0.001303306               0.005605999              -0.000487663              -0.001189487               0.002265143               0.001075656               0.000000000               0.000000000               0.000000000               0.000000000              -0.000838479               0.005324206              -0.000398469              -0.000979953               0.002101369               0.001121416               0.000000000               0.000000000               0.000000000               0.000000000              -0.000426863               0.005085702              -0.000307419              -0.000795784               0.001960478               0.001164694               0.000000000               0.000000000               0.000000000               0.000000000              -0.000086206               0.004896756              -0.000218664              -0.000644420               0.001847042               0.001202622               0.000000000               0.000000000               0.000000000               0.000000000               0.000165430               0.004771153              -0.000139702              -0.000534357               0.001768487               0.001234131               0.000000000               0.000000000               0.000000000               0.000000000               0.000330685               0.004730179              -0.000072695              -0.000467264               0.001732465               0.001265201               0.000000000               0.000000000               0.000000000               0.000000000               0.000421585               0.004771345              -0.000027601              -0.000438323               0.001736540               0.001298217               0.000000000               0.000000000               0.000000000               0.000000000               0.000454885               0.004869601              -0.000006554              -0.000438117               0.001769223               0.001331106               0.000000000               0.000000000               0.000000000               0.000000000               0.000451717               0.004931730               0.000000391              -0.000447071               0.001792917               0.001345846               0.000000000               0.000000000               0.000000000               0.000000000              -0.003936246               0.002059966              -0.000124677              -0.001733585               0.001264508              -0.000469076               0.000000000               0.000000000               0.000000000               0.000000000              -0.004087452               0.003877900              -0.001067189              -0.002017528               0.001965129              -0.000052399               0.000000000               0.000000000               0.000000000               0.000000000              -0.004470846               0.005585590              -0.001776402              -0.002374760               0.002653431               0.000278671               0.000000000               0.000000000               0.000000000               0.000000000              -0.004128165               0.006140827              -0.001740711              -0.002315660               0.002818808               0.000503148               0.000000000               0.000000000               0.000000000               0.000000000              -0.003595142               0.006257615              -0.001550433              -0.002130375               0.002795976               0.000665600               0.000000000               0.000000000               0.000000000               0.000000000              -0.003020196               0.006195065              -0.001351526              -0.001906952               0.002700652               0.000793699               0.000000000               0.000000000               0.000000000               0.000000000              -0.002462139               0.006046290              -0.001168458              -0.001679085               0.002575104               0.000896020               0.000000000               0.000000000               0.000000000               0.000000000              -0.001919833               0.005858759              -0.001003730              -0.001452279               0.002436993               0.000984714               0.000000000               0.000000000               0.000000000               0.000000000              -0.001399600               0.005654164              -0.000858354              -0.001231618               0.002295242               0.001063624               0.000000000               0.000000000               0.000000000               0.000000000              -0.000911112               0.005451479              -0.000722630              -0.001023100               0.002158174               0.001135075               0.000000000               0.000000000               0.000000000               0.000000000              -0.000463903               0.005253304              -0.000591754              -0.000830625               0.002027959               0.001197334               0.000000000               0.000000000               0.000000000               0.000000000              -0.000062398               0.005072482              -0.000464350              -0.000657458               0.001909963               0.001252505               0.000000000               0.000000000               0.000000000               0.000000000               0.000269054               0.004929480              -0.000337774              -0.000515289               0.001814906               0.001299618               0.000000000               0.000000000               0.000000000               0.000000000               0.000516054               0.004852587              -0.000217293              -0.000413052               0.001755197               0.001342145               0.000000000               0.000000000               0.000000000               0.000000000               0.000676696               0.004848583              -0.000114779              -0.000352311               0.001733615               0.001381304               0.000000000               0.000000000               0.000000000               0.000000000               0.000756933               0.004905959              -0.000043217              -0.000329394               0.001745101               0.001415707               0.000000000               0.000000000               0.000000000               0.000000000               0.000772516               0.004948832              -0.000015475              -0.000328910               0.001759231               0.001430321               0.000000000               0.000000000               0.000000000               0.000000000              -0.005846318               0.000756014               0.000575594              -0.002286868               0.001014287              -0.001272581               0.000000000               0.000000000               0.000000000               0.000000000              -0.005051980               0.002567752              -0.000811887              -0.002215458               0.001594392              -0.000621065               0.000000000               0.000000000               0.000000000               0.000000000              -0.004754818               0.004223332              -0.001957420              -0.002310968               0.002178085              -0.000132883               0.000000000               0.000000000               0.000000000               0.000000000              -0.004206516               0.005011784              -0.002099082              -0.002203912               0.002405214               0.000201303               0.000000000               0.000000000               0.000000000               0.000000000              -0.003614679               0.005387703              -0.001965339              -0.002028963               0.002472203               0.000443240               0.000000000               0.000000000               0.000000000               0.000000000              -0.003024689               0.005545071              -0.001773714              -0.001827388               0.002457468               0.000630079               0.000000000               0.000000000               0.000000000               0.000000000              -0.002454847               0.005582983              -0.001579735              -0.001618437               0.002400454               0.000782017               0.000000000               0.000000000               0.000000000               0.000000000              -0.001912728               0.005557670              -0.001396201              -0.001411979               0.002323197               0.000911219               0.000000000               0.000000000               0.000000000               0.000000000              -0.001395496               0.005489300              -0.001226013              -0.001209471               0.002232905               0.001023434               0.000000000               0.000000000               0.000000000               0.000000000              -0.000895920               0.005391411              -0.001066158              -0.001009894               0.002133750               0.001123856               0.000000000               0.000000000               0.000000000               0.000000000              -0.000420143               0.005271519              -0.000914816              -0.000816492               0.002029319               0.001212827               0.000000000               0.000000000               0.000000000               0.000000000               0.000023291               0.005146317              -0.000764002              -0.000634554               0.001926940               0.001292386               0.000000000               0.000000000               0.000000000               0.000000000               0.000421611               0.005029871              -0.000603328              -0.000470629               0.001833483               0.001362854               0.000000000               0.000000000               0.000000000               0.000000000               0.000748563               0.004945022              -0.000435527              -0.000337416               0.001760796               0.001423380               0.000000000               0.000000000               0.000000000               0.000000000               0.000981859               0.004908322              -0.000269599              -0.000245342               0.001717872               0.001472529               0.000000000               0.000000000               0.000000000               0.000000000               0.001114244               0.004934976              -0.000122152              -0.000199030               0.001711319               0.001512289               0.000000000               0.000000000               0.000000000               0.000000000               0.001142784               0.004959869              -0.000052339              -0.000191439               0.001717086               0.001525647               0.000000000               0.000000000               0.000000000               0.000000000              -0.007873338              -0.000183751               0.001061996              -0.002929531               0.000915253              -0.002014277               0.000000000               0.000000000               0.000000000               0.000000000              -0.006096785               0.001404846              -0.000536919              -0.002461897               0.001288905              -0.001172992               0.000000000               0.000000000               0.000000000               0.000000000              -0.005003906               0.002805650              -0.001925294              -0.002227167               0.001677594              -0.000549574               0.000000000               0.000000000               0.000000000               0.000000000              -0.004176314               0.003704020              -0.002220925              -0.002029116               0.001911031              -0.000118085               0.000000000               0.000000000               0.000000000               0.000000000              -0.003483079               0.004278181              -0.002168713              -0.001840924               0.002039686               0.000198763               0.000000000               0.000000000               0.000000000               0.000000000              -0.002869491               0.004637667              -0.002015077              -0.001655764               0.002097794               0.000442030               0.000000000               0.000000000               0.000000000               0.000000000              -0.002303012               0.004866232              -0.001834955              -0.001471906               0.002112696               0.000640790               0.000000000               0.000000000               0.000000000               0.000000000              -0.001766390               0.005008798              -0.001655087              -0.001288493               0.002099080               0.000810586               0.000000000               0.000000000               0.000000000               0.000000000              -0.001254694               0.005084843              -0.001487239              -0.001106114               0.002063635               0.000957521               0.000000000               0.000000000               0.000000000               0.000000000              -0.000754262               0.005114820              -0.001330942              -0.000922199               0.002012322               0.001090123               0.000000000               0.000000000               0.000000000               0.000000000              -0.000262570               0.005108277              -0.001180066              -0.000736997               0.001948408               0.001211410               0.000000000               0.000000000               0.000000000               0.000000000               0.000213434               0.005076188              -0.001027859              -0.000554485               0.001876874               0.001322389               0.000000000               0.000000000               0.000000000               0.000000000               0.000665311               0.005030174              -0.000857890              -0.000379279               0.001803134               0.001423855               0.000000000               0.000000000               0.000000000               0.000000000               0.001069615               0.004982040              -0.000661004              -0.000221649               0.001734546               0.001512897               0.000000000               0.000000000               0.000000000               0.000000000               0.001399218               0.004952012              -0.000446527              -0.000094295               0.001682086               0.001587791               0.000000000               0.000000000               0.000000000               0.000000000               0.001629553               0.004962780              -0.000223970              -0.000009266               0.001657332               0.001648066               0.000000000               0.000000000               0.000000000               0.000000000               0.001717879               0.004978600              -0.000112496               0.000021879               0.001652224               0.001674103               0.000000000               0.000000000               0.000000000               0.000000000              -0.009812896              -0.000766278               0.001247178              -0.003584049               0.000939250              -0.002644799               0.000000000               0.000000000               0.000000000               0.000000000              -0.007123369               0.000458329              -0.000293621              -0.002728552               0.001062286              -0.001666266               0.000000000               0.000000000               0.000000000               0.000000000              -0.005225734               0.001473947              -0.001677450              -0.002143891               0.001205937              -0.000937954               0.000000000               0.000000000               0.000000000               0.000000000              -0.004078789               0.002369062              -0.002053033              -0.001825676               0.001398235              -0.000427440               0.000000000               0.000000000               0.000000000               0.000000000              -0.003250976               0.003065939              -0.002076266              -0.001602355               0.001556086              -0.000046269               0.000000000               0.000000000               0.000000000               0.000000000              -0.002587693               0.003591035              -0.001972509              -0.001419262               0.001670086               0.000250824               0.000000000               0.000000000               0.000000000               0.000000000              -0.002017134               0.003985417              -0.001826080              -0.001254600               0.001746658               0.000492058               0.000000000               0.000000000               0.000000000               0.000000000              -0.001489639               0.004277225              -0.001672998              -0.001093266               0.001790149               0.000696883               0.000000000               0.000000000               0.000000000               0.000000000              -0.000982819               0.004495637              -0.001528426              -0.000930510               0.001808700               0.000878190               0.000000000               0.000000000               0.000000000               0.000000000              -0.000485598               0.004658274              -0.001395826              -0.000764382               0.001807536               0.001043154               0.000000000               0.000000000               0.000000000               0.000000000               0.000012546               0.004772035              -0.001269384              -0.000591799               0.001787929               0.001196129               0.000000000               0.000000000               0.000000000               0.000000000               0.000514862               0.004850597              -0.001138375              -0.000413251               0.001754600               0.001341348               0.000000000               0.000000000               0.000000000               0.000000000               0.001010936               0.004901490              -0.000982181              -0.000233585               0.001711675               0.001478090               0.000000000               0.000000000               0.000000000               0.000000000               0.001491233               0.004930085              -0.000789458              -0.000057049               0.001662362               0.001605313               0.000000000               0.000000000               0.000000000               0.000000000               0.001938762               0.004950179              -0.000561809               0.000108262               0.001613956               0.001722218               0.000000000               0.000000000               0.000000000               0.000000000               0.002328871               0.004976601              -0.000298460               0.000251249               0.001575101               0.001826350               0.000000000               0.000000000               0.000000000               0.000000000               0.002548497               0.005008559              -0.000166771               0.000329613               0.001559632               0.001889245               0.000000000               0.000000000               0.000000000               0.000000000              -0.011440093              -0.001064430               0.001089961              -0.004156978               0.001030842              -0.003126136               0.000000000               0.000000000               0.000000000               0.000000000              -0.008004470              -0.000226302              -0.000121257              -0.002973386               0.000915688              -0.002057698               0.000000000               0.000000000               0.000000000               0.000000000              -0.005409275               0.000382026              -0.001236298              -0.002076230               0.000819412              -0.001256817               0.000000000               0.000000000               0.000000000               0.000000000              -0.003952947               0.001200867              -0.001584796              -0.001632462               0.000944436              -0.000688026               0.000000000               0.000000000               0.000000000               0.000000000              -0.002990642               0.001951185              -0.001644905              -0.001365387               0.001105516              -0.000259871               0.000000000               0.000000000               0.000000000               0.000000000              -0.002270322               0.002580939              -0.001587036              -0.001173986               0.001251632               0.000077646               0.000000000               0.000000000               0.000000000               0.000000000              -0.001677880               0.003097055              -0.001485766              -0.001016335               0.001371119               0.000354784               0.000000000               0.000000000               0.000000000               0.000000000              -0.001150250               0.003512824              -0.001376474              -0.000870445               0.001461078               0.000590632               0.000000000               0.000000000               0.000000000               0.000000000              -0.000648126               0.003852405              -0.001270594              -0.000724597               0.001525654               0.000801057               0.000000000               0.000000000               0.000000000               0.000000000              -0.000153151               0.004131036              -0.001175628              -0.000573810               0.001568268               0.000994458               0.000000000               0.000000000               0.000000000               0.000000000               0.000346637               0.004358201              -0.001088305              -0.000414786               0.001590981               0.001176195               0.000000000               0.000000000               0.000000000               0.000000000               0.000859443               0.004547666              -0.000994581              -0.000246167               0.001597929               0.001351762               0.000000000               0.000000000               0.000000000               0.000000000               0.001390666               0.004703357              -0.000876990              -0.000066421               0.001589910               0.001523490               0.000000000               0.000000000               0.000000000               0.000000000               0.001944039               0.004824679              -0.000724339               0.000125928               0.001566234               0.001692162               0.000000000               0.000000000               0.000000000               0.000000000               0.002517071               0.004910560              -0.000532523               0.000330078               0.001526811               0.001856889               0.000000000               0.000000000               0.000000000               0.000000000               0.003098769               0.004966246              -0.000291779               0.000541252               0.001474981               0.002016233               0.000000000               0.000000000               0.000000000               0.000000000               0.003494239               0.005026153              -0.000171620               0.000682064               0.001448013               0.002130077               0.000000000               0.000000000               0.000000000               0.000000000              -0.012534210              -0.001184668               0.000631674              -0.004552242               0.001122517              -0.003429725               0.000000000               0.000000000               0.000000000               0.000000000              -0.008609912              -0.000636397              -0.000033823              -0.003149165               0.000837584              -0.002311581               0.000000000               0.000000000               0.000000000               0.000000000              -0.005533279              -0.000336836              -0.000654920              -0.002032874               0.000565342              -0.001467532               0.000000000               0.000000000               0.000000000               0.000000000              -0.003846172               0.000392673              -0.000863457              -0.001491397               0.000628019              -0.000863378               0.000000000               0.000000000               0.000000000               0.000000000              -0.002784013               0.001154000              -0.000910643              -0.001188253               0.000780745              -0.000407508               0.000000000               0.000000000               0.000000000               0.000000000              -0.002022852               0.001841049              -0.000886840              -0.000988699               0.000943242              -0.000045456               0.000000000               0.000000000               0.000000000               0.000000000              -0.001407719               0.002430326              -0.000834652              -0.000831684               0.001087328               0.000255644               0.000000000               0.000000000               0.000000000               0.000000000              -0.000869413               0.002924081              -0.000776638              -0.000691539               0.001205197               0.000513658               0.000000000               0.000000000               0.000000000               0.000000000              -0.000364329               0.003344656              -0.000720962              -0.000554704               0.001299775               0.000745071               0.000000000               0.000000000               0.000000000               0.000000000               0.000131080               0.003708608              -0.000672700              -0.000414420               0.001374330               0.000959910               0.000000000               0.000000000               0.000000000               0.000000000               0.000628597               0.004025135              -0.000629159              -0.000267418               0.001430837               0.001163420               0.000000000               0.000000000               0.000000000               0.000000000               0.001143013               0.004301529              -0.000582011              -0.000109061               0.001470182               0.001361121               0.000000000               0.000000000               0.000000000               0.000000000               0.001692824               0.004537175              -0.000520853               0.000067661               0.001489823               0.001557484               0.000000000               0.000000000               0.000000000               0.000000000               0.002298035               0.004730057              -0.000439073               0.000270503               0.001486502               0.001757005               0.000000000               0.000000000               0.000000000               0.000000000               0.002972938               0.004870302              -0.000329327               0.000506059               0.001454732               0.001960790               0.000000000               0.000000000               0.000000000               0.000000000               0.003727705               0.004951910              -0.000182892               0.000778893               0.001390989               0.002169882               0.000000000               0.000000000               0.000000000               0.000000000               0.004290808               0.005036422              -0.000110852               0.000979491               0.001352294               0.002331784               0.000000000               0.000000000               0.000000000               0.000000000               0.000000000               0.000000000               0.000000000               0.000000000               0.000000000               0.000000000               0.000000000               0.000000000               0.000000000               0.000000000               0.000000000               0.000000000               0.000000000               0.000000000               0.000000000               0.000000000               0.000000000               0.000000000               0.000000000               0.000000000               0.000000000               0.000000000               0.000000000               0.000000000               0.000000000               0.000000000               0.000000000               0.000000000               0.000000000               0.000000000               0.000000000               0.000000000               0.000000000               0.000000000               0.000000000               0.000000000               0.000000000               0.000000000               0.000000000               0.000000000               0.000000000               0.000000000               0.000000000               0.000000000               0.000000000               0.000000000               0.000000000               0.000000000               0.000000000               0.000000000               0.000000000               0.000000000               0.000000000               0.000000000               0.000000000               0.000000000               0.000000000               0.000000000               0.000000000               0.000000000               0.000000000               0.000000000               0.000000000               0.000000000               0.000000000               0.000000000               0.000000000               0.000000000               0.000000000               0.000000000               0.000000000               0.000000000               0.000000000               0.000000000               0.000000000               0.000000000               0.000000000               0.000000000               0.000000000               0.000000000               0.000000000               0.000000000               0.000000000               0.000000000               0.000000000               0.000000000               0.000000000               0.000000000               0.000000000               0.000000000               0.000000000               0.000000000               0.000000000               0.000000000               0.000000000               0.000000000               0.000000000               0.000000000               0.000000000               0.000000000               0.000000000               0.000000000               0.000000000               0.000000000               0.000000000               0.000000000               0.000000000               0.000000000               0.000000000               0.000000000               0.000000000               0.000000000               0.000000000               0.000000000               0.000000000               0.000000000               0.000000000               0.000000000               0.000000000               0.000000000               0.000000000               0.000000000               0.000000000               0.000000000               0.000000000               0.000000000               0.000000000               0.000000000               0.000000000               0.000000000               0.000000000               0.000000000               0.000000000               0.000000000               0.000000000               0.000000000               0.000000000               0.000000000               0.000000000               0.000000000               0.000000000               0.000000000               0.000000000               0.000000000               0.000000000               0.000000000               0.000000000               0.000000000               0.000000000               0.000000000               0.000000000               0.000000000               0.000000000               0.000000000               0.000000000               0.000000000               0.000000000               0.000000000               0.000000000               0.000000000               0.000000000               0.000000000               0.000000000               0.000000000               0.000000000               0.000000000               0.000000000               0.000000000               0.000000000               0.000000000               0.000000000               0.000000000               0.000000000               0.000000000               0.000000000               0.000000000               0.000000000               0.000000000               0.000000000               0.000000000               0.000000000               0.000000000               0.000000000               0.000000000               0.000000000               0.000000000               0.000000000               0.000000000               0.000000000               0.000000000               0.000000000               0.000000000               0.000000000               0.000000000               0.000000000               0.000000000               0.000000000               0.000000000               0.000000000               0.000000000               0.000000000               0.000000000               0.000000000               0.000000000               0.000000000               0.000000000               0.000000000               0.000000000               0.000000000               0.000000000               0.000000000               0.000000000               0.000000000               0.000000000               0.000000000               0.000000000               0.000000000               0.000000000               0.000000000               0.000000000               0.000000000               0.000000000               0.000000000               0.000000000               0.000000000               0.000000000               0.000000000               0.000000000               0.000000000               0.000000000               0.000000000               0.000000000               0.000000000               0.000000000               0.000000000               0.000000000               0.000000000               0.000000000               0.000000000               0.000000000               0.000000000               0.000000000               0.000000000               0.000000000               0.000000000               0.000000000               0.000000000               0.000000000               0.000000000               0.000000000               0.000000000               0.000000000               0.000000000               0.000000000               0.000000000               0.000000000               0.000000000               0.000000000               0.000000000               0.000000000               0.000000000               0.000000000               0.000000000               0.000000000               0.000000000               0.000000000               0.000000000               0.000000000               0.000000000               0.000000000               0.000000000               0.000000000               0.000000000               0.000000000               0.000000000               0.000000000               0.000000000               0.000000000               0.000000000               0.000000000               0.000000000               0.000000000               0.000000000               0.000000000               0.000000000               0.000000000               0.000000000               0.000000000               0.000000000               0.000000000               0.000000000               0.000000000               0.000000000               0.000000000               0.000000000               0.000000000               0.000000000               0.000000000               0.000000000               0.000000000               0.000000000               0.000000000               0.000000000               0.000000000               0.000000000               0.000000000               0.000000000               0.000000000               0.000000000               0.000000000               0.000000000               0.000000000               0.000000000               0.000000000               0.000000000               0.000000000               0.000000000               0.000000000               0.000000000               0.000000000               0.000000000               0.000000000               0.000000000               0.000000000               0.000000000               0.000000000               0.000000000               0.000000000               0.000000000               0.000000000               0.000000000               0.000000000               0.000000000               0.000000000               0.000000000               0.000000000               0.000000000               0.000000000               0.000000000               0.000000000               0.001988560               0.020268384               0.001363395              -0.001787834               0.007352005               0.005564171               0.000000000               0.000000000               0.000000000               0.000000000               0.001779283               0.015583856               0.000604962              -0.001280748               0.005621483               0.004340735               0.000000000               0.000000000               0.000000000               0.000000000               0.002166541               0.011806855              -0.000139420              -0.000663402               0.004156713               0.003493311               0.000000000               0.000000000               0.000000000               0.000000000               0.001920321               0.009652782              -0.000441439              -0.000486476               0.003379720               0.002893244               0.000000000               0.000000000               0.000000000               0.000000000               0.001527136               0.008270494              -0.000553330              -0.000461135               0.002910515               0.002449381               0.000000000               0.000000000               0.000000000               0.000000000               0.001147896               0.007288630              -0.000583475              -0.000480617               0.002589725               0.002109108               0.000000000               0.000000000               0.000000000               0.000000000               0.000828670               0.006526967              -0.000577004              -0.000505118               0.002344007               0.001838888               0.000000000               0.000000000               0.000000000               0.000000000               0.000571574               0.005885972              -0.000549797              -0.000521405               0.002135773               0.001614367               0.000000000               0.000000000               0.000000000               0.000000000               0.000366385               0.005308640              -0.000516682              -0.000526184               0.001944924               0.001418739               0.000000000               0.000000000               0.000000000               0.000000000               0.000197300               0.004764195              -0.000483209              -0.000521536               0.001761894               0.001240359               0.000000000               0.000000000               0.000000000               0.000000000               0.000063613               0.004233129              -0.000447797              -0.000505285               0.001579457               0.001074172               0.000000000               0.000000000               0.000000000               0.000000000              -0.000035164               0.003699403              -0.000410787              -0.000475611               0.001391659               0.000916048               0.000000000               0.000000000               0.000000000               0.000000000              -0.000099883               0.003154145              -0.000368872              -0.000431723               0.001195279               0.000763555               0.000000000               0.000000000               0.000000000               0.000000000              -0.000129471               0.002585853              -0.000315155              -0.000371782               0.000985870               0.000614087               0.000000000               0.000000000               0.000000000               0.000000000              -0.000125549               0.001977033              -0.000242656              -0.000294209               0.000757074               0.000462865               0.000000000               0.000000000               0.000000000               0.000000000              -0.000080097               0.001314655              -0.000139590              -0.000194368               0.000503003               0.000308635               0.000000000               0.000000000               0.000000000               0.000000000              -0.000099284               0.000820175              -0.000089935              -0.000139753               0.000319973               0.000180220               0.000000000               0.000000000               0.000000000               0.000000000               0.002105245               0.018981994               0.002522078              -0.001583279               0.006855028               0.005271748               0.000000000               0.000000000               0.000000000               0.000000000               0.001585126               0.014782945               0.001120268              -0.001253443               0.005345413               0.004091970               0.000000000               0.000000000               0.000000000               0.000000000               0.001639366               0.011493449              -0.000241339              -0.000821917               0.004105084               0.003283167               0.000000000               0.000000000               0.000000000               0.000000000               0.001279470               0.009582036              -0.000772318              -0.000717952               0.003433297               0.002715346               0.000000000               0.000000000               0.000000000               0.000000000               0.000876122               0.008318952              -0.000963231              -0.000711322               0.003010063               0.002298742               0.000000000               0.000000000               0.000000000               0.000000000               0.000533614               0.007390332              -0.001010087              -0.000723685               0.002704647               0.001980963               0.000000000               0.000000000               0.000000000               0.000000000               0.000264813               0.006644258              -0.000993538              -0.000731226               0.002458472               0.001727247               0.000000000               0.000000000               0.000000000               0.000000000               0.000063149               0.006004720              -0.000944127              -0.000726908               0.002243856               0.001516948               0.000000000               0.000000000               0.000000000               0.000000000              -0.000080382               0.005428504              -0.000884879              -0.000708705               0.002045718               0.001337013               0.000000000               0.000000000               0.000000000               0.000000000              -0.000185951               0.004888743              -0.000825100              -0.000680823               0.001856505               0.001175682               0.000000000               0.000000000               0.000000000               0.000000000              -0.000254859               0.004364658              -0.000760265              -0.000641153               0.001668589               0.001027436               0.000000000               0.000000000               0.000000000               0.000000000              -0.000286898               0.003846568              -0.000691097              -0.000588407               0.001478312               0.000889905               0.000000000               0.000000000               0.000000000               0.000000000              -0.000290635               0.003327168              -0.000615089              -0.000524883               0.001284006               0.000759123               0.000000000               0.000000000               0.000000000               0.000000000              -0.000259557               0.002803255              -0.000517581              -0.000447740               0.001083655               0.000635916               0.000000000               0.000000000               0.000000000               0.000000000              -0.000195799               0.002267481              -0.000389148              -0.000356859               0.000874772               0.000517913               0.000000000               0.000000000               0.000000000               0.000000000              -0.000107476               0.001723566              -0.000217985              -0.000255749               0.000659766               0.000404017               0.000000000               0.000000000               0.000000000               0.000000000              -0.000099315               0.001344589              -0.000135348              -0.000205316               0.000516630               0.000311314               0.000000000               0.000000000               0.000000000               0.000000000               0.002195242               0.017038596               0.003323533              -0.001306608               0.006115010               0.004808403               0.000000000               0.000000000               0.000000000               0.000000000               0.001239894               0.013583936               0.001481339              -0.001233030               0.004938943               0.003705914               0.000000000               0.000000000               0.000000000               0.000000000               0.000830762               0.011019439              -0.000284472              -0.001065892               0.004028407               0.002962515               0.000000000               0.000000000               0.000000000               0.000000000               0.000347503               0.009451112              -0.000935052              -0.001051073               0.003500697               0.002449624               0.000000000               0.000000000               0.000000000               0.000000000              -0.000035802               0.008345647              -0.001153590              -0.001056630               0.003134064               0.002077435               0.000000000               0.000000000               0.000000000               0.000000000              -0.000305700               0.007485337              -0.001197687              -0.001050303               0.002845188               0.001794885               0.000000000               0.000000000               0.000000000               0.000000000              -0.000486814               0.006768936              -0.001167683              -0.001028670               0.002599179               0.001570509               0.000000000               0.000000000               0.000000000               0.000000000              -0.000597987               0.006140790              -0.001101278              -0.000991842               0.002377523               0.001385682               0.000000000               0.000000000               0.000000000               0.000000000              -0.000645732               0.005571546              -0.001026961              -0.000938591               0.002170027               0.001231436               0.000000000               0.000000000               0.000000000               0.000000000              -0.000648195               0.005042510              -0.000952104              -0.000873385               0.001971948               0.001098563               0.000000000               0.000000000               0.000000000               0.000000000              -0.000620274               0.004536699              -0.000870723              -0.000799688               0.001778780               0.000979092               0.000000000               0.000000000               0.000000000               0.000000000              -0.000564335               0.004048814              -0.000784340              -0.000717726               0.001588833               0.000871107               0.000000000               0.000000000               0.000000000               0.000000000              -0.000480179               0.003576692              -0.000688658              -0.000627152               0.001401269               0.000774117               0.000000000               0.000000000               0.000000000               0.000000000              -0.000369390               0.003120937              -0.000568239              -0.000528637               0.001216514               0.000687877               0.000000000               0.000000000               0.000000000               0.000000000              -0.000243830               0.002693137              -0.000414262              -0.000428078               0.001040396               0.000612318               0.000000000               0.000000000               0.000000000               0.000000000              -0.000121414               0.002311708              -0.000225696              -0.000334493               0.000882059               0.000547566               0.000000000               0.000000000               0.000000000               0.000000000              -0.000085981               0.002082907              -0.000134062              -0.000292605               0.000791830               0.000499225               0.000000000               0.000000000               0.000000000               0.000000000               0.002131774               0.014687553               0.003684248              -0.001036529               0.005241311               0.004204782               0.000000000               0.000000000               0.000000000               0.000000000               0.000726887               0.012150491               0.001661742              -0.001246227               0.004465532               0.003219305               0.000000000               0.000000000               0.000000000               0.000000000              -0.000157295               0.010441247              -0.000246197              -0.001364138               0.003935094               0.002570956               0.000000000               0.000000000               0.000000000               0.000000000              -0.000713327               0.009243350              -0.000901258              -0.001422913               0.003555390               0.002132477               0.000000000               0.000000000               0.000000000               0.000000000              -0.001023754               0.008300367              -0.001103514              -0.001421450               0.003240578               0.001819128               0.000000000               0.000000000               0.000000000               0.000000000              -0.001178885               0.007515359              -0.001133899              -0.001381499               0.002965594               0.001584096               0.000000000               0.000000000               0.000000000               0.000000000              -0.001236666               0.006838768              -0.001094354              -0.001318593               0.002719097               0.001400504               0.000000000               0.000000000               0.000000000               0.000000000              -0.001222358               0.006233999              -0.001021809              -0.001237631               0.002490522               0.001252891               0.000000000               0.000000000               0.000000000               0.000000000              -0.001149158               0.005682994              -0.000945541              -0.001141306               0.002274747               0.001133441               0.000000000               0.000000000               0.000000000               0.000000000              -0.001033914               0.005173759              -0.000871624              -0.001034435               0.002069381               0.001034945               0.000000000               0.000000000               0.000000000               0.000000000              -0.000893387               0.004695942              -0.000789240              -0.000922011               0.001872635               0.000950624               0.000000000               0.000000000               0.000000000               0.000000000              -0.000732934               0.004248819              -0.000699956              -0.000805951               0.001684909               0.000878958               0.000000000               0.000000000               0.000000000               0.000000000              -0.000556643               0.003834088              -0.000598162              -0.000688001               0.001507350               0.000819349               0.000000000               0.000000000               0.000000000               0.000000000              -0.000377640               0.003461918              -0.000473919              -0.000574354               0.001345412               0.000771059               0.000000000               0.000000000               0.000000000               0.000000000              -0.000217161               0.003153081              -0.000326352              -0.000475569               0.001209540               0.000733970               0.000000000               0.000000000               0.000000000               0.000000000              -0.000095172               0.002932283              -0.000166221              -0.000402224               0.001111493               0.000709269               0.000000000               0.000000000               0.000000000               0.000000000              -0.000052193               0.002834223              -0.000089783              -0.000373849               0.001069348               0.000695499               0.000000000               0.000000000               0.000000000               0.000000000               0.001794437               0.012164937               0.003621896              -0.000847704               0.004337506               0.003489802               0.000000000               0.000000000               0.000000000               0.000000000               0.000047223               0.010637328               0.001694543              -0.001311955               0.003983059               0.002671103               0.000000000               0.000000000               0.000000000               0.000000000              -0.001207766               0.009809573              -0.000099734              -0.001679105               0.003829527               0.002150422               0.000000000               0.000000000               0.000000000               0.000000000              -0.001735491               0.008953581              -0.000673789              -0.001770002               0.003574498               0.001804496               0.000000000               0.000000000               0.000000000               0.000000000              -0.001909703               0.008156730              -0.000837963              -0.001735726               0.003297458               0.001561732               0.000000000               0.000000000               0.000000000               0.000000000              -0.001914774               0.007443916              -0.000860957              -0.001648526               0.003030789               0.001382263               0.000000000               0.000000000               0.000000000               0.000000000              -0.001824921               0.006813359              -0.000827293              -0.001536011               0.002783101               0.001247089               0.000000000               0.000000000               0.000000000               0.000000000              -0.001667434               0.006244254              -0.000765109              -0.001405816               0.002550002               0.001144186               0.000000000               0.000000000               0.000000000               0.000000000              -0.001462285               0.005723802              -0.000702966              -0.001263829               0.002329191               0.001065362               0.000000000               0.000000000               0.000000000               0.000000000              -0.001234253               0.005241202              -0.000643840              -0.001117992               0.002119714               0.001001722               0.000000000               0.000000000               0.000000000               0.000000000              -0.000995079               0.004797170              -0.000574735              -0.000972799               0.001923307               0.000950508               0.000000000               0.000000000               0.000000000               0.000000000              -0.000750624               0.004397462              -0.000494342              -0.000831165               0.001742861               0.000911696               0.000000000               0.000000000               0.000000000               0.000000000              -0.000513625               0.004048062              -0.000399533              -0.000698616               0.001582212               0.000883597               0.000000000               0.000000000               0.000000000               0.000000000              -0.000306585               0.003761274              -0.000291362              -0.000585127               0.001448788               0.000863661               0.000000000               0.000000000               0.000000000               0.000000000              -0.000148951               0.003557014              -0.000179637              -0.000500482               0.001352487               0.000852005               0.000000000               0.000000000               0.000000000               0.000000000              -0.000051040               0.003445944              -0.000080346              -0.000449882               0.001298597               0.000848715               0.000000000               0.000000000               0.000000000               0.000000000              -0.000017977               0.003416629              -0.000036120              -0.000433819               0.001283471               0.000849652               0.000000000               0.000000000               0.000000000               0.000000000               0.001127816               0.009674296               0.003218760              -0.000786357               0.003486851               0.002700494               0.000000000               0.000000000               0.000000000               0.000000000              -0.000760705               0.009171031               0.001631144              -0.001431641               0.003534193               0.002102552               0.000000000               0.000000000               0.000000000               0.000000000              -0.002207375               0.009154239               0.000158903              -0.001972040               0.003708729               0.001736689               0.000000000               0.000000000               0.000000000               0.000000000              -0.002601412               0.008578412              -0.000291558              -0.002047826               0.003542051               0.001494225               0.000000000               0.000000000               0.000000000               0.000000000              -0.002584023               0.007907575              -0.000427580              -0.001957451               0.003288315               0.001330865               0.000000000               0.000000000               0.000000000               0.000000000              -0.002413682               0.007269081              -0.000463879              -0.001813762               0.003027590               0.001213828               0.000000000               0.000000000               0.000000000               0.000000000              -0.002170030               0.006689999              -0.000458715              -0.001650007               0.002779980               0.001129972               0.000000000               0.000000000               0.000000000               0.000000000              -0.001873874               0.006161170              -0.000427544              -0.001472845               0.002544651               0.001071806               0.000000000               0.000000000               0.000000000               0.000000000              -0.001550773               0.005676708              -0.000391835              -0.001291125               0.002322592               0.001031467               0.000000000               0.000000000               0.000000000               0.000000000              -0.001230841               0.005232649              -0.000357449              -0.001115644               0.002116080               0.001000437               0.000000000               0.000000000               0.000000000               0.000000000              -0.000919141               0.004834753              -0.000314215              -0.000949020               0.001927908               0.000978888               0.000000000               0.000000000               0.000000000               0.000000000              -0.000627795               0.004495923              -0.000259638              -0.000797412               0.001764430               0.000967018               0.000000000               0.000000000               0.000000000               0.000000000              -0.000377426               0.004227657              -0.000191140              -0.000669990               0.001632535               0.000962545               0.000000000               0.000000000               0.000000000               0.000000000              -0.000187431               0.004038749              -0.000119528              -0.000575129               0.001537946               0.000962817               0.000000000               0.000000000               0.000000000               0.000000000              -0.000063837               0.003932540              -0.000058184              -0.000515505               0.001482668               0.000967163               0.000000000               0.000000000               0.000000000               0.000000000              -0.000007234               0.003895710              -0.000017589              -0.000489675               0.001461782               0.000972107               0.000000000               0.000000000               0.000000000               0.000000000               0.000006306               0.003902716              -0.000001886              -0.000485474               0.001462717               0.000977243               0.000000000               0.000000000               0.000000000               0.000000000               0.000166692               0.007381871               0.002563216              -0.000860224               0.002747340               0.001887116               0.000000000               0.000000000               0.000000000               0.000000000              -0.001654100               0.007837544               0.001516421              -0.001599977               0.003145814               0.001545837               0.000000000               0.000000000               0.000000000               0.000000000              -0.003062635               0.008474139               0.000519956              -0.002207750               0.003560601               0.001352851               0.000000000               0.000000000               0.000000000               0.000000000              -0.003226003               0.008116556               0.000181487              -0.002224315               0.003446930               0.001222615               0.000000000               0.000000000               0.000000000               0.000000000              -0.002994325               0.007563180               0.000041333              -0.002068264               0.003210456               0.001142192               0.000000000               0.000000000               0.000000000               0.000000000              -0.002649439               0.007003470              -0.000031347              -0.001868969               0.002957456               0.001088488               0.000000000               0.000000000               0.000000000               0.000000000              -0.002258990               0.006480812              -0.000071972              -0.001657219               0.002712655               0.001055437               0.000000000               0.000000000               0.000000000               0.000000000              -0.001846010               0.005993508              -0.000086561              -0.001441439               0.002478296               0.001036857               0.000000000               0.000000000               0.000000000               0.000000000              -0.001433427               0.005554438              -0.000091053              -0.001231837               0.002262073               0.001030236               0.000000000               0.000000000               0.000000000               0.000000000              -0.001045020               0.005163791              -0.000091099              -0.001037354               0.002067031               0.001029677               0.000000000               0.000000000               0.000000000               0.000000000              -0.000691476               0.004830574              -0.000084081              -0.000863123               0.001897883               0.001034760               0.000000000               0.000000000               0.000000000               0.000000000              -0.000391094               0.004571971              -0.000071070              -0.000718155               0.001763360               0.001045205               0.000000000               0.000000000               0.000000000               0.000000000              -0.000162109               0.004401621              -0.000048203              -0.000610992               0.001670856               0.001059864               0.000000000               0.000000000               0.000000000               0.000000000              -0.000015468               0.004319598              -0.000021928              -0.000545749               0.001621768               0.001076019               0.000000000               0.000000000               0.000000000               0.000000000               0.000049231               0.004308915              -0.000000647              -0.000520152               0.001609675               0.001089523               0.000000000               0.000000000               0.000000000               0.000000000               0.000046673               0.004349182               0.000006781              -0.000526144               0.001625094               0.001098950               0.000000000               0.000000000               0.000000000               0.000000000               0.000031333               0.004394396               0.000009071              -0.000537548               0.001643967               0.001106418               0.000000000               0.000000000               0.000000000               0.000000000              -0.000967538               0.005450294               0.001766556              -0.001044112               0.002164783               0.001120671               0.000000000               0.000000000               0.000000000               0.000000000              -0.002526846               0.006644038               0.001392915              -0.001778068               0.002807346               0.001029278               0.000000000               0.000000000               0.000000000               0.000000000              -0.003733957               0.007792188               0.000955410              -0.002374252               0.003388787               0.001014536               0.000000000               0.000000000               0.000000000               0.000000000              -0.003647170               0.007667293               0.000689123              -0.002326095               0.003331104               0.001005009               0.000000000               0.000000000               0.000000000               0.000000000              -0.003232575               0.007250968               0.000518604              -0.002118582               0.003123159               0.001004578               0.000000000               0.000000000               0.000000000               0.000000000              -0.002745656               0.006788155               0.000395782              -0.001878136               0.002888741               0.001010605               0.000000000               0.000000000               0.000000000               0.000000000              -0.002239203               0.006332155               0.000299986              -0.001631216               0.002654436               0.001023220               0.000000000               0.000000000               0.000000000               0.000000000              -0.001735237               0.005897078               0.000229722              -0.001387845               0.002428288               0.001040443               0.000000000               0.000000000               0.000000000               0.000000000              -0.001257437               0.005501843               0.000178542              -0.001159266               0.002220351               0.001061085               0.000000000               0.000000000               0.000000000               0.000000000              -0.000817931               0.005157600               0.000136181              -0.000951422               0.002036323               0.001084902               0.000000000               0.000000000               0.000000000               0.000000000              -0.000432863               0.004880834               0.000095906              -0.000772426               0.001884404               0.001111978               0.000000000               0.000000000               0.000000000               0.000000000              -0.000132173               0.004683879               0.000057647              -0.000635048               0.001772960               0.001137912               0.000000000               0.000000000               0.000000000               0.000000000               0.000070867               0.004572827               0.000028473              -0.000545027               0.001705936               0.001160909               0.000000000               0.000000000               0.000000000               0.000000000               0.000184614               0.004548582               0.000010175              -0.000499341               0.001682626               0.001183285               0.000000000               0.000000000               0.000000000               0.000000000               0.000220190               0.004600989               0.000001502              -0.000492551               0.001697831               0.001205280               0.000000000               0.000000000               0.000000000               0.000000000               0.000202038               0.004702623               0.000000246              -0.000512062               0.001738213               0.001226150               0.000000000               0.000000000               0.000000000               0.000000000               0.000175243               0.004769972               0.000001008              -0.000530529               0.001766818               0.001236289               0.000000000               0.000000000               0.000000000               0.000000000              -0.002276650               0.003665496               0.000932757              -0.001311928               0.001659129               0.000347201               0.000000000               0.000000000               0.000000000               0.000000000              -0.003259036               0.005266796               0.001257030              -0.001880484               0.002382409               0.000501925               0.000000000               0.000000000               0.000000000               0.000000000              -0.004139502               0.006780873               0.001409660              -0.002399917               0.003060240               0.000660324               0.000000000               0.000000000               0.000000000               0.000000000              -0.003919296               0.007002596               0.001229188              -0.002345055               0.003115860               0.000770805               0.000000000               0.000000000               0.000000000               0.000000000              -0.003425284               0.006834430               0.001029479              -0.002138780               0.002991047               0.000852267               0.000000000               0.000000000               0.000000000               0.000000000              -0.002880342               0.006555775               0.000859457              -0.001899596               0.002818435               0.000918839               0.000000000               0.000000000               0.000000000               0.000000000              -0.002340150               0.006243046               0.000711775              -0.001657933               0.002633639               0.000975706               0.000000000               0.000000000               0.000000000               0.000000000              -0.001808717               0.005921087               0.000586664              -0.001418401               0.002446476               0.001028075               0.000000000               0.000000000               0.000000000               0.000000000              -0.001303306               0.005605999               0.000487663              -0.001189487               0.002265143               0.001075656               0.000000000               0.000000000               0.000000000               0.000000000              -0.000838479               0.005324206               0.000398469              -0.000979953               0.002101369               0.001121416               0.000000000               0.000000000               0.000000000               0.000000000              -0.000426863               0.005085702               0.000307419              -0.000795784               0.001960478               0.001164694               0.000000000               0.000000000               0.000000000               0.000000000              -0.000086206               0.004896756               0.000218664              -0.000644420               0.001847042               0.001202622               0.000000000               0.000000000               0.000000000               0.000000000               0.000165430               0.004771153               0.000139702              -0.000534357               0.001768487               0.001234131               0.000000000               0.000000000               0.000000000               0.000000000               0.000330685               0.004730179               0.000072695              -0.000467264               0.001732465               0.001265201               0.000000000               0.000000000               0.000000000               0.000000000               0.000421585               0.004771345               0.000027601              -0.000438323               0.001736540               0.001298217               0.000000000               0.000000000               0.000000000               0.000000000               0.000454885               0.004869601               0.000006554              -0.000438117               0.001769223               0.001331106               0.000000000               0.000000000               0.000000000               0.000000000               0.000451717               0.004931730              -0.000000391              -0.000447071               0.001792917               0.001345846               0.000000000               0.000000000               0.000000000               0.000000000              -0.003936246               0.002059966               0.000124677              -0.001733585               0.001264508              -0.000469076               0.000000000               0.000000000               0.000000000               0.000000000              -0.004087452               0.003877900               0.001067189              -0.002017528               0.001965129              -0.000052399               0.000000000               0.000000000               0.000000000               0.000000000              -0.004470846               0.005585590               0.001776402              -0.002374760               0.002653431               0.000278671               0.000000000               0.000000000               0.000000000               0.000000000              -0.004128165               0.006140827               0.001740711              -0.002315660               0.002818808               0.000503148               0.000000000               0.000000000               0.000000000               0.000000000              -0.003595142               0.006257615               0.001550433              -0.002130375               0.002795976               0.000665600               0.000000000               0.000000000               0.000000000               0.000000000              -0.003020196               0.006195065               0.001351526              -0.001906952               0.002700652               0.000793699               0.000000000               0.000000000               0.000000000               0.000000000              -0.002462139               0.006046290               0.001168458              -0.001679085               0.002575104               0.000896020               0.000000000               0.000000000               0.000000000               0.000000000              -0.001919833               0.005858759               0.001003730              -0.001452279               0.002436993               0.000984714               0.000000000               0.000000000               0.000000000               0.000000000              -0.001399600               0.005654164               0.000858354              -0.001231618               0.002295242               0.001063624               0.000000000               0.000000000               0.000000000               0.000000000              -0.000911112               0.005451479               0.000722630              -0.001023100               0.002158174               0.001135075               0.000000000               0.000000000               0.000000000               0.000000000              -0.000463903               0.005253304               0.000591754              -0.000830625               0.002027959               0.001197334               0.000000000               0.000000000               0.000000000               0.000000000              -0.000062398               0.005072482               0.000464350              -0.000657458               0.001909963               0.001252505               0.000000000               0.000000000               0.000000000               0.000000000               0.000269054               0.004929480               0.000337774              -0.000515289               0.001814906               0.001299618               0.000000000               0.000000000               0.000000000               0.000000000               0.000516054               0.004852587               0.000217293              -0.000413052               0.001755197               0.001342145               0.000000000               0.000000000               0.000000000               0.000000000               0.000676696               0.004848583               0.000114779              -0.000352311               0.001733615               0.001381304               0.000000000               0.000000000               0.000000000               0.000000000               0.000756933               0.004905959               0.000043217              -0.000329394               0.001745101               0.001415707               0.000000000               0.000000000               0.000000000               0.000000000               0.000772516               0.004948832               0.000015475              -0.000328910               0.001759231               0.001430321               0.000000000               0.000000000               0.000000000               0.000000000              -0.005846318               0.000756014              -0.000575594              -0.002286868               0.001014287              -0.001272581               0.000000000               0.000000000               0.000000000               0.000000000              -0.005051980               0.002567752               0.000811887              -0.002215458               0.001594392              -0.000621065               0.000000000               0.000000000               0.000000000               0.000000000              -0.004754818               0.004223332               0.001957420              -0.002310968               0.002178085              -0.000132883               0.000000000               0.000000000               0.000000000               0.000000000              -0.004206516               0.005011784               0.002099082              -0.002203912               0.002405214               0.000201303               0.000000000               0.000000000               0.000000000               0.000000000              -0.003614679               0.005387703               0.001965339              -0.002028963               0.002472203               0.000443240               0.000000000               0.000000000               0.000000000               0.000000000              -0.003024689               0.005545071               0.001773714              -0.001827388               0.002457468               0.000630079               0.000000000               0.000000000               0.000000000               0.000000000              -0.002454847               0.005582983               0.001579735              -0.001618437               0.002400454               0.000782017               0.000000000               0.000000000               0.000000000               0.000000000              -0.001912728               0.005557670               0.001396201              -0.001411979               0.002323197               0.000911219               0.000000000               0.000000000               0.000000000               0.000000000              -0.001395496               0.005489300               0.001226013              -0.001209471               0.002232905               0.001023434               0.000000000               0.000000000               0.000000000               0.000000000              -0.000895920               0.005391411               0.001066158              -0.001009894               0.002133750               0.001123856               0.000000000               0.000000000               0.000000000               0.000000000              -0.000420143               0.005271519               0.000914816              -0.000816492               0.002029319               0.001212827               0.000000000               0.000000000               0.000000000               0.000000000               0.000023291               0.005146317               0.000764002              -0.000634554               0.001926940               0.001292386               0.000000000               0.000000000               0.000000000               0.000000000               0.000421611               0.005029871               0.000603328              -0.000470629               0.001833483               0.001362854               0.000000000               0.000000000               0.000000000               0.000000000               0.000748563               0.004945022               0.000435527              -0.000337416               0.001760796               0.001423380               0.000000000               0.000000000               0.000000000               0.000000000               0.000981859               0.004908322               0.000269599              -0.000245342               0.001717872               0.001472529               0.000000000               0.000000000               0.000000000               0.000000000               0.001114244               0.004934976               0.000122152              -0.000199030               0.001711319               0.001512289               0.000000000               0.000000000               0.000000000               0.000000000               0.001142784               0.004959869               0.000052339              -0.000191439               0.001717086               0.001525647               0.000000000               0.000000000               0.000000000               0.000000000              -0.007873338              -0.000183751              -0.001061996              -0.002929531               0.000915253              -0.002014277               0.000000000               0.000000000               0.000000000               0.000000000              -0.006096785               0.001404846               0.000536919              -0.002461897               0.001288905              -0.001172992               0.000000000               0.000000000               0.000000000               0.000000000              -0.005003906               0.002805650               0.001925294              -0.002227167               0.001677594              -0.000549574               0.000000000               0.000000000               0.000000000               0.000000000              -0.004176314               0.003704020               0.002220925              -0.002029116               0.001911031              -0.000118085               0.000000000               0.000000000               0.000000000               0.000000000              -0.003483079               0.004278181               0.002168713              -0.001840924               0.002039686               0.000198763               0.000000000               0.000000000               0.000000000               0.000000000              -0.002869491               0.004637667               0.002015077              -0.001655764               0.002097794               0.000442030               0.000000000               0.000000000               0.000000000               0.000000000              -0.002303012               0.004866232               0.001834955              -0.001471906               0.002112696               0.000640790               0.000000000               0.000000000               0.000000000               0.000000000              -0.001766390               0.005008798               0.001655087              -0.001288493               0.002099080               0.000810586               0.000000000               0.000000000               0.000000000               0.000000000              -0.001254694               0.005084843               0.001487239              -0.001106114               0.002063635               0.000957521               0.000000000               0.000000000               0.000000000               0.000000000              -0.000754262               0.005114820               0.001330942              -0.000922199               0.002012322               0.001090123               0.000000000               0.000000000               0.000000000               0.000000000              -0.000262570               0.005108277               0.001180066              -0.000736997               0.001948408               0.001211410               0.000000000               0.000000000               0.000000000               0.000000000               0.000213434               0.005076188               0.001027859              -0.000554485               0.001876874               0.001322389               0.000000000               0.000000000               0.000000000               0.000000000               0.000665311               0.005030174               0.000857890              -0.000379279               0.001803134               0.001423855               0.000000000               0.000000000               0.000000000               0.000000000               0.001069615               0.004982040               0.000661004              -0.000221649               0.001734546               0.001512897               0.000000000               0.000000000               0.000000000               0.000000000               0.001399218               0.004952012               0.000446527              -0.000094295               0.001682086               0.001587791               0.000000000               0.000000000               0.000000000               0.000000000               0.001629553               0.004962780               0.000223970              -0.000009266               0.001657332               0.001648066               0.000000000               0.000000000               0.000000000               0.000000000               0.001717879               0.004978600               0.000112496               0.000021879               0.001652224               0.001674103               0.000000000               0.000000000               0.000000000               0.000000000              -0.009812896              -0.000766278              -0.001247178              -0.003584049               0.000939250              -0.002644799               0.000000000               0.000000000               0.000000000               0.000000000              -0.007123369               0.000458329               0.000293621              -0.002728552               0.001062286              -0.001666266               0.000000000               0.000000000               0.000000000               0.000000000              -0.005225734               0.001473947               0.001677450              -0.002143891               0.001205937              -0.000937954               0.000000000               0.000000000               0.000000000               0.000000000              -0.004078789               0.002369062               0.002053033              -0.001825676               0.001398235              -0.000427440               0.000000000               0.000000000               0.000000000               0.000000000              -0.003250976               0.003065939               0.002076266              -0.001602355               0.001556086              -0.000046269               0.000000000               0.000000000               0.000000000               0.000000000              -0.002587693               0.003591035               0.001972509              -0.001419262               0.001670086               0.000250824               0.000000000               0.000000000               0.000000000               0.000000000              -0.002017134               0.003985417               0.001826080              -0.001254600               0.001746658               0.000492058               0.000000000               0.000000000               0.000000000               0.000000000              -0.001489639               0.004277225               0.001672998              -0.001093266               0.001790149               0.000696883               0.000000000               0.000000000               0.000000000               0.000000000              -0.000982819               0.004495637               0.001528426              -0.000930510               0.001808700               0.000878190               0.000000000               0.000000000               0.000000000               0.000000000              -0.000485598               0.004658274               0.001395826              -0.000764382               0.001807536               0.001043154               0.000000000               0.000000000               0.000000000               0.000000000               0.000012546               0.004772035               0.001269384              -0.000591799               0.001787929               0.001196129               0.000000000               0.000000000               0.000000000               0.000000000               0.000514862               0.004850597               0.001138375              -0.000413251               0.001754600               0.001341348               0.000000000               0.000000000               0.000000000               0.000000000               0.001010936               0.004901490               0.000982181              -0.000233585               0.001711675               0.001478090               0.000000000               0.000000000               0.000000000               0.000000000               0.001491233               0.004930085               0.000789458              -0.000057049               0.001662362               0.001605313               0.000000000               0.000000000               0.000000000               0.000000000               0.001938762               0.004950179               0.000561809               0.000108262               0.001613956               0.001722218               0.000000000               0.000000000               0.000000000               0.000000000               0.002328871               0.004976601               0.000298460               0.000251249               0.001575101               0.001826350               0.000000000               0.000000000               0.000000000               0.000000000               0.002548497               0.005008559               0.000166771               0.000329613               0.001559632               0.001889245               0.000000000               0.000000000               0.000000000               0.000000000              -0.011440093              -0.001064430              -0.001089961              -0.004156978               0.001030842              -0.003126136               0.000000000               0.000000000               0.000000000               0.000000000              -0.008004470              -0.000226302               0.000121257              -0.002973386               0.000915688              -0.002057698               0.000000000               0.000000000               0.000000000               0.000000000              -0.005409275               0.000382026               0.001236298              -0.002076230               0.000819412              -0.001256817               0.000000000               0.000000000               0.000000000               0.000000000              -0.003952947               0.001200867               0.001584796              -0.001632462               0.000944436              -0.000688026               0.000000000               0.000000000               0.000000000               0.000000000              -0.002990642               0.001951185               0.001644905              -0.001365387               0.001105516              -0.000259871               0.000000000               0.000000000               0.000000000               0.000000000              -0.002270322               0.002580939               0.001587036              -0.001173986               0.001251632               0.000077646               0.000000000               0.000000000               0.000000000               0.000000000              -0.001677880               0.003097055               0.001485766              -0.001016335               0.001371119               0.000354784               0.000000000               0.000000000               0.000000000               0.000000000              -0.001150250               0.003512824               0.001376474              -0.000870445               0.001461078               0.000590632               0.000000000               0.000000000               0.000000000               0.000000000              -0.000648126               0.003852405               0.001270594              -0.000724597               0.001525654               0.000801057               0.000000000               0.000000000               0.000000000               0.000000000              -0.000153151               0.004131036               0.001175628              -0.000573810               0.001568268               0.000994458               0.000000000               0.000000000               0.000000000               0.000000000               0.000346637               0.004358201               0.001088305              -0.000414786               0.001590981               0.001176195               0.000000000               0.000000000               0.000000000               0.000000000               0.000859443               0.004547666               0.000994581              -0.000246167               0.001597929               0.001351762               0.000000000               0.000000000               0.000000000               0.000000000               0.001390666               0.004703357               0.000876990              -0.000066421               0.001589910               0.001523490               0.000000000               0.000000000               0.000000000               0.000000000               0.001944039               0.004824679               0.000724339               0.000125928               0.001566234               0.001692162               0.000000000               0.000000000               0.000000000               0.000000000               0.002517071               0.004910560               0.000532523               0.000330078               0.001526811               0.001856889               0.000000000               0.000000000               0.000000000               0.000000000               0.003098769               0.004966246               0.000291779               0.000541252               0.001474981               0.002016233               0.000000000               0.000000000               0.000000000               0.000000000               0.003494239               0.005026153               0.000171620               0.000682064               0.001448013               0.002130077               0.000000000               0.000000000               0.000000000               0.000000000              -0.012534210              -0.001184668              -0.000631674              -0.004552242               0.001122517              -0.003429725               0.000000000               0.000000000               0.000000000               0.000000000              -0.008609912              -0.000636397               0.000033823              -0.003149165               0.000837584              -0.002311581               0.000000000               0.000000000               0.000000000               0.000000000              -0.005533279              -0.000336836               0.000654920              -0.002032874               0.000565342              -0.001467532               0.000000000               0.000000000               0.000000000               0.000000000              -0.003846172               0.000392673               0.000863457              -0.001491397               0.000628019              -0.000863378               0.000000000               0.000000000               0.000000000               0.000000000              -0.002784013               0.001154000               0.000910643              -0.001188253               0.000780745              -0.000407508               0.000000000               0.000000000               0.000000000               0.000000000              -0.002022852               0.001841049               0.000886840              -0.000988699               0.000943242              -0.000045456               0.000000000               0.000000000               0.000000000               0.000000000              -0.001407719               0.002430326               0.000834652              -0.000831684               0.001087328               0.000255644               0.000000000               0.000000000               0.000000000               0.000000000              -0.000869413               0.002924081               0.000776638              -0.000691539               0.001205197               0.000513658               0.000000000               0.000000000               0.000000000               0.000000000              -0.000364329               0.003344656               0.000720962              -0.000554704               0.001299775               0.000745071               0.000000000               0.000000000               0.000000000               0.000000000               0.000131080               0.003708608               0.000672700              -0.000414420               0.001374330               0.000959910               0.000000000               0.000000000               0.000000000               0.000000000               0.000628597               0.004025135               0.000629159              -0.000267418               0.001430837               0.001163420               0.000000000               0.000000000               0.000000000               0.000000000               0.001143013               0.004301529               0.000582011              -0.000109061               0.001470182               0.001361121               0.000000000               0.000000000               0.000000000               0.000000000               0.001692824               0.004537175               0.000520853               0.000067661               0.001489823               0.001557484               0.000000000               0.000000000               0.000000000               0.000000000               0.002298035               0.004730057               0.000439073               0.000270503               0.001486502               0.001757005               0.000000000               0.000000000               0.000000000               0.000000000               0.002972938               0.004870302               0.000329327               0.000506059               0.001454732               0.001960790               0.000000000               0.000000000               0.000000000               0.000000000               0.003727705               0.004951910               0.000182892               0.000778893               0.001390989               0.002169882               0.000000000               0.000000000               0.000000000               0.000000000               0.004290808               0.005036422               0.000110852               0.000979491               0.001352294               0.002331784               0.000000000               0.000000000               0.000000000               0.000000000               0.000000000               0.000000000               0.000000000               0.000000000               0.000000000               0.000000000               0.000000000               0.000000000               0.000000000               0.000000000               0.000000000               0.000000000               0.000000000               0.000000000               0.000000000               0.000000000               0.000000000               0.000000000               0.000000000               0.000000000               0.000000000               0.000000000               0.000000000               0.000000000               0.000000000               0.000000000               0.000000000               0.000000000               0.000000000               0.000000000               0.000000000               0.000000000               0.000000000               0.000000000               0.000000000               0.000000000               0.000000000               0.000000000               0.000000000               0.000000000               0.000000000               0.000000000               0.000000000               0.000000000               0.000000000               0.000000000               0.000000000               0.000000000               0.000000000               0.000000000               0.000000000               0.000000000               0.000000000               0.000000000               0.000000000               0.000000000               0.000000000               0.000000000               0.000000000               0.000000000               0.000000000               0.000000000               0.000000000               0.000000000               0.000000000               0.000000000               0.000000000               0.000000000               0.000000000               0.000000000               0.000000000               0.000000000               0.000000000               0.000000000               0.000000000               0.000000000               0.000000000               0.000000000               0.000000000               0.000000000               0.000000000               0.000000000               0.000000000               0.000000000               0.000000000               0.000000000               0.000000000               0.000000000               0.000000000               0.000000000               0.000000000               0.000000000               0.000000000               0.000000000               0.000000000               0.000000000               0.000000000               0.000000000               0.000000000               0.000000000               0.000000000               0.000000000               0.000000000               0.000000000               0.000000000               0.000000000               0.000000000               0.000000000               0.000000000               0.000000000               0.000000000               0.000000000               0.000000000               0.000000000               0.000000000               0.000000000               0.000000000               0.000000000               0.000000000               0.000000000               0.000000000               0.000000000               0.000000000               0.000000000               0.000000000               0.000000000               0.000000000               0.000000000               0.000000000               0.000000000               0.000000000               0.000000000               0.000000000               0.000000000               0.000000000               0.000000000               0.000000000               0.000000000               0.000000000               0.000000000               0.000000000               0.000000000               0.000000000               0.000000000               0.000000000               0.000000000               0.000000000               0.000000000               0.000000000               0.000000000               0.000000000               0.000000000               0.000000000               0.000000000               0.000000000               0.000000000               0.000000000               0.000000000               0.000000000               0.000000000               0.000000000               0.000000000               0.000000000               0.000000000               0.000000000               0.000000000               0.000000000               0.000000000               0.000000000               0.000000000 </DataArray>
</PointData>
</Piece>
</UnstructuredGrid> </VTKFile>
