<?xml version="1.0"?>
<VTKFile type="UnstructuredGrid" version="0.1">
<UnstructuredGrid>
<Piece NumberOfPoints="      1156" NumberOfCells="      1024">
<Points>
<DataArray type="Float64"                                    Name="coordinates"                                                      NumberOfComponents=" 3" format="ascii">
              0.133000000               0.000000000               0.000000000               0.155937500               0.000000000               0.000000000               0.178875000               0.000000000               0.000000000               0.201812500               0.000000000               0.000000000               0.224750000               0.000000000               0.000000000               0.247687500               0.000000000               0.000000000               0.270625000               0.000000000               0.000000000               0.293562500               0.000000000               0.000000000               0.316500000               0.000000000               0.000000000               0.339437500               0.000000000               0.000000000               0.362375000               0.000000000               0.000000000               0.385312500               0.000000000               0.000000000               0.408250000               0.000000000               0.000000000               0.431187500               0.000000000               0.000000000               0.454125000               0.000000000               0.000000000               0.477062500               0.000000000               0.000000000               0.500000000               0.000000000               0.000000000               0.132359569               0.013036280               0.000000000               0.155337096               0.016127762               0.000000000               0.178314623               0.019219245               0.000000000               0.201292150               0.022310727               0.000000000               0.224269676               0.025402210               0.000000000               0.247247203               0.028493692               0.000000000               0.270224730               0.031585175               0.000000000               0.293202257               0.034676657               0.000000000               0.316179784               0.037768140               0.000000000               0.339157311               0.040859622               0.000000000               0.362134838               0.043951105               0.000000000               0.385112365               0.047042587               0.000000000               0.408089892               0.050134070               0.000000000               0.431067419               0.053225552               0.000000000               0.454044946               0.056317035               0.000000000               0.477022473               0.059408517               0.000000000               0.500000000               0.062500000               0.000000000               0.130444442               0.025947013               0.000000000               0.153541665               0.032137825               0.000000000               0.176638887               0.038328636               0.000000000               0.199736109               0.044519448               0.000000000               0.222833332               0.050710260               0.000000000               0.245930554               0.056901071               0.000000000               0.269027776               0.063091883               0.000000000               0.292124999               0.069282695               0.000000000               0.315222221               0.075473506               0.000000000               0.338319444               0.081664318               0.000000000               0.361416666               0.087855130               0.000000000               0.384513888               0.094045942               0.000000000               0.407611111               0.100236753               0.000000000               0.430708333               0.106427565               0.000000000               0.453805555               0.112618377               0.000000000               0.476902778               0.118809188               0.000000000               0.500000000               0.125000000               0.000000000               0.127273065               0.038607862               0.000000000               0.150568498               0.047913621               0.000000000               0.173863932               0.057219379               0.000000000               0.197159365               0.066525138               0.000000000               0.220454798               0.075830897               0.000000000               0.243750232               0.085136655               0.000000000               0.267045665               0.094442414               0.000000000               0.290341099               0.103748172               0.000000000               0.313636532               0.113053931               0.000000000               0.336931966               0.122359690               0.000000000               0.360227399               0.131665448               0.000000000               0.383522833               0.140971207               0.000000000               0.406818266               0.150276966               0.000000000               0.430113700               0.159582724               0.000000000               0.453409133               0.168888483               0.000000000               0.476704567               0.178194241               0.000000000               0.500000000               0.187500000               0.000000000               0.122875978               0.050896897               0.000000000               0.146446229               0.063340840               0.000000000               0.170016481               0.075784784               0.000000000               0.193586732               0.088228728               0.000000000               0.217156983               0.100672672               0.000000000               0.240727235               0.113116616               0.000000000               0.264297486               0.125560560               0.000000000               0.287867738               0.138004504               0.000000000               0.311437989               0.150448448               0.000000000               0.335008240               0.162892392               0.000000000               0.358578492               0.175336336               0.000000000               0.382148743               0.187780280               0.000000000               0.405718994               0.200224224               0.000000000               0.429289246               0.212668168               0.000000000               0.452859497               0.225112112               0.000000000               0.476429749               0.237556056               0.000000000               0.500000000               0.250000000               0.000000000               0.117295528               0.062695766               0.000000000               0.141214558               0.078308531               0.000000000               0.165133587               0.093921295               0.000000000               0.189052617               0.109534060               0.000000000               0.212971646               0.125146824               0.000000000               0.236890676               0.140759589               0.000000000               0.260809705               0.156372354               0.000000000               0.284728735               0.171985118               0.000000000               0.308647764               0.187597883               0.000000000               0.332566794               0.203210648               0.000000000               0.356485823               0.218823412               0.000000000               0.380404853               0.234436177               0.000000000               0.404323882               0.250048941               0.000000000               0.428242912               0.265661706               0.000000000               0.452161941               0.281274471               0.000000000               0.476080971               0.296887235               0.000000000               0.500000000               0.312500000               0.000000000               0.110585458               0.073890841               0.000000000               0.134923867               0.092710163               0.000000000               0.159262276               0.111529486               0.000000000               0.183600685               0.130348808               0.000000000               0.207939094               0.149168131               0.000000000               0.232277503               0.167987453               0.000000000               0.256615912               0.186806776               0.000000000               0.280954320               0.205626098               0.000000000               0.305292729               0.224445420               0.000000000               0.329631138               0.243264743               0.000000000               0.353969547               0.262084065               0.000000000               0.378307956               0.280903388               0.000000000               0.402646365               0.299722710               0.000000000               0.426984773               0.318542033               0.000000000               0.451323182               0.337361355               0.000000000               0.475661591               0.356180678               0.000000000               0.500000000               0.375000000               0.000000000               0.102810390               0.084374307               0.000000000               0.127634741               0.106444663               0.000000000               0.152459092               0.128515018               0.000000000               0.177283442               0.150585374               0.000000000               0.202107793               0.172655730               0.000000000               0.226932143               0.194726086               0.000000000               0.251756494               0.216796442               0.000000000               0.276580845               0.238866798               0.000000000               0.301405195               0.260937153               0.000000000               0.326229546               0.283007509               0.000000000               0.351053896               0.305077865               0.000000000               0.375878247               0.327148221               0.000000000               0.400702598               0.349218577               0.000000000               0.425526948               0.371288933               0.000000000               0.450351299               0.393359288               0.000000000               0.475175649               0.415429644               0.000000000               0.500000000               0.437500000               0.000000000               0.094045202               0.094045202               0.000000000               0.119417377               0.119417377               0.000000000               0.144789552               0.144789552               0.000000000               0.170161727               0.170161727               0.000000000               0.195533901               0.195533901               0.000000000               0.220906076               0.220906076               0.000000000               0.246278251               0.246278251               0.000000000               0.271650426               0.271650426               0.000000000               0.297022601               0.297022601               0.000000000               0.322394776               0.322394776               0.000000000               0.347766951               0.347766951               0.000000000               0.373139126               0.373139126               0.000000000               0.398511300               0.398511300               0.000000000               0.423883475               0.423883475               0.000000000               0.449255650               0.449255650               0.000000000               0.474627825               0.474627825               0.000000000               0.500000000               0.500000000               0.000000000               0.084374307               0.102810390               0.000000000               0.106444663               0.127634741               0.000000000               0.128515018               0.152459092               0.000000000               0.150585374               0.177283442               0.000000000               0.172655730               0.202107793               0.000000000               0.194726086               0.226932143               0.000000000               0.216796442               0.251756494               0.000000000               0.238866798               0.276580845               0.000000000               0.260937153               0.301405195               0.000000000               0.283007509               0.326229546               0.000000000               0.305077865               0.351053896               0.000000000               0.327148221               0.375878247               0.000000000               0.349218577               0.400702598               0.000000000               0.371288933               0.425526948               0.000000000               0.393359288               0.450351299               0.000000000               0.415429644               0.475175649               0.000000000               0.437500000               0.500000000               0.000000000               0.073890841               0.110585458               0.000000000               0.092710163               0.134923867               0.000000000               0.111529486               0.159262276               0.000000000               0.130348808               0.183600685               0.000000000               0.149168131               0.207939094               0.000000000               0.167987453               0.232277503               0.000000000               0.186806776               0.256615912               0.000000000               0.205626098               0.280954320               0.000000000               0.224445420               0.305292729               0.000000000               0.243264743               0.329631138               0.000000000               0.262084065               0.353969547               0.000000000               0.280903388               0.378307956               0.000000000               0.299722710               0.402646365               0.000000000               0.318542033               0.426984773               0.000000000               0.337361355               0.451323182               0.000000000               0.356180678               0.475661591               0.000000000               0.375000000               0.500000000               0.000000000               0.062695766               0.117295528               0.000000000               0.078308531               0.141214558               0.000000000               0.093921295               0.165133587               0.000000000               0.109534060               0.189052617               0.000000000               0.125146824               0.212971646               0.000000000               0.140759589               0.236890676               0.000000000               0.156372354               0.260809705               0.000000000               0.171985118               0.284728735               0.000000000               0.187597883               0.308647764               0.000000000               0.203210648               0.332566794               0.000000000               0.218823412               0.356485823               0.000000000               0.234436177               0.380404853               0.000000000               0.250048941               0.404323882               0.000000000               0.265661706               0.428242912               0.000000000               0.281274471               0.452161941               0.000000000               0.296887235               0.476080971               0.000000000               0.312500000               0.500000000               0.000000000               0.050896897               0.122875978               0.000000000               0.063340840               0.146446229               0.000000000               0.075784784               0.170016481               0.000000000               0.088228728               0.193586732               0.000000000               0.100672672               0.217156983               0.000000000               0.113116616               0.240727235               0.000000000               0.125560560               0.264297486               0.000000000               0.138004504               0.287867738               0.000000000               0.150448448               0.311437989               0.000000000               0.162892392               0.335008240               0.000000000               0.175336336               0.358578492               0.000000000               0.187780280               0.382148743               0.000000000               0.200224224               0.405718994               0.000000000               0.212668168               0.429289246               0.000000000               0.225112112               0.452859497               0.000000000               0.237556056               0.476429749               0.000000000               0.250000000               0.500000000               0.000000000               0.038607862               0.127273065               0.000000000               0.047913621               0.150568498               0.000000000               0.057219379               0.173863932               0.000000000               0.066525138               0.197159365               0.000000000               0.075830897               0.220454798               0.000000000               0.085136655               0.243750232               0.000000000               0.094442414               0.267045665               0.000000000               0.103748172               0.290341099               0.000000000               0.113053931               0.313636532               0.000000000               0.122359690               0.336931966               0.000000000               0.131665448               0.360227399               0.000000000               0.140971207               0.383522833               0.000000000               0.150276966               0.406818266               0.000000000               0.159582724               0.430113700               0.000000000               0.168888483               0.453409133               0.000000000               0.178194241               0.476704567               0.000000000               0.187500000               0.500000000               0.000000000               0.025947013               0.130444442               0.000000000               0.032137825               0.153541665               0.000000000               0.038328636               0.176638887               0.000000000               0.044519448               0.199736109               0.000000000               0.050710260               0.222833332               0.000000000               0.056901071               0.245930554               0.000000000               0.063091883               0.269027776               0.000000000               0.069282695               0.292124999               0.000000000               0.075473506               0.315222221               0.000000000               0.081664318               0.338319444               0.000000000               0.087855130               0.361416666               0.000000000               0.094045942               0.384513888               0.000000000               0.100236753               0.407611111               0.000000000               0.106427565               0.430708333               0.000000000               0.112618377               0.453805555               0.000000000               0.118809188               0.476902778               0.000000000               0.125000000               0.500000000               0.000000000               0.013036280               0.132359569               0.000000000               0.016127762               0.155337096               0.000000000               0.019219245               0.178314623               0.000000000               0.022310727               0.201292150               0.000000000               0.025402210               0.224269676               0.000000000               0.028493692               0.247247203               0.000000000               0.031585175               0.270224730               0.000000000               0.034676657               0.293202257               0.000000000               0.037768140               0.316179784               0.000000000               0.040859622               0.339157311               0.000000000               0.043951105               0.362134838               0.000000000               0.047042587               0.385112365               0.000000000               0.050134070               0.408089892               0.000000000               0.053225552               0.431067419               0.000000000               0.056317035               0.454044946               0.000000000               0.059408517               0.477022473               0.000000000               0.062500000               0.500000000               0.000000000               0.000000000               0.133000000               0.000000000               0.000000000               0.155937500               0.000000000               0.000000000               0.178875000               0.000000000               0.000000000               0.201812500               0.000000000               0.000000000               0.224750000               0.000000000               0.000000000               0.247687500               0.000000000               0.000000000               0.270625000               0.000000000               0.000000000               0.293562500               0.000000000               0.000000000               0.316500000               0.000000000               0.000000000               0.339437500               0.000000000               0.000000000               0.362375000               0.000000000               0.000000000               0.385312500               0.000000000               0.000000000               0.408250000               0.000000000               0.000000000               0.431187500               0.000000000               0.000000000               0.454125000               0.000000000               0.000000000               0.477062500               0.000000000               0.000000000               0.500000000               0.000000000               0.133000000               0.000000000               0.000000000               0.155937500               0.000000000               0.000000000               0.178875000               0.000000000               0.000000000               0.201812500               0.000000000               0.000000000               0.224750000               0.000000000               0.000000000               0.247687500               0.000000000               0.000000000               0.270625000               0.000000000               0.000000000               0.293562500               0.000000000               0.000000000               0.316500000               0.000000000               0.000000000               0.339437500               0.000000000               0.000000000               0.362375000               0.000000000               0.000000000               0.385312500               0.000000000               0.000000000               0.408250000               0.000000000               0.000000000               0.431187500               0.000000000               0.000000000               0.454125000               0.000000000               0.000000000               0.477062500               0.000000000               0.000000000               0.500000000               0.000000000               0.000000000               0.132359569              -0.013036280               0.000000000               0.155337096              -0.016127762               0.000000000               0.178314623              -0.019219245               0.000000000               0.201292150              -0.022310727               0.000000000               0.224269676              -0.025402210               0.000000000               0.247247203              -0.028493692               0.000000000               0.270224730              -0.031585175               0.000000000               0.293202257              -0.034676657               0.000000000               0.316179784              -0.037768140               0.000000000               0.339157311              -0.040859622               0.000000000               0.362134838              -0.043951105               0.000000000               0.385112365              -0.047042587               0.000000000               0.408089892              -0.050134070               0.000000000               0.431067419              -0.053225552               0.000000000               0.454044946              -0.056317035               0.000000000               0.477022473              -0.059408517               0.000000000               0.500000000              -0.062500000               0.000000000               0.130444442              -0.025947013               0.000000000               0.153541665              -0.032137825               0.000000000               0.176638887              -0.038328636               0.000000000               0.199736109              -0.044519448               0.000000000               0.222833332              -0.050710260               0.000000000               0.245930554              -0.056901071               0.000000000               0.269027776              -0.063091883               0.000000000               0.292124999              -0.069282695               0.000000000               0.315222221              -0.075473506               0.000000000               0.338319444              -0.081664318               0.000000000               0.361416666              -0.087855130               0.000000000               0.384513888              -0.094045942               0.000000000               0.407611111              -0.100236753               0.000000000               0.430708333              -0.106427565               0.000000000               0.453805555              -0.112618377               0.000000000               0.476902778              -0.118809188               0.000000000               0.500000000              -0.125000000               0.000000000               0.127273065              -0.038607862               0.000000000               0.150568498              -0.047913621               0.000000000               0.173863932              -0.057219379               0.000000000               0.197159365              -0.066525138               0.000000000               0.220454798              -0.075830897               0.000000000               0.243750232              -0.085136655               0.000000000               0.267045665              -0.094442414               0.000000000               0.290341099              -0.103748172               0.000000000               0.313636532              -0.113053931               0.000000000               0.336931966              -0.122359690               0.000000000               0.360227399              -0.131665448               0.000000000               0.383522833              -0.140971207               0.000000000               0.406818266              -0.150276966               0.000000000               0.430113700              -0.159582724               0.000000000               0.453409133              -0.168888483               0.000000000               0.476704567              -0.178194241               0.000000000               0.500000000              -0.187500000               0.000000000               0.122875978              -0.050896897               0.000000000               0.146446229              -0.063340840               0.000000000               0.170016481              -0.075784784               0.000000000               0.193586732              -0.088228728               0.000000000               0.217156983              -0.100672672               0.000000000               0.240727235              -0.113116616               0.000000000               0.264297486              -0.125560560               0.000000000               0.287867738              -0.138004504               0.000000000               0.311437989              -0.150448448               0.000000000               0.335008240              -0.162892392               0.000000000               0.358578492              -0.175336336               0.000000000               0.382148743              -0.187780280               0.000000000               0.405718994              -0.200224224               0.000000000               0.429289246              -0.212668168               0.000000000               0.452859497              -0.225112112               0.000000000               0.476429749              -0.237556056               0.000000000               0.500000000              -0.250000000               0.000000000               0.117295528              -0.062695766               0.000000000               0.141214558              -0.078308531               0.000000000               0.165133587              -0.093921295               0.000000000               0.189052617              -0.109534060               0.000000000               0.212971646              -0.125146824               0.000000000               0.236890676              -0.140759589               0.000000000               0.260809705              -0.156372354               0.000000000               0.284728735              -0.171985118               0.000000000               0.308647764              -0.187597883               0.000000000               0.332566794              -0.203210648               0.000000000               0.356485823              -0.218823412               0.000000000               0.380404853              -0.234436177               0.000000000               0.404323882              -0.250048941               0.000000000               0.428242912              -0.265661706               0.000000000               0.452161941              -0.281274471               0.000000000               0.476080971              -0.296887235               0.000000000               0.500000000              -0.312500000               0.000000000               0.110585458              -0.073890841               0.000000000               0.134923867              -0.092710163               0.000000000               0.159262276              -0.111529486               0.000000000               0.183600685              -0.130348808               0.000000000               0.207939094              -0.149168131               0.000000000               0.232277503              -0.167987453               0.000000000               0.256615912              -0.186806776               0.000000000               0.280954320              -0.205626098               0.000000000               0.305292729              -0.224445420               0.000000000               0.329631138              -0.243264743               0.000000000               0.353969547              -0.262084065               0.000000000               0.378307956              -0.280903388               0.000000000               0.402646365              -0.299722710               0.000000000               0.426984773              -0.318542033               0.000000000               0.451323182              -0.337361355               0.000000000               0.475661591              -0.356180678               0.000000000               0.500000000              -0.375000000               0.000000000               0.102810390              -0.084374307               0.000000000               0.127634741              -0.106444663               0.000000000               0.152459092              -0.128515018               0.000000000               0.177283442              -0.150585374               0.000000000               0.202107793              -0.172655730               0.000000000               0.226932143              -0.194726086               0.000000000               0.251756494              -0.216796442               0.000000000               0.276580845              -0.238866798               0.000000000               0.301405195              -0.260937153               0.000000000               0.326229546              -0.283007509               0.000000000               0.351053896              -0.305077865               0.000000000               0.375878247              -0.327148221               0.000000000               0.400702598              -0.349218577               0.000000000               0.425526948              -0.371288933               0.000000000               0.450351299              -0.393359288               0.000000000               0.475175649              -0.415429644               0.000000000               0.500000000              -0.437500000               0.000000000               0.094045202              -0.094045202               0.000000000               0.119417377              -0.119417377               0.000000000               0.144789552              -0.144789552               0.000000000               0.170161727              -0.170161727               0.000000000               0.195533901              -0.195533901               0.000000000               0.220906076              -0.220906076               0.000000000               0.246278251              -0.246278251               0.000000000               0.271650426              -0.271650426               0.000000000               0.297022601              -0.297022601               0.000000000               0.322394776              -0.322394776               0.000000000               0.347766951              -0.347766951               0.000000000               0.373139126              -0.373139126               0.000000000               0.398511300              -0.398511300               0.000000000               0.423883475              -0.423883475               0.000000000               0.449255650              -0.449255650               0.000000000               0.474627825              -0.474627825               0.000000000               0.500000000              -0.500000000               0.000000000               0.084374307              -0.102810390               0.000000000               0.106444663              -0.127634741               0.000000000               0.128515018              -0.152459092               0.000000000               0.150585374              -0.177283442               0.000000000               0.172655730              -0.202107793               0.000000000               0.194726086              -0.226932143               0.000000000               0.216796442              -0.251756494               0.000000000               0.238866798              -0.276580845               0.000000000               0.260937153              -0.301405195               0.000000000               0.283007509              -0.326229546               0.000000000               0.305077865              -0.351053896               0.000000000               0.327148221              -0.375878247               0.000000000               0.349218577              -0.400702598               0.000000000               0.371288933              -0.425526948               0.000000000               0.393359288              -0.450351299               0.000000000               0.415429644              -0.475175649               0.000000000               0.437500000              -0.500000000               0.000000000               0.073890841              -0.110585458               0.000000000               0.092710163              -0.134923867               0.000000000               0.111529486              -0.159262276               0.000000000               0.130348808              -0.183600685               0.000000000               0.149168131              -0.207939094               0.000000000               0.167987453              -0.232277503               0.000000000               0.186806776              -0.256615912               0.000000000               0.205626098              -0.280954320               0.000000000               0.224445420              -0.305292729               0.000000000               0.243264743              -0.329631138               0.000000000               0.262084065              -0.353969547               0.000000000               0.280903388              -0.378307956               0.000000000               0.299722710              -0.402646365               0.000000000               0.318542033              -0.426984773               0.000000000               0.337361355              -0.451323182               0.000000000               0.356180678              -0.475661591               0.000000000               0.375000000              -0.500000000               0.000000000               0.062695766              -0.117295528               0.000000000               0.078308531              -0.141214558               0.000000000               0.093921295              -0.165133587               0.000000000               0.109534060              -0.189052617               0.000000000               0.125146824              -0.212971646               0.000000000               0.140759589              -0.236890676               0.000000000               0.156372354              -0.260809705               0.000000000               0.171985118              -0.284728735               0.000000000               0.187597883              -0.308647764               0.000000000               0.203210648              -0.332566794               0.000000000               0.218823412              -0.356485823               0.000000000               0.234436177              -0.380404853               0.000000000               0.250048941              -0.404323882               0.000000000               0.265661706              -0.428242912               0.000000000               0.281274471              -0.452161941               0.000000000               0.296887235              -0.476080971               0.000000000               0.312500000              -0.500000000               0.000000000               0.050896897              -0.122875978               0.000000000               0.063340840              -0.146446229               0.000000000               0.075784784              -0.170016481               0.000000000               0.088228728              -0.193586732               0.000000000               0.100672672              -0.217156983               0.000000000               0.113116616              -0.240727235               0.000000000               0.125560560              -0.264297486               0.000000000               0.138004504              -0.287867738               0.000000000               0.150448448              -0.311437989               0.000000000               0.162892392              -0.335008240               0.000000000               0.175336336              -0.358578492               0.000000000               0.187780280              -0.382148743               0.000000000               0.200224224              -0.405718994               0.000000000               0.212668168              -0.429289246               0.000000000               0.225112112              -0.452859497               0.000000000               0.237556056              -0.476429749               0.000000000               0.250000000              -0.500000000               0.000000000               0.038607862              -0.127273065               0.000000000               0.047913621              -0.150568498               0.000000000               0.057219379              -0.173863932               0.000000000               0.066525138              -0.197159365               0.000000000               0.075830897              -0.220454798               0.000000000               0.085136655              -0.243750232               0.000000000               0.094442414              -0.267045665               0.000000000               0.103748172              -0.290341099               0.000000000               0.113053931              -0.313636532               0.000000000               0.122359690              -0.336931966               0.000000000               0.131665448              -0.360227399               0.000000000               0.140971207              -0.383522833               0.000000000               0.150276966              -0.406818266               0.000000000               0.159582724              -0.430113700               0.000000000               0.168888483              -0.453409133               0.000000000               0.178194241              -0.476704567               0.000000000               0.187500000              -0.500000000               0.000000000               0.025947013              -0.130444442               0.000000000               0.032137825              -0.153541665               0.000000000               0.038328636              -0.176638887               0.000000000               0.044519448              -0.199736109               0.000000000               0.050710260              -0.222833332               0.000000000               0.056901071              -0.245930554               0.000000000               0.063091883              -0.269027776               0.000000000               0.069282695              -0.292124999               0.000000000               0.075473506              -0.315222221               0.000000000               0.081664318              -0.338319444               0.000000000               0.087855130              -0.361416666               0.000000000               0.094045942              -0.384513888               0.000000000               0.100236753              -0.407611111               0.000000000               0.106427565              -0.430708333               0.000000000               0.112618377              -0.453805555               0.000000000               0.118809188              -0.476902778               0.000000000               0.125000000              -0.500000000               0.000000000               0.013036280              -0.132359569               0.000000000               0.016127762              -0.155337096               0.000000000               0.019219245              -0.178314623               0.000000000               0.022310727              -0.201292150               0.000000000               0.025402210              -0.224269676               0.000000000               0.028493692              -0.247247203               0.000000000               0.031585175              -0.270224730               0.000000000               0.034676657              -0.293202257               0.000000000               0.037768140              -0.316179784               0.000000000               0.040859622              -0.339157311               0.000000000               0.043951105              -0.362134838               0.000000000               0.047042587              -0.385112365               0.000000000               0.050134070              -0.408089892               0.000000000               0.053225552              -0.431067419               0.000000000               0.056317035              -0.454044946               0.000000000               0.059408517              -0.477022473               0.000000000               0.062500000              -0.500000000               0.000000000               0.000000000              -0.133000000               0.000000000               0.000000000              -0.155937500               0.000000000               0.000000000              -0.178875000               0.000000000               0.000000000              -0.201812500               0.000000000               0.000000000              -0.224750000               0.000000000               0.000000000              -0.247687500               0.000000000               0.000000000              -0.270625000               0.000000000               0.000000000              -0.293562500               0.000000000               0.000000000              -0.316500000               0.000000000               0.000000000              -0.339437500               0.000000000               0.000000000              -0.362375000               0.000000000               0.000000000              -0.385312500               0.000000000               0.000000000              -0.408250000               0.000000000               0.000000000              -0.431187500               0.000000000               0.000000000              -0.454125000               0.000000000               0.000000000              -0.477062500               0.000000000               0.000000000              -0.500000000               0.000000000              -0.133000000               0.000000000               0.000000000              -0.155937500               0.000000000               0.000000000              -0.178875000               0.000000000               0.000000000              -0.201812500               0.000000000               0.000000000              -0.224750000               0.000000000               0.000000000              -0.247687500               0.000000000               0.000000000              -0.270625000               0.000000000               0.000000000              -0.293562500               0.000000000               0.000000000              -0.316500000               0.000000000               0.000000000              -0.339437500               0.000000000               0.000000000              -0.362375000               0.000000000               0.000000000              -0.385312500               0.000000000               0.000000000              -0.408250000               0.000000000               0.000000000              -0.431187500               0.000000000               0.000000000              -0.454125000               0.000000000               0.000000000              -0.477062500               0.000000000               0.000000000              -0.500000000               0.000000000               0.000000000              -0.132359569              -0.013036280               0.000000000              -0.155337096              -0.016127762               0.000000000              -0.178314623              -0.019219245               0.000000000              -0.201292150              -0.022310727               0.000000000              -0.224269676              -0.025402210               0.000000000              -0.247247203              -0.028493692               0.000000000              -0.270224730              -0.031585175               0.000000000              -0.293202257              -0.034676657               0.000000000              -0.316179784              -0.037768140               0.000000000              -0.339157311              -0.040859622               0.000000000              -0.362134838              -0.043951105               0.000000000              -0.385112365              -0.047042587               0.000000000              -0.408089892              -0.050134070               0.000000000              -0.431067419              -0.053225552               0.000000000              -0.454044946              -0.056317035               0.000000000              -0.477022473              -0.059408517               0.000000000              -0.500000000              -0.062500000               0.000000000              -0.130444442              -0.025947013               0.000000000              -0.153541665              -0.032137825               0.000000000              -0.176638887              -0.038328636               0.000000000              -0.199736109              -0.044519448               0.000000000              -0.222833332              -0.050710260               0.000000000              -0.245930554              -0.056901071               0.000000000              -0.269027776              -0.063091883               0.000000000              -0.292124999              -0.069282695               0.000000000              -0.315222221              -0.075473506               0.000000000              -0.338319444              -0.081664318               0.000000000              -0.361416666              -0.087855130               0.000000000              -0.384513888              -0.094045942               0.000000000              -0.407611111              -0.100236753               0.000000000              -0.430708333              -0.106427565               0.000000000              -0.453805555              -0.112618377               0.000000000              -0.476902778              -0.118809188               0.000000000              -0.500000000              -0.125000000               0.000000000              -0.127273065              -0.038607862               0.000000000              -0.150568498              -0.047913621               0.000000000              -0.173863932              -0.057219379               0.000000000              -0.197159365              -0.066525138               0.000000000              -0.220454798              -0.075830897               0.000000000              -0.243750232              -0.085136655               0.000000000              -0.267045665              -0.094442414               0.000000000              -0.290341099              -0.103748172               0.000000000              -0.313636532              -0.113053931               0.000000000              -0.336931966              -0.122359690               0.000000000              -0.360227399              -0.131665448               0.000000000              -0.383522833              -0.140971207               0.000000000              -0.406818266              -0.150276966               0.000000000              -0.430113700              -0.159582724               0.000000000              -0.453409133              -0.168888483               0.000000000              -0.476704567              -0.178194241               0.000000000              -0.500000000              -0.187500000               0.000000000              -0.122875978              -0.050896897               0.000000000              -0.146446229              -0.063340840               0.000000000              -0.170016481              -0.075784784               0.000000000              -0.193586732              -0.088228728               0.000000000              -0.217156983              -0.100672672               0.000000000              -0.240727235              -0.113116616               0.000000000              -0.264297486              -0.125560560               0.000000000              -0.287867738              -0.138004504               0.000000000              -0.311437989              -0.150448448               0.000000000              -0.335008240              -0.162892392               0.000000000              -0.358578492              -0.175336336               0.000000000              -0.382148743              -0.187780280               0.000000000              -0.405718994              -0.200224224               0.000000000              -0.429289246              -0.212668168               0.000000000              -0.452859497              -0.225112112               0.000000000              -0.476429749              -0.237556056               0.000000000              -0.500000000              -0.250000000               0.000000000              -0.117295528              -0.062695766               0.000000000              -0.141214558              -0.078308531               0.000000000              -0.165133587              -0.093921295               0.000000000              -0.189052617              -0.109534060               0.000000000              -0.212971646              -0.125146824               0.000000000              -0.236890676              -0.140759589               0.000000000              -0.260809705              -0.156372354               0.000000000              -0.284728735              -0.171985118               0.000000000              -0.308647764              -0.187597883               0.000000000              -0.332566794              -0.203210648               0.000000000              -0.356485823              -0.218823412               0.000000000              -0.380404853              -0.234436177               0.000000000              -0.404323882              -0.250048941               0.000000000              -0.428242912              -0.265661706               0.000000000              -0.452161941              -0.281274471               0.000000000              -0.476080971              -0.296887235               0.000000000              -0.500000000              -0.312500000               0.000000000              -0.110585458              -0.073890841               0.000000000              -0.134923867              -0.092710163               0.000000000              -0.159262276              -0.111529486               0.000000000              -0.183600685              -0.130348808               0.000000000              -0.207939094              -0.149168131               0.000000000              -0.232277503              -0.167987453               0.000000000              -0.256615912              -0.186806776               0.000000000              -0.280954320              -0.205626098               0.000000000              -0.305292729              -0.224445420               0.000000000              -0.329631138              -0.243264743               0.000000000              -0.353969547              -0.262084065               0.000000000              -0.378307956              -0.280903388               0.000000000              -0.402646365              -0.299722710               0.000000000              -0.426984773              -0.318542033               0.000000000              -0.451323182              -0.337361355               0.000000000              -0.475661591              -0.356180678               0.000000000              -0.500000000              -0.375000000               0.000000000              -0.102810390              -0.084374307               0.000000000              -0.127634741              -0.106444663               0.000000000              -0.152459092              -0.128515018               0.000000000              -0.177283442              -0.150585374               0.000000000              -0.202107793              -0.172655730               0.000000000              -0.226932143              -0.194726086               0.000000000              -0.251756494              -0.216796442               0.000000000              -0.276580845              -0.238866798               0.000000000              -0.301405195              -0.260937153               0.000000000              -0.326229546              -0.283007509               0.000000000              -0.351053896              -0.305077865               0.000000000              -0.375878247              -0.327148221               0.000000000              -0.400702598              -0.349218577               0.000000000              -0.425526948              -0.371288933               0.000000000              -0.450351299              -0.393359288               0.000000000              -0.475175649              -0.415429644               0.000000000              -0.500000000              -0.437500000               0.000000000              -0.094045202              -0.094045202               0.000000000              -0.119417377              -0.119417377               0.000000000              -0.144789552              -0.144789552               0.000000000              -0.170161727              -0.170161727               0.000000000              -0.195533901              -0.195533901               0.000000000              -0.220906076              -0.220906076               0.000000000              -0.246278251              -0.246278251               0.000000000              -0.271650426              -0.271650426               0.000000000              -0.297022601              -0.297022601               0.000000000              -0.322394776              -0.322394776               0.000000000              -0.347766951              -0.347766951               0.000000000              -0.373139126              -0.373139126               0.000000000              -0.398511300              -0.398511300               0.000000000              -0.423883475              -0.423883475               0.000000000              -0.449255650              -0.449255650               0.000000000              -0.474627825              -0.474627825               0.000000000              -0.500000000              -0.500000000               0.000000000              -0.084374307              -0.102810390               0.000000000              -0.106444663              -0.127634741               0.000000000              -0.128515018              -0.152459092               0.000000000              -0.150585374              -0.177283442               0.000000000              -0.172655730              -0.202107793               0.000000000              -0.194726086              -0.226932143               0.000000000              -0.216796442              -0.251756494               0.000000000              -0.238866798              -0.276580845               0.000000000              -0.260937153              -0.301405195               0.000000000              -0.283007509              -0.326229546               0.000000000              -0.305077865              -0.351053896               0.000000000              -0.327148221              -0.375878247               0.000000000              -0.349218577              -0.400702598               0.000000000              -0.371288933              -0.425526948               0.000000000              -0.393359288              -0.450351299               0.000000000              -0.415429644              -0.475175649               0.000000000              -0.437500000              -0.500000000               0.000000000              -0.073890841              -0.110585458               0.000000000              -0.092710163              -0.134923867               0.000000000              -0.111529486              -0.159262276               0.000000000              -0.130348808              -0.183600685               0.000000000              -0.149168131              -0.207939094               0.000000000              -0.167987453              -0.232277503               0.000000000              -0.186806776              -0.256615912               0.000000000              -0.205626098              -0.280954320               0.000000000              -0.224445420              -0.305292729               0.000000000              -0.243264743              -0.329631138               0.000000000              -0.262084065              -0.353969547               0.000000000              -0.280903388              -0.378307956               0.000000000              -0.299722710              -0.402646365               0.000000000              -0.318542033              -0.426984773               0.000000000              -0.337361355              -0.451323182               0.000000000              -0.356180678              -0.475661591               0.000000000              -0.375000000              -0.500000000               0.000000000              -0.062695766              -0.117295528               0.000000000              -0.078308531              -0.141214558               0.000000000              -0.093921295              -0.165133587               0.000000000              -0.109534060              -0.189052617               0.000000000              -0.125146824              -0.212971646               0.000000000              -0.140759589              -0.236890676               0.000000000              -0.156372354              -0.260809705               0.000000000              -0.171985118              -0.284728735               0.000000000              -0.187597883              -0.308647764               0.000000000              -0.203210648              -0.332566794               0.000000000              -0.218823412              -0.356485823               0.000000000              -0.234436177              -0.380404853               0.000000000              -0.250048941              -0.404323882               0.000000000              -0.265661706              -0.428242912               0.000000000              -0.281274471              -0.452161941               0.000000000              -0.296887235              -0.476080971               0.000000000              -0.312500000              -0.500000000               0.000000000              -0.050896897              -0.122875978               0.000000000              -0.063340840              -0.146446229               0.000000000              -0.075784784              -0.170016481               0.000000000              -0.088228728              -0.193586732               0.000000000              -0.100672672              -0.217156983               0.000000000              -0.113116616              -0.240727235               0.000000000              -0.125560560              -0.264297486               0.000000000              -0.138004504              -0.287867738               0.000000000              -0.150448448              -0.311437989               0.000000000              -0.162892392              -0.335008240               0.000000000              -0.175336336              -0.358578492               0.000000000              -0.187780280              -0.382148743               0.000000000              -0.200224224              -0.405718994               0.000000000              -0.212668168              -0.429289246               0.000000000              -0.225112112              -0.452859497               0.000000000              -0.237556056              -0.476429749               0.000000000              -0.250000000              -0.500000000               0.000000000              -0.038607862              -0.127273065               0.000000000              -0.047913621              -0.150568498               0.000000000              -0.057219379              -0.173863932               0.000000000              -0.066525138              -0.197159365               0.000000000              -0.075830897              -0.220454798               0.000000000              -0.085136655              -0.243750232               0.000000000              -0.094442414              -0.267045665               0.000000000              -0.103748172              -0.290341099               0.000000000              -0.113053931              -0.313636532               0.000000000              -0.122359690              -0.336931966               0.000000000              -0.131665448              -0.360227399               0.000000000              -0.140971207              -0.383522833               0.000000000              -0.150276966              -0.406818266               0.000000000              -0.159582724              -0.430113700               0.000000000              -0.168888483              -0.453409133               0.000000000              -0.178194241              -0.476704567               0.000000000              -0.187500000              -0.500000000               0.000000000              -0.025947013              -0.130444442               0.000000000              -0.032137825              -0.153541665               0.000000000              -0.038328636              -0.176638887               0.000000000              -0.044519448              -0.199736109               0.000000000              -0.050710260              -0.222833332               0.000000000              -0.056901071              -0.245930554               0.000000000              -0.063091883              -0.269027776               0.000000000              -0.069282695              -0.292124999               0.000000000              -0.075473506              -0.315222221               0.000000000              -0.081664318              -0.338319444               0.000000000              -0.087855130              -0.361416666               0.000000000              -0.094045942              -0.384513888               0.000000000              -0.100236753              -0.407611111               0.000000000              -0.106427565              -0.430708333               0.000000000              -0.112618377              -0.453805555               0.000000000              -0.118809188              -0.476902778               0.000000000              -0.125000000              -0.500000000               0.000000000              -0.013036280              -0.132359569               0.000000000              -0.016127762              -0.155337096               0.000000000              -0.019219245              -0.178314623               0.000000000              -0.022310727              -0.201292150               0.000000000              -0.025402210              -0.224269676               0.000000000              -0.028493692              -0.247247203               0.000000000              -0.031585175              -0.270224730               0.000000000              -0.034676657              -0.293202257               0.000000000              -0.037768140              -0.316179784               0.000000000              -0.040859622              -0.339157311               0.000000000              -0.043951105              -0.362134838               0.000000000              -0.047042587              -0.385112365               0.000000000              -0.050134070              -0.408089892               0.000000000              -0.053225552              -0.431067419               0.000000000              -0.056317035              -0.454044946               0.000000000              -0.059408517              -0.477022473               0.000000000              -0.062500000              -0.500000000               0.000000000               0.000000000              -0.133000000               0.000000000               0.000000000              -0.155937500               0.000000000               0.000000000              -0.178875000               0.000000000               0.000000000              -0.201812500               0.000000000               0.000000000              -0.224750000               0.000000000               0.000000000              -0.247687500               0.000000000               0.000000000              -0.270625000               0.000000000               0.000000000              -0.293562500               0.000000000               0.000000000              -0.316500000               0.000000000               0.000000000              -0.339437500               0.000000000               0.000000000              -0.362375000               0.000000000               0.000000000              -0.385312500               0.000000000               0.000000000              -0.408250000               0.000000000               0.000000000              -0.431187500               0.000000000               0.000000000              -0.454125000               0.000000000               0.000000000              -0.477062500               0.000000000               0.000000000              -0.500000000               0.000000000              -0.133000000               0.000000000               0.000000000              -0.155937500               0.000000000               0.000000000              -0.178875000               0.000000000               0.000000000              -0.201812500               0.000000000               0.000000000              -0.224750000               0.000000000               0.000000000              -0.247687500               0.000000000               0.000000000              -0.270625000               0.000000000               0.000000000              -0.293562500               0.000000000               0.000000000              -0.316500000               0.000000000               0.000000000              -0.339437500               0.000000000               0.000000000              -0.362375000               0.000000000               0.000000000              -0.385312500               0.000000000               0.000000000              -0.408250000               0.000000000               0.000000000              -0.431187500               0.000000000               0.000000000              -0.454125000               0.000000000               0.000000000              -0.477062500               0.000000000               0.000000000              -0.500000000               0.000000000               0.000000000              -0.132359569               0.013036280               0.000000000              -0.155337096               0.016127762               0.000000000              -0.178314623               0.019219245               0.000000000              -0.201292150               0.022310727               0.000000000              -0.224269676               0.025402210               0.000000000              -0.247247203               0.028493692               0.000000000              -0.270224730               0.031585175               0.000000000              -0.293202257               0.034676657               0.000000000              -0.316179784               0.037768140               0.000000000              -0.339157311               0.040859622               0.000000000              -0.362134838               0.043951105               0.000000000              -0.385112365               0.047042587               0.000000000              -0.408089892               0.050134070               0.000000000              -0.431067419               0.053225552               0.000000000              -0.454044946               0.056317035               0.000000000              -0.477022473               0.059408517               0.000000000              -0.500000000               0.062500000               0.000000000              -0.130444442               0.025947013               0.000000000              -0.153541665               0.032137825               0.000000000              -0.176638887               0.038328636               0.000000000              -0.199736109               0.044519448               0.000000000              -0.222833332               0.050710260               0.000000000              -0.245930554               0.056901071               0.000000000              -0.269027776               0.063091883               0.000000000              -0.292124999               0.069282695               0.000000000              -0.315222221               0.075473506               0.000000000              -0.338319444               0.081664318               0.000000000              -0.361416666               0.087855130               0.000000000              -0.384513888               0.094045942               0.000000000              -0.407611111               0.100236753               0.000000000              -0.430708333               0.106427565               0.000000000              -0.453805555               0.112618377               0.000000000              -0.476902778               0.118809188               0.000000000              -0.500000000               0.125000000               0.000000000              -0.127273065               0.038607862               0.000000000              -0.150568498               0.047913621               0.000000000              -0.173863932               0.057219379               0.000000000              -0.197159365               0.066525138               0.000000000              -0.220454798               0.075830897               0.000000000              -0.243750232               0.085136655               0.000000000              -0.267045665               0.094442414               0.000000000              -0.290341099               0.103748172               0.000000000              -0.313636532               0.113053931               0.000000000              -0.336931966               0.122359690               0.000000000              -0.360227399               0.131665448               0.000000000              -0.383522833               0.140971207               0.000000000              -0.406818266               0.150276966               0.000000000              -0.430113700               0.159582724               0.000000000              -0.453409133               0.168888483               0.000000000              -0.476704567               0.178194241               0.000000000              -0.500000000               0.187500000               0.000000000              -0.122875978               0.050896897               0.000000000              -0.146446229               0.063340840               0.000000000              -0.170016481               0.075784784               0.000000000              -0.193586732               0.088228728               0.000000000              -0.217156983               0.100672672               0.000000000              -0.240727235               0.113116616               0.000000000              -0.264297486               0.125560560               0.000000000              -0.287867738               0.138004504               0.000000000              -0.311437989               0.150448448               0.000000000              -0.335008240               0.162892392               0.000000000              -0.358578492               0.175336336               0.000000000              -0.382148743               0.187780280               0.000000000              -0.405718994               0.200224224               0.000000000              -0.429289246               0.212668168               0.000000000              -0.452859497               0.225112112               0.000000000              -0.476429749               0.237556056               0.000000000              -0.500000000               0.250000000               0.000000000              -0.117295528               0.062695766               0.000000000              -0.141214558               0.078308531               0.000000000              -0.165133587               0.093921295               0.000000000              -0.189052617               0.109534060               0.000000000              -0.212971646               0.125146824               0.000000000              -0.236890676               0.140759589               0.000000000              -0.260809705               0.156372354               0.000000000              -0.284728735               0.171985118               0.000000000              -0.308647764               0.187597883               0.000000000              -0.332566794               0.203210648               0.000000000              -0.356485823               0.218823412               0.000000000              -0.380404853               0.234436177               0.000000000              -0.404323882               0.250048941               0.000000000              -0.428242912               0.265661706               0.000000000              -0.452161941               0.281274471               0.000000000              -0.476080971               0.296887235               0.000000000              -0.500000000               0.312500000               0.000000000              -0.110585458               0.073890841               0.000000000              -0.134923867               0.092710163               0.000000000              -0.159262276               0.111529486               0.000000000              -0.183600685               0.130348808               0.000000000              -0.207939094               0.149168131               0.000000000              -0.232277503               0.167987453               0.000000000              -0.256615912               0.186806776               0.000000000              -0.280954320               0.205626098               0.000000000              -0.305292729               0.224445420               0.000000000              -0.329631138               0.243264743               0.000000000              -0.353969547               0.262084065               0.000000000              -0.378307956               0.280903388               0.000000000              -0.402646365               0.299722710               0.000000000              -0.426984773               0.318542033               0.000000000              -0.451323182               0.337361355               0.000000000              -0.475661591               0.356180678               0.000000000              -0.500000000               0.375000000               0.000000000              -0.102810390               0.084374307               0.000000000              -0.127634741               0.106444663               0.000000000              -0.152459092               0.128515018               0.000000000              -0.177283442               0.150585374               0.000000000              -0.202107793               0.172655730               0.000000000              -0.226932143               0.194726086               0.000000000              -0.251756494               0.216796442               0.000000000              -0.276580845               0.238866798               0.000000000              -0.301405195               0.260937153               0.000000000              -0.326229546               0.283007509               0.000000000              -0.351053896               0.305077865               0.000000000              -0.375878247               0.327148221               0.000000000              -0.400702598               0.349218577               0.000000000              -0.425526948               0.371288933               0.000000000              -0.450351299               0.393359288               0.000000000              -0.475175649               0.415429644               0.000000000              -0.500000000               0.437500000               0.000000000              -0.094045202               0.094045202               0.000000000              -0.119417377               0.119417377               0.000000000              -0.144789552               0.144789552               0.000000000              -0.170161727               0.170161727               0.000000000              -0.195533901               0.195533901               0.000000000              -0.220906076               0.220906076               0.000000000              -0.246278251               0.246278251               0.000000000              -0.271650426               0.271650426               0.000000000              -0.297022601               0.297022601               0.000000000              -0.322394776               0.322394776               0.000000000              -0.347766951               0.347766951               0.000000000              -0.373139126               0.373139126               0.000000000              -0.398511300               0.398511300               0.000000000              -0.423883475               0.423883475               0.000000000              -0.449255650               0.449255650               0.000000000              -0.474627825               0.474627825               0.000000000              -0.500000000               0.500000000               0.000000000              -0.084374307               0.102810390               0.000000000              -0.106444663               0.127634741               0.000000000              -0.128515018               0.152459092               0.000000000              -0.150585374               0.177283442               0.000000000              -0.172655730               0.202107793               0.000000000              -0.194726086               0.226932143               0.000000000              -0.216796442               0.251756494               0.000000000              -0.238866798               0.276580845               0.000000000              -0.260937153               0.301405195               0.000000000              -0.283007509               0.326229546               0.000000000              -0.305077865               0.351053896               0.000000000              -0.327148221               0.375878247               0.000000000              -0.349218577               0.400702598               0.000000000              -0.371288933               0.425526948               0.000000000              -0.393359288               0.450351299               0.000000000              -0.415429644               0.475175649               0.000000000              -0.437500000               0.500000000               0.000000000              -0.073890841               0.110585458               0.000000000              -0.092710163               0.134923867               0.000000000              -0.111529486               0.159262276               0.000000000              -0.130348808               0.183600685               0.000000000              -0.149168131               0.207939094               0.000000000              -0.167987453               0.232277503               0.000000000              -0.186806776               0.256615912               0.000000000              -0.205626098               0.280954320               0.000000000              -0.224445420               0.305292729               0.000000000              -0.243264743               0.329631138               0.000000000              -0.262084065               0.353969547               0.000000000              -0.280903388               0.378307956               0.000000000              -0.299722710               0.402646365               0.000000000              -0.318542033               0.426984773               0.000000000              -0.337361355               0.451323182               0.000000000              -0.356180678               0.475661591               0.000000000              -0.375000000               0.500000000               0.000000000              -0.062695766               0.117295528               0.000000000              -0.078308531               0.141214558               0.000000000              -0.093921295               0.165133587               0.000000000              -0.109534060               0.189052617               0.000000000              -0.125146824               0.212971646               0.000000000              -0.140759589               0.236890676               0.000000000              -0.156372354               0.260809705               0.000000000              -0.171985118               0.284728735               0.000000000              -0.187597883               0.308647764               0.000000000              -0.203210648               0.332566794               0.000000000              -0.218823412               0.356485823               0.000000000              -0.234436177               0.380404853               0.000000000              -0.250048941               0.404323882               0.000000000              -0.265661706               0.428242912               0.000000000              -0.281274471               0.452161941               0.000000000              -0.296887235               0.476080971               0.000000000              -0.312500000               0.500000000               0.000000000              -0.050896897               0.122875978               0.000000000              -0.063340840               0.146446229               0.000000000              -0.075784784               0.170016481               0.000000000              -0.088228728               0.193586732               0.000000000              -0.100672672               0.217156983               0.000000000              -0.113116616               0.240727235               0.000000000              -0.125560560               0.264297486               0.000000000              -0.138004504               0.287867738               0.000000000              -0.150448448               0.311437989               0.000000000              -0.162892392               0.335008240               0.000000000              -0.175336336               0.358578492               0.000000000              -0.187780280               0.382148743               0.000000000              -0.200224224               0.405718994               0.000000000              -0.212668168               0.429289246               0.000000000              -0.225112112               0.452859497               0.000000000              -0.237556056               0.476429749               0.000000000              -0.250000000               0.500000000               0.000000000              -0.038607862               0.127273065               0.000000000              -0.047913621               0.150568498               0.000000000              -0.057219379               0.173863932               0.000000000              -0.066525138               0.197159365               0.000000000              -0.075830897               0.220454798               0.000000000              -0.085136655               0.243750232               0.000000000              -0.094442414               0.267045665               0.000000000              -0.103748172               0.290341099               0.000000000              -0.113053931               0.313636532               0.000000000              -0.122359690               0.336931966               0.000000000              -0.131665448               0.360227399               0.000000000              -0.140971207               0.383522833               0.000000000              -0.150276966               0.406818266               0.000000000              -0.159582724               0.430113700               0.000000000              -0.168888483               0.453409133               0.000000000              -0.178194241               0.476704567               0.000000000              -0.187500000               0.500000000               0.000000000              -0.025947013               0.130444442               0.000000000              -0.032137825               0.153541665               0.000000000              -0.038328636               0.176638887               0.000000000              -0.044519448               0.199736109               0.000000000              -0.050710260               0.222833332               0.000000000              -0.056901071               0.245930554               0.000000000              -0.063091883               0.269027776               0.000000000              -0.069282695               0.292124999               0.000000000              -0.075473506               0.315222221               0.000000000              -0.081664318               0.338319444               0.000000000              -0.087855130               0.361416666               0.000000000              -0.094045942               0.384513888               0.000000000              -0.100236753               0.407611111               0.000000000              -0.106427565               0.430708333               0.000000000              -0.112618377               0.453805555               0.000000000              -0.118809188               0.476902778               0.000000000              -0.125000000               0.500000000               0.000000000              -0.013036280               0.132359569               0.000000000              -0.016127762               0.155337096               0.000000000              -0.019219245               0.178314623               0.000000000              -0.022310727               0.201292150               0.000000000              -0.025402210               0.224269676               0.000000000              -0.028493692               0.247247203               0.000000000              -0.031585175               0.270224730               0.000000000              -0.034676657               0.293202257               0.000000000              -0.037768140               0.316179784               0.000000000              -0.040859622               0.339157311               0.000000000              -0.043951105               0.362134838               0.000000000              -0.047042587               0.385112365               0.000000000              -0.050134070               0.408089892               0.000000000              -0.053225552               0.431067419               0.000000000              -0.056317035               0.454044946               0.000000000              -0.059408517               0.477022473               0.000000000              -0.062500000               0.500000000               0.000000000               0.000000000               0.133000000               0.000000000               0.000000000               0.155937500               0.000000000               0.000000000               0.178875000               0.000000000               0.000000000               0.201812500               0.000000000               0.000000000               0.224750000               0.000000000               0.000000000               0.247687500               0.000000000               0.000000000               0.270625000               0.000000000               0.000000000               0.293562500               0.000000000               0.000000000               0.316500000               0.000000000               0.000000000               0.339437500               0.000000000               0.000000000               0.362375000               0.000000000               0.000000000               0.385312500               0.000000000               0.000000000               0.408250000               0.000000000               0.000000000               0.431187500               0.000000000               0.000000000               0.454125000               0.000000000               0.000000000               0.477062500               0.000000000               0.000000000               0.500000000               0.000000000 </DataArray>
</Points>
<Cells>
<DataArray type="Int32"                                    Name="connectivity"                                                      NumberOfComponents=" 1" format="ascii">
         0          1         18         17          1          2         19         18          2          3         20         19          3          4         21         20          4          5         22         21          5          6         23         22          6          7         24         23          7          8         25         24          8          9         26         25          9         10         27         26         10         11         28         27         11         12         29         28         12         13         30         29         13         14         31         30         14         15         32         31         15         16         33         32         17         18         35         34         18         19         36         35         19         20         37         36         20         21         38         37         21         22         39         38         22         23         40         39         23         24         41         40         24         25         42         41         25         26         43         42         26         27         44         43         27         28         45         44         28         29         46         45         29         30         47         46         30         31         48         47         31         32         49         48         32         33         50         49         34         35         52         51         35         36         53         52         36         37         54         53         37         38         55         54         38         39         56         55         39         40         57         56         40         41         58         57         41         42         59         58         42         43         60         59         43         44         61         60         44         45         62         61         45         46         63         62         46         47         64         63         47         48         65         64         48         49         66         65         49         50         67         66         51         52         69         68         52         53         70         69         53         54         71         70         54         55         72         71         55         56         73         72         56         57         74         73         57         58         75         74         58         59         76         75         59         60         77         76         60         61         78         77         61         62         79         78         62         63         80         79         63         64         81         80         64         65         82         81         65         66         83         82         66         67         84         83         68         69         86         85         69         70         87         86         70         71         88         87         71         72         89         88         72         73         90         89         73         74         91         90         74         75         92         91         75         76         93         92         76         77         94         93         77         78         95         94         78         79         96         95         79         80         97         96         80         81         98         97         81         82         99         98         82         83        100         99         83         84        101        100         85         86        103        102         86         87        104        103         87         88        105        104         88         89        106        105         89         90        107        106         90         91        108        107         91         92        109        108         92         93        110        109         93         94        111        110         94         95        112        111         95         96        113        112         96         97        114        113         97         98        115        114         98         99        116        115         99        100        117        116        100        101        118        117        102        103        120        119        103        104        121        120        104        105        122        121        105        106        123        122        106        107        124        123        107        108        125        124        108        109        126        125        109        110        127        126        110        111        128        127        111        112        129        128        112        113        130        129        113        114        131        130        114        115        132        131        115        116        133        132        116        117        134        133        117        118        135        134        119        120        137        136        120        121        138        137        121        122        139        138        122        123        140        139        123        124        141        140        124        125        142        141        125        126        143        142        126        127        144        143        127        128        145        144        128        129        146        145        129        130        147        146        130        131        148        147        131        132        149        148        132        133        150        149        133        134        151        150        134        135        152        151        136        137        154        153        137        138        155        154        138        139        156        155        139        140        157        156        140        141        158        157        141        142        159        158        142        143        160        159        143        144        161        160        144        145        162        161        145        146        163        162        146        147        164        163        147        148        165        164        148        149        166        165        149        150        167        166        150        151        168        167        151        152        169        168        153        154        171        170        154        155        172        171        155        156        173        172        156        157        174        173        157        158        175        174        158        159        176        175        159        160        177        176        160        161        178        177        161        162        179        178        162        163        180        179        163        164        181        180        164        165        182        181        165        166        183        182        166        167        184        183        167        168        185        184        168        169        186        185        170        171        188        187        171        172        189        188        172        173        190        189        173        174        191        190        174        175        192        191        175        176        193        192        176        177        194        193        177        178        195        194        178        179        196        195        179        180        197        196        180        181        198        197        181        182        199        198        182        183        200        199        183        184        201        200        184        185        202        201        185        186        203        202        187        188        205        204        188        189        206        205        189        190        207        206        190        191        208        207        191        192        209        208        192        193        210        209        193        194        211        210        194        195        212        211        195        196        213        212        196        197        214        213        197        198        215        214        198        199        216        215        199        200        217        216        200        201        218        217        201        202        219        218        202        203        220        219        204        205        222        221        205        206        223        222        206        207        224        223        207        208        225        224        208        209        226        225        209        210        227        226        210        211        228        227        211        212        229        228        212        213        230        229        213        214        231        230        214        215        232        231        215        216        233        232        216        217        234        233        217        218        235        234        218        219        236        235        219        220        237        236        221        222        239        238        222        223        240        239        223        224        241        240        224        225        242        241        225        226        243        242        226        227        244        243        227        228        245        244        228        229        246        245        229        230        247        246        230        231        248        247        231        232        249        248        232        233        250        249        233        234        251        250        234        235        252        251        235        236        253        252        236        237        254        253        238        239        256        255        239        240        257        256        240        241        258        257        241        242        259        258        242        243        260        259        243        244        261        260        244        245        262        261        245        246        263        262        246        247        264        263        247        248        265        264        248        249        266        265        249        250        267        266        250        251        268        267        251        252        269        268        252        253        270        269        253        254        271        270        255        256        273        272        256        257        274        273        257        258        275        274        258        259        276        275        259        260        277        276        260        261        278        277        261        262        279        278        262        263        280        279        263        264        281        280        264        265        282        281        265        266        283        282        266        267        284        283        267        268        285        284        268        269        286        285        269        270        287        286        270        271        288        287        306        307          1          0        307        308          2          1        308        309          3          2        309        310          4          3        310        311          5          4        311        312          6          5        312        313          7          6        313        314          8          7        314        315          9          8        315        316         10          9        316        317         11         10        317        318         12         11        318        319         13         12        319        320         14         13        320        321         15         14        321        322         16         15        323        324        307        306        324        325        308        307        325        326        309        308        326        327        310        309        327        328        311        310        328        329        312        311        329        330        313        312        330        331        314        313        331        332        315        314        332        333        316        315        333        334        317        316        334        335        318        317        335        336        319        318        336        337        320        319        337        338        321        320        338        339        322        321        340        341        324        323        341        342        325        324        342        343        326        325        343        344        327        326        344        345        328        327        345        346        329        328        346        347        330        329        347        348        331        330        348        349        332        331        349        350        333        332        350        351        334        333        351        352        335        334        352        353        336        335        353        354        337        336        354        355        338        337        355        356        339        338        357        358        341        340        358        359        342        341        359        360        343        342        360        361        344        343        361        362        345        344        362        363        346        345        363        364        347        346        364        365        348        347        365        366        349        348        366        367        350        349        367        368        351        350        368        369        352        351        369        370        353        352        370        371        354        353        371        372        355        354        372        373        356        355        374        375        358        357        375        376        359        358        376        377        360        359        377        378        361        360        378        379        362        361        379        380        363        362        380        381        364        363        381        382        365        364        382        383        366        365        383        384        367        366        384        385        368        367        385        386        369        368        386        387        370        369        387        388        371        370        388        389        372        371        389        390        373        372        391        392        375        374        392        393        376        375        393        394        377        376        394        395        378        377        395        396        379        378        396        397        380        379        397        398        381        380        398        399        382        381        399        400        383        382        400        401        384        383        401        402        385        384        402        403        386        385        403        404        387        386        404        405        388        387        405        406        389        388        406        407        390        389        408        409        392        391        409        410        393        392        410        411        394        393        411        412        395        394        412        413        396        395        413        414        397        396        414        415        398        397        415        416        399        398        416        417        400        399        417        418        401        400        418        419        402        401        419        420        403        402        420        421        404        403        421        422        405        404        422        423        406        405        423        424        407        406        425        426        409        408        426        427        410        409        427        428        411        410        428        429        412        411        429        430        413        412        430        431        414        413        431        432        415        414        432        433        416        415        433        434        417        416        434        435        418        417        435        436        419        418        436        437        420        419        437        438        421        420        438        439        422        421        439        440        423        422        440        441        424        423        442        443        426        425        443        444        427        426        444        445        428        427        445        446        429        428        446        447        430        429        447        448        431        430        448        449        432        431        449        450        433        432        450        451        434        433        451        452        435        434        452        453        436        435        453        454        437        436        454        455        438        437        455        456        439        438        456        457        440        439        457        458        441        440        459        460        443        442        460        461        444        443        461        462        445        444        462        463        446        445        463        464        447        446        464        465        448        447        465        466        449        448        466        467        450        449        467        468        451        450        468        469        452        451        469        470        453        452        470        471        454        453        471        472        455        454        472        473        456        455        473        474        457        456        474        475        458        457        476        477        460        459        477        478        461        460        478        479        462        461        479        480        463        462        480        481        464        463        481        482        465        464        482        483        466        465        483        484        467        466        484        485        468        467        485        486        469        468        486        487        470        469        487        488        471        470        488        489        472        471        489        490        473        472        490        491        474        473        491        492        475        474        493        494        477        476        494        495        478        477        495        496        479        478        496        497        480        479        497        498        481        480        498        499        482        481        499        500        483        482        500        501        484        483        501        502        485        484        502        503        486        485        503        504        487        486        504        505        488        487        505        506        489        488        506        507        490        489        507        508        491        490        508        509        492        491        510        511        494        493        511        512        495        494        512        513        496        495        513        514        497        496        514        515        498        497        515        516        499        498        516        517        500        499        517        518        501        500        518        519        502        501        519        520        503        502        520        521        504        503        521        522        505        504        522        523        506        505        523        524        507        506        524        525        508        507        525        526        509        508        527        528        511        510        528        529        512        511        529        530        513        512        530        531        514        513        531        532        515        514        532        533        516        515        533        534        517        516        534        535        518        517        535        536        519        518        536        537        520        519        537        538        521        520        538        539        522        521        539        540        523        522        540        541        524        523        541        542        525        524        542        543        526        525        544        545        528        527        545        546        529        528        546        547        530        529        547        548        531        530        548        549        532        531        549        550        533        532        550        551        534        533        551        552        535        534        552        553        536        535        553        554        537        536        554        555        538        537        555        556        539        538        556        557        540        539        557        558        541        540        558        559        542        541        559        560        543        542        561        562        545        544        562        563        546        545        563        564        547        546        564        565        548        547        565        566        549        548        566        567        550        549        567        568        551        550        568        569        552        551        569        570        553        552        570        571        554        553        571        572        555        554        572        573        556        555        573        574        557        556        574        575        558        557        575        576        559        558        576        577        560        559        578        579        596        595        579        580        597        596        580        581        598        597        581        582        599        598        582        583        600        599        583        584        601        600        584        585        602        601        585        586        603        602        586        587        604        603        587        588        605        604        588        589        606        605        589        590        607        606        590        591        608        607        591        592        609        608        592        593        610        609        593        594        611        610        595        596        613        612        596        597        614        613        597        598        615        614        598        599        616        615        599        600        617        616        600        601        618        617        601        602        619        618        602        603        620        619        603        604        621        620        604        605        622        621        605        606        623        622        606        607        624        623        607        608        625        624        608        609        626        625        609        610        627        626        610        611        628        627        612        613        630        629        613        614        631        630        614        615        632        631        615        616        633        632        616        617        634        633        617        618        635        634        618        619        636        635        619        620        637        636        620        621        638        637        621        622        639        638        622        623        640        639        623        624        641        640        624        625        642        641        625        626        643        642        626        627        644        643        627        628        645        644        629        630        647        646        630        631        648        647        631        632        649        648        632        633        650        649        633        634        651        650        634        635        652        651        635        636        653        652        636        637        654        653        637        638        655        654        638        639        656        655        639        640        657        656        640        641        658        657        641        642        659        658        642        643        660        659        643        644        661        660        644        645        662        661        646        647        664        663        647        648        665        664        648        649        666        665        649        650        667        666        650        651        668        667        651        652        669        668        652        653        670        669        653        654        671        670        654        655        672        671        655        656        673        672        656        657        674        673        657        658        675        674        658        659        676        675        659        660        677        676        660        661        678        677        661        662        679        678        663        664        681        680        664        665        682        681        665        666        683        682        666        667        684        683        667        668        685        684        668        669        686        685        669        670        687        686        670        671        688        687        671        672        689        688        672        673        690        689        673        674        691        690        674        675        692        691        675        676        693        692        676        677        694        693        677        678        695        694        678        679        696        695        680        681        698        697        681        682        699        698        682        683        700        699        683        684        701        700        684        685        702        701        685        686        703        702        686        687        704        703        687        688        705        704        688        689        706        705        689        690        707        706        690        691        708        707        691        692        709        708        692        693        710        709        693        694        711        710        694        695        712        711        695        696        713        712        697        698        715        714        698        699        716        715        699        700        717        716        700        701        718        717        701        702        719        718        702        703        720        719        703        704        721        720        704        705        722        721        705        706        723        722        706        707        724        723        707        708        725        724        708        709        726        725        709        710        727        726        710        711        728        727        711        712        729        728        712        713        730        729        714        715        732        731        715        716        733        732        716        717        734        733        717        718        735        734        718        719        736        735        719        720        737        736        720        721        738        737        721        722        739        738        722        723        740        739        723        724        741        740        724        725        742        741        725        726        743        742        726        727        744        743        727        728        745        744        728        729        746        745        729        730        747        746        731        732        749        748        732        733        750        749        733        734        751        750        734        735        752        751        735        736        753        752        736        737        754        753        737        738        755        754        738        739        756        755        739        740        757        756        740        741        758        757        741        742        759        758        742        743        760        759        743        744        761        760        744        745        762        761        745        746        763        762        746        747        764        763        748        749        766        765        749        750        767        766        750        751        768        767        751        752        769        768        752        753        770        769        753        754        771        770        754        755        772        771        755        756        773        772        756        757        774        773        757        758        775        774        758        759        776        775        759        760        777        776        760        761        778        777        761        762        779        778        762        763        780        779        763        764        781        780        765        766        783        782        766        767        784        783        767        768        785        784        768        769        786        785        769        770        787        786        770        771        788        787        771        772        789        788        772        773        790        789        773        774        791        790        774        775        792        791        775        776        793        792        776        777        794        793        777        778        795        794        778        779        796        795        779        780        797        796        780        781        798        797        782        783        800        799        783        784        801        800        784        785        802        801        785        786        803        802        786        787        804        803        787        788        805        804        788        789        806        805        789        790        807        806        790        791        808        807        791        792        809        808        792        793        810        809        793        794        811        810        794        795        812        811        795        796        813        812        796        797        814        813        797        798        815        814        799        800        817        816        800        801        818        817        801        802        819        818        802        803        820        819        803        804        821        820        804        805        822        821        805        806        823        822        806        807        824        823        807        808        825        824        808        809        826        825        809        810        827        826        810        811        828        827        811        812        829        828        812        813        830        829        813        814        831        830        814        815        832        831        816        817        834        833        817        818        835        834        818        819        836        835        819        820        837        836        820        821        838        837        821        822        839        838        822        823        840        839        823        824        841        840        824        825        842        841        825        826        843        842        826        827        844        843        827        828        845        844        828        829        846        845        829        830        847        846        830        831        848        847        831        832        849        848        833        834        562        561        834        835        563        562        835        836        564        563        836        837        565        564        837        838        566        565        838        839        567        566        839        840        568        567        840        841        569        568        841        842        570        569        842        843        571        570        843        844        572        571        844        845        573        572        845        846        574        573        846        847        575        574        847        848        576        575        848        849        577        576        884        885        579        578        885        886        580        579        886        887        581        580        887        888        582        581        888        889        583        582        889        890        584        583        890        891        585        584        891        892        586        585        892        893        587        586        893        894        588        587        894        895        589        588        895        896        590        589        896        897        591        590        897        898        592        591        898        899        593        592        899        900        594        593        901        902        885        884        902        903        886        885        903        904        887        886        904        905        888        887        905        906        889        888        906        907        890        889        907        908        891        890        908        909        892        891        909        910        893        892        910        911        894        893        911        912        895        894        912        913        896        895        913        914        897        896        914        915        898        897        915        916        899        898        916        917        900        899        918        919        902        901        919        920        903        902        920        921        904        903        921        922        905        904        922        923        906        905        923        924        907        906        924        925        908        907        925        926        909        908        926        927        910        909        927        928        911        910        928        929        912        911        929        930        913        912        930        931        914        913        931        932        915        914        932        933        916        915        933        934        917        916        935        936        919        918        936        937        920        919        937        938        921        920        938        939        922        921        939        940        923        922        940        941        924        923        941        942        925        924        942        943        926        925        943        944        927        926        944        945        928        927        945        946        929        928        946        947        930        929        947        948        931        930        948        949        932        931        949        950        933        932        950        951        934        933        952        953        936        935        953        954        937        936        954        955        938        937        955        956        939        938        956        957        940        939        957        958        941        940        958        959        942        941        959        960        943        942        960        961        944        943        961        962        945        944        962        963        946        945        963        964        947        946        964        965        948        947        965        966        949        948        966        967        950        949        967        968        951        950        969        970        953        952        970        971        954        953        971        972        955        954        972        973        956        955        973        974        957        956        974        975        958        957        975        976        959        958        976        977        960        959        977        978        961        960        978        979        962        961        979        980        963        962        980        981        964        963        981        982        965        964        982        983        966        965        983        984        967        966        984        985        968        967        986        987        970        969        987        988        971        970        988        989        972        971        989        990        973        972        990        991        974        973        991        992        975        974        992        993        976        975        993        994        977        976        994        995        978        977        995        996        979        978        996        997        980        979        997        998        981        980        998        999        982        981        999       1000        983        982       1000       1001        984        983       1001       1002        985        984       1003       1004        987        986       1004       1005        988        987       1005       1006        989        988       1006       1007        990        989       1007       1008        991        990       1008       1009        992        991       1009       1010        993        992       1010       1011        994        993       1011       1012        995        994       1012       1013        996        995       1013       1014        997        996       1014       1015        998        997       1015       1016        999        998       1016       1017       1000        999       1017       1018       1001       1000       1018       1019       1002       1001       1020       1021       1004       1003       1021       1022       1005       1004       1022       1023       1006       1005       1023       1024       1007       1006       1024       1025       1008       1007       1025       1026       1009       1008       1026       1027       1010       1009       1027       1028       1011       1010       1028       1029       1012       1011       1029       1030       1013       1012       1030       1031       1014       1013       1031       1032       1015       1014       1032       1033       1016       1015       1033       1034       1017       1016       1034       1035       1018       1017       1035       1036       1019       1018       1037       1038       1021       1020       1038       1039       1022       1021       1039       1040       1023       1022       1040       1041       1024       1023       1041       1042       1025       1024       1042       1043       1026       1025       1043       1044       1027       1026       1044       1045       1028       1027       1045       1046       1029       1028       1046       1047       1030       1029       1047       1048       1031       1030       1048       1049       1032       1031       1049       1050       1033       1032       1050       1051       1034       1033       1051       1052       1035       1034       1052       1053       1036       1035       1054       1055       1038       1037       1055       1056       1039       1038       1056       1057       1040       1039       1057       1058       1041       1040       1058       1059       1042       1041       1059       1060       1043       1042       1060       1061       1044       1043       1061       1062       1045       1044       1062       1063       1046       1045       1063       1064       1047       1046       1064       1065       1048       1047       1065       1066       1049       1048       1066       1067       1050       1049       1067       1068       1051       1050       1068       1069       1052       1051       1069       1070       1053       1052       1071       1072       1055       1054       1072       1073       1056       1055       1073       1074       1057       1056       1074       1075       1058       1057       1075       1076       1059       1058       1076       1077       1060       1059       1077       1078       1061       1060       1078       1079       1062       1061       1079       1080       1063       1062       1080       1081       1064       1063       1081       1082       1065       1064       1082       1083       1066       1065       1083       1084       1067       1066       1084       1085       1068       1067       1085       1086       1069       1068       1086       1087       1070       1069       1088       1089       1072       1071       1089       1090       1073       1072       1090       1091       1074       1073       1091       1092       1075       1074       1092       1093       1076       1075       1093       1094       1077       1076       1094       1095       1078       1077       1095       1096       1079       1078       1096       1097       1080       1079       1097       1098       1081       1080       1098       1099       1082       1081       1099       1100       1083       1082       1100       1101       1084       1083       1101       1102       1085       1084       1102       1103       1086       1085       1103       1104       1087       1086       1105       1106       1089       1088       1106       1107       1090       1089       1107       1108       1091       1090       1108       1109       1092       1091       1109       1110       1093       1092       1110       1111       1094       1093       1111       1112       1095       1094       1112       1113       1096       1095       1113       1114       1097       1096       1114       1115       1098       1097       1115       1116       1099       1098       1116       1117       1100       1099       1117       1118       1101       1100       1118       1119       1102       1101       1119       1120       1103       1102       1120       1121       1104       1103       1122       1123       1106       1105       1123       1124       1107       1106       1124       1125       1108       1107       1125       1126       1109       1108       1126       1127       1110       1109       1127       1128       1111       1110       1128       1129       1112       1111       1129       1130       1113       1112       1130       1131       1114       1113       1131       1132       1115       1114       1132       1133       1116       1115       1133       1134       1117       1116       1134       1135       1118       1117       1135       1136       1119       1118       1136       1137       1120       1119       1137       1138       1121       1120        272        273       1123       1122        273        274       1124       1123        274        275       1125       1124        275        276       1126       1125        276        277       1127       1126        277        278       1128       1127        278        279       1129       1128        279        280       1130       1129        280        281       1131       1130        281        282       1132       1131        282        283       1133       1132        283        284       1134       1133        284        285       1135       1134        285        286       1136       1135        286        287       1137       1136        287        288       1138       1137 </DataArray>
<DataArray type="Int32"                                    Name="offsets"                                                      NumberOfComponents=" 1" format="ascii">
         4          8         12         16         20         24         28         32         36         40         44         48         52         56         60         64         68         72         76         80         84         88         92         96        100        104        108        112        116        120        124        128        132        136        140        144        148        152        156        160        164        168        172        176        180        184        188        192        196        200        204        208        212        216        220        224        228        232        236        240        244        248        252        256        260        264        268        272        276        280        284        288        292        296        300        304        308        312        316        320        324        328        332        336        340        344        348        352        356        360        364        368        372        376        380        384        388        392        396        400        404        408        412        416        420        424        428        432        436        440        444        448        452        456        460        464        468        472        476        480        484        488        492        496        500        504        508        512        516        520        524        528        532        536        540        544        548        552        556        560        564        568        572        576        580        584        588        592        596        600        604        608        612        616        620        624        628        632        636        640        644        648        652        656        660        664        668        672        676        680        684        688        692        696        700        704        708        712        716        720        724        728        732        736        740        744        748        752        756        760        764        768        772        776        780        784        788        792        796        800        804        808        812        816        820        824        828        832        836        840        844        848        852        856        860        864        868        872        876        880        884        888        892        896        900        904        908        912        916        920        924        928        932        936        940        944        948        952        956        960        964        968        972        976        980        984        988        992        996       1000       1004       1008       1012       1016       1020       1024       1028       1032       1036       1040       1044       1048       1052       1056       1060       1064       1068       1072       1076       1080       1084       1088       1092       1096       1100       1104       1108       1112       1116       1120       1124       1128       1132       1136       1140       1144       1148       1152       1156       1160       1164       1168       1172       1176       1180       1184       1188       1192       1196       1200       1204       1208       1212       1216       1220       1224       1228       1232       1236       1240       1244       1248       1252       1256       1260       1264       1268       1272       1276       1280       1284       1288       1292       1296       1300       1304       1308       1312       1316       1320       1324       1328       1332       1336       1340       1344       1348       1352       1356       1360       1364       1368       1372       1376       1380       1384       1388       1392       1396       1400       1404       1408       1412       1416       1420       1424       1428       1432       1436       1440       1444       1448       1452       1456       1460       1464       1468       1472       1476       1480       1484       1488       1492       1496       1500       1504       1508       1512       1516       1520       1524       1528       1532       1536       1540       1544       1548       1552       1556       1560       1564       1568       1572       1576       1580       1584       1588       1592       1596       1600       1604       1608       1612       1616       1620       1624       1628       1632       1636       1640       1644       1648       1652       1656       1660       1664       1668       1672       1676       1680       1684       1688       1692       1696       1700       1704       1708       1712       1716       1720       1724       1728       1732       1736       1740       1744       1748       1752       1756       1760       1764       1768       1772       1776       1780       1784       1788       1792       1796       1800       1804       1808       1812       1816       1820       1824       1828       1832       1836       1840       1844       1848       1852       1856       1860       1864       1868       1872       1876       1880       1884       1888       1892       1896       1900       1904       1908       1912       1916       1920       1924       1928       1932       1936       1940       1944       1948       1952       1956       1960       1964       1968       1972       1976       1980       1984       1988       1992       1996       2000       2004       2008       2012       2016       2020       2024       2028       2032       2036       2040       2044       2048       2052       2056       2060       2064       2068       2072       2076       2080       2084       2088       2092       2096       2100       2104       2108       2112       2116       2120       2124       2128       2132       2136       2140       2144       2148       2152       2156       2160       2164       2168       2172       2176       2180       2184       2188       2192       2196       2200       2204       2208       2212       2216       2220       2224       2228       2232       2236       2240       2244       2248       2252       2256       2260       2264       2268       2272       2276       2280       2284       2288       2292       2296       2300       2304       2308       2312       2316       2320       2324       2328       2332       2336       2340       2344       2348       2352       2356       2360       2364       2368       2372       2376       2380       2384       2388       2392       2396       2400       2404       2408       2412       2416       2420       2424       2428       2432       2436       2440       2444       2448       2452       2456       2460       2464       2468       2472       2476       2480       2484       2488       2492       2496       2500       2504       2508       2512       2516       2520       2524       2528       2532       2536       2540       2544       2548       2552       2556       2560       2564       2568       2572       2576       2580       2584       2588       2592       2596       2600       2604       2608       2612       2616       2620       2624       2628       2632       2636       2640       2644       2648       2652       2656       2660       2664       2668       2672       2676       2680       2684       2688       2692       2696       2700       2704       2708       2712       2716       2720       2724       2728       2732       2736       2740       2744       2748       2752       2756       2760       2764       2768       2772       2776       2780       2784       2788       2792       2796       2800       2804       2808       2812       2816       2820       2824       2828       2832       2836       2840       2844       2848       2852       2856       2860       2864       2868       2872       2876       2880       2884       2888       2892       2896       2900       2904       2908       2912       2916       2920       2924       2928       2932       2936       2940       2944       2948       2952       2956       2960       2964       2968       2972       2976       2980       2984       2988       2992       2996       3000       3004       3008       3012       3016       3020       3024       3028       3032       3036       3040       3044       3048       3052       3056       3060       3064       3068       3072       3076       3080       3084       3088       3092       3096       3100       3104       3108       3112       3116       3120       3124       3128       3132       3136       3140       3144       3148       3152       3156       3160       3164       3168       3172       3176       3180       3184       3188       3192       3196       3200       3204       3208       3212       3216       3220       3224       3228       3232       3236       3240       3244       3248       3252       3256       3260       3264       3268       3272       3276       3280       3284       3288       3292       3296       3300       3304       3308       3312       3316       3320       3324       3328       3332       3336       3340       3344       3348       3352       3356       3360       3364       3368       3372       3376       3380       3384       3388       3392       3396       3400       3404       3408       3412       3416       3420       3424       3428       3432       3436       3440       3444       3448       3452       3456       3460       3464       3468       3472       3476       3480       3484       3488       3492       3496       3500       3504       3508       3512       3516       3520       3524       3528       3532       3536       3540       3544       3548       3552       3556       3560       3564       3568       3572       3576       3580       3584       3588       3592       3596       3600       3604       3608       3612       3616       3620       3624       3628       3632       3636       3640       3644       3648       3652       3656       3660       3664       3668       3672       3676       3680       3684       3688       3692       3696       3700       3704       3708       3712       3716       3720       3724       3728       3732       3736       3740       3744       3748       3752       3756       3760       3764       3768       3772       3776       3780       3784       3788       3792       3796       3800       3804       3808       3812       3816       3820       3824       3828       3832       3836       3840       3844       3848       3852       3856       3860       3864       3868       3872       3876       3880       3884       3888       3892       3896       3900       3904       3908       3912       3916       3920       3924       3928       3932       3936       3940       3944       3948       3952       3956       3960       3964       3968       3972       3976       3980       3984       3988       3992       3996       4000       4004       4008       4012       4016       4020       4024       4028       4032       4036       4040       4044       4048       4052       4056       4060       4064       4068       4072       4076       4080       4084       4088       4092       4096 </DataArray>
<DataArray type="UInt8"                                    Name="types"                                                      NumberOfComponents=" 1" format="ascii">
         9          9          9          9          9          9          9          9          9          9          9          9          9          9          9          9          9          9          9          9          9          9          9          9          9          9          9          9          9          9          9          9          9          9          9          9          9          9          9          9          9          9          9          9          9          9          9          9          9          9          9          9          9          9          9          9          9          9          9          9          9          9          9          9          9          9          9          9          9          9          9          9          9          9          9          9          9          9          9          9          9          9          9          9          9          9          9          9          9          9          9          9          9          9          9          9          9          9          9          9          9          9          9          9          9          9          9          9          9          9          9          9          9          9          9          9          9          9          9          9          9          9          9          9          9          9          9          9          9          9          9          9          9          9          9          9          9          9          9          9          9          9          9          9          9          9          9          9          9          9          9          9          9          9          9          9          9          9          9          9          9          9          9          9          9          9          9          9          9          9          9          9          9          9          9          9          9          9          9          9          9          9          9          9          9          9          9          9          9          9          9          9          9          9          9          9          9          9          9          9          9          9          9          9          9          9          9          9          9          9          9          9          9          9          9          9          9          9          9          9          9          9          9          9          9          9          9          9          9          9          9          9          9          9          9          9          9          9          9          9          9          9          9          9          9          9          9          9          9          9          9          9          9          9          9          9          9          9          9          9          9          9          9          9          9          9          9          9          9          9          9          9          9          9          9          9          9          9          9          9          9          9          9          9          9          9          9          9          9          9          9          9          9          9          9          9          9          9          9          9          9          9          9          9          9          9          9          9          9          9          9          9          9          9          9          9          9          9          9          9          9          9          9          9          9          9          9          9          9          9          9          9          9          9          9          9          9          9          9          9          9          9          9          9          9          9          9          9          9          9          9          9          9          9          9          9          9          9          9          9          9          9          9          9          9          9          9          9          9          9          9          9          9          9          9          9          9          9          9          9          9          9          9          9          9          9          9          9          9          9          9          9          9          9          9          9          9          9          9          9          9          9          9          9          9          9          9          9          9          9          9          9          9          9          9          9          9          9          9          9          9          9          9          9          9          9          9          9          9          9          9          9          9          9          9          9          9          9          9          9          9          9          9          9          9          9          9          9          9          9          9          9          9          9          9          9          9          9          9          9          9          9          9          9          9          9          9          9          9          9          9          9          9          9          9          9          9          9          9          9          9          9          9          9          9          9          9          9          9          9          9          9          9          9          9          9          9          9          9          9          9          9          9          9          9          9          9          9          9          9          9          9          9          9          9          9          9          9          9          9          9          9          9          9          9          9          9          9          9          9          9          9          9          9          9          9          9          9          9          9          9          9          9          9          9          9          9          9          9          9          9          9          9          9          9          9          9          9          9          9          9          9          9          9          9          9          9          9          9          9          9          9          9          9          9          9          9          9          9          9          9          9          9          9          9          9          9          9          9          9          9          9          9          9          9          9          9          9          9          9          9          9          9          9          9          9          9          9          9          9          9          9          9          9          9          9          9          9          9          9          9          9          9          9          9          9          9          9          9          9          9          9          9          9          9          9          9          9          9          9          9          9          9          9          9          9          9          9          9          9          9          9          9          9          9          9          9          9          9          9          9          9          9          9          9          9          9          9          9          9          9          9          9          9          9          9          9          9          9          9          9          9          9          9          9          9          9          9          9          9          9          9          9          9          9          9          9          9          9          9          9          9          9          9          9          9          9          9          9          9          9          9          9          9          9          9          9          9          9          9          9          9          9          9          9          9          9          9          9          9          9          9          9          9          9          9          9          9          9          9          9          9          9          9          9          9          9          9          9          9          9          9          9          9          9          9          9          9          9          9          9          9          9          9          9          9          9          9          9          9          9          9          9          9          9          9          9          9          9          9          9          9          9          9          9          9          9          9          9          9          9          9          9          9          9          9          9          9          9          9          9          9          9          9          9          9          9          9          9          9          9          9          9          9          9          9          9          9          9          9          9          9          9          9          9          9          9          9          9          9          9          9          9          9          9          9          9          9          9          9          9          9          9          9          9          9          9          9          9          9          9          9          9          9          9          9          9          9          9          9          9          9          9          9          9          9          9          9          9          9          9          9          9          9          9          9          9          9          9          9          9          9          9          9          9          9          9          9          9          9          9          9          9          9          9          9          9          9          9          9          9          9          9          9          9          9          9          9          9          9          9          9          9          9          9          9          9          9          9          9          9          9          9          9          9          9          9          9          9          9          9          9          9          9          9          9          9          9          9          9          9          9          9          9          9          9          9          9          9          9          9          9          9          9          9          9          9          9          9          9          9          9          9          9          9          9          9          9          9          9          9          9          9          9          9          9          9          9          9          9          9          9          9          9          9          9          9          9          9          9          9          9          9          9          9          9          9          9          9          9          9          9          9          9          9          9          9          9          9          9          9          9          9          9          9          9          9          9          9          9          9          9          9          9 </DataArray>
</Cells>
<CellData>
<DataArray type="Int32"                                    Name="material"                                                      NumberOfComponents=" 1" format="ascii">
         1          1          1          1          1          1          1          1          1          1          1          1          1          1          1          1          1          1          1          1          1          1          1          1          1          1          1          1          1          1          1          1          1          1          1          1          1          1          1          1          1          1          1          1          1          1          1          1          1          1          1          1          1          1          1          1          1          1          1          1          1          1          1          1          1          1          1          1          1          1          1          1          1          1          1          1          1          1          1          1          1          1          1          1          1          1          1          1          1          1          1          1          1          1          1          1          1          1          1          1          1          1          1          1          1          1          1          1          1          1          1          1          1          1          1          1          1          1          1          1          1          1          1          1          1          1          1          1          1          1          1          1          1          1          1          1          1          1          1          1          1          1          1          1          1          1          1          1          1          1          1          1          1          1          1          1          1          1          1          1          1          1          1          1          1          1          1          1          1          1          1          1          1          1          1          1          1          1          1          1          1          1          1          1          1          1          1          1          1          1          1          1          1          1          1          1          1          1          1          1          1          1          1          1          1          1          1          1          1          1          1          1          1          1          1          1          1          1          1          1          1          1          1          1          1          1          1          1          1          1          1          1          1          1          1          1          1          1          1          1          1          1          1          1          1          1          1          1          1          1          1          1          1          1          1          1          1          1          1          1          1          1          1          1          1          1          1          1          1          1          1          1          1          1          1          1          1          1          1          1          1          1          1          1          1          1          1          1          1          1          1          1          1          1          1          1          1          1          1          1          1          1          1          1          1          1          1          1          1          1          1          1          1          1          1          1          1          1          1          1          1          1          1          1          1          1          1          1          1          1          1          1          1          1          1          1          1          1          1          1          1          1          1          1          1          1          1          1          1          1          1          1          1          1          1          1          1          1          1          1          1          1          1          1          1          1          1          1          1          1          1          1          1          1          1          1          1          1          1          1          1          1          1          1          1          1          1          1          1          1          1          1          1          1          1          1          1          1          1          1          1          1          1          1          1          1          1          1          1          1          1          1          1          1          1          1          1          1          1          1          1          1          1          1          1          1          1          1          1          1          1          1          1          1          1          1          1          1          1          1          1          1          1          1          1          1          1          1          1          1          1          1          1          1          1          1          1          1          1          1          1          1          1          1          1          1          1          1          1          1          1          1          1          1          1          1          1          1          1          1          1          1          1          1          1          1          1          1          1          1          1          1          1          1          1          1          1          1          1          1          1          1          1          1          1          1          1          1          1          1          1          1          1          1          1          1          1          1          1          1          1          1          1          1          1          1          1          1          1          1          1          1          1          1          1          1          1          1          1          1          1          1          1          1          1          1          1          1          1          1          1          1          1          1          1          1          1          1          1          1          1          1          1          1          1          1          1          1          1          1          1          1          1          1          1          1          1          1          1          1          1          1          1          1          1          1          1          1          1          1          1          1          1          1          1          1          1          1          1          1          1          1          1          1          1          1          1          1          1          1          1          1          1          1          1          1          1          1          1          1          1          1          1          1          1          1          1          1          1          1          1          1          1          1          1          1          1          1          1          1          1          1          1          1          1          1          1          1          1          1          1          1          1          1          1          1          1          1          1          1          1          1          1          1          1          1          1          1          1          1          1          1          1          1          1          1          1          1          1          1          1          1          1          1          1          1          1          1          1          1          1          1          1          1          1          1          1          1          1          1          1          1          1          1          1          1          1          1          1          1          1          1          1          1          1          1          1          1          1          1          1          1          1          1          1          1          1          1          1          1          1          1          1          1          1          1          1          1          1          1          1          1          1          1          1          1          1          1          1          1          1          1          1          1          1          1          1          1          1          1          1          1          1          1          1          1          1          1          1          1          1          1          1          1          1          1          1          1          1          1          1          1          1          1          1          1          1          1          1          1          1          1          1          1          1          1          1          1          1          1          1          1          1          1          1          1          1          1          1          1          1          1          1          1          1          1          1          1          1          1          1          1          1          1          1          1          1          1          1          1          1          1          1          1          1          1          1          1          1          1          1          1          1          1          1          1          1          1          1          1          1          1          1          1          1          1          1          1          1          1          1          1          1          1          1          1          1          1          1          1          1          1          1          1          1          1          1          1          1          1          1          1          1          1          1          1          1          1          1          1          1          1          1          1          1          1          1          1          1          1          1          1          1          1          1          1          1          1          1          1          1          1          1          1          1          1          1          1          1          1          1          1          1          1          1          1          1          1          1          1          1          1          1          1          1          1          1          1          1          1          1          1          1          1          1          1          1          1          1          1          1          1          1          1          1          1          1          1          1          1          1          1          1          1          1          1          1          1          1          1          1          1          1          1          1          1          1          1          1          1          1          1          1          1          1          1          1          1          1          1          1          1          1          1          1          1          1          1          1          1          1          1          1          1          1          1          1          1          1          1          1          1          1          1          1          1          1          1          1          1          1          1          1          1 </DataArray>
</CellData>
<PointData>
<DataArray type="Float64"                                    Name="u"                                                      NumberOfComponents=" 3" format="ascii">
             -0.000896749              -0.000000000               0.999999985              -0.000947007              -0.000000000               0.999999985              -0.000968613              -0.000000000               0.999999985              -0.000981114              -0.000000000               0.999999985              -0.000991443               0.000000000               0.999999985              -0.001002233              -0.000000000               0.999999985              -0.001014036              -0.000000000               0.999999985              -0.001026768              -0.000000000               0.999999985              -0.001040071               0.000000000               0.999999985              -0.001053512               0.000000000               0.999999985              -0.001066695               0.000000000               0.999999985              -0.001079217               0.000000000               0.999999985              -0.001090808               0.000000000               0.999999985              -0.001101199              -0.000000000               0.999999985              -0.001109987               0.000000000               0.999999985              -0.001116487              -0.000000000               0.999999985              -0.001119896              -0.000000000               0.999999985              -0.000891690               0.000131084               0.999999985              -0.000937765               0.000104074               0.999999985              -0.000956638               0.000091943               0.999999985              -0.000967326               0.000086949               0.999999985              -0.000976394               0.000085593               0.999999985              -0.000986063               0.000085939               0.999999985              -0.000996812               0.000086825               0.999999985              -0.001008474               0.000087282               0.999999985              -0.001020558               0.000086913               0.999999985              -0.001032593               0.000085207               0.999999985              -0.001044165               0.000082036               0.999999985              -0.001054841               0.000077354               0.999999985              -0.001064337               0.000070844               0.999999985              -0.001072445               0.000062076               0.999999985              -0.001078802               0.000050200               0.999999985              -0.001082860               0.000034275               0.999999985              -0.001084003               0.000012944               0.999999985              -0.000876687               0.000260967               0.999999985              -0.000910361               0.000207842               0.999999985              -0.000921605               0.000184771               0.999999985              -0.000927466               0.000175941               0.999999985              -0.000933143               0.000174015               0.999999985              -0.000939983               0.000175247               0.999999985              -0.000947994               0.000177155               0.999999985              -0.000956651               0.000178434               0.999999985              -0.000965392               0.000177768               0.999999985              -0.000973678               0.000174757               0.999999985              -0.000981082               0.000168727               0.999999985              -0.000987099               0.000159687               0.999999985              -0.000991408               0.000147437               0.999999985              -0.000993823               0.000131108               0.999999985              -0.000993982               0.000109465               0.999999985              -0.000991639               0.000081253               0.999999985              -0.000986790               0.000045236               0.999999985              -0.000852119               0.000388452               0.999999985              -0.000866216               0.000310963               0.999999985              -0.000866348               0.000279412               0.999999985              -0.000865632               0.000268606               0.999999985              -0.000866937               0.000267340               0.999999985              -0.000870229               0.000270018               0.999999985              -0.000874639               0.000273510               0.999999985              -0.000879313               0.000275630               0.999999985              -0.000883471               0.000275177               0.999999985              -0.000886533               0.000271032               0.999999985              -0.000887858               0.000262716               0.999999985              -0.000887102               0.000250269               0.999999985              -0.000884117               0.000233436               0.999999985              -0.000878597               0.000211338               0.999999985              -0.000870504               0.000182951               0.999999985              -0.000859899               0.000147604               0.999999985              -0.000847088               0.000104656               0.999999985              -0.000818319               0.000512446               0.999999985              -0.000807617               0.000413397               0.999999985              -0.000795435               0.000376365               0.999999985              -0.000788198               0.000365583               0.999999985              -0.000785416               0.000366145               0.999999985              -0.000785238               0.000370940               0.999999985              -0.000786038               0.000376137               0.999999985              -0.000786409               0.000379397               0.999999985              -0.000785336               0.000379007               0.999999985              -0.000781976               0.000373929               0.999999985              -0.000776029               0.000363786               0.999999985              -0.000767318               0.000348757               0.999999985              -0.000755623               0.000328697               0.999999985              -0.000740946               0.000303031               0.999999985              -0.000723419               0.000271226               0.999999985              -0.000703477               0.000233402               0.999999985              -0.000681908               0.000189995               0.999999985              -0.000776105               0.000631733               0.999999985              -0.000737571               0.000515322               0.999999985              -0.000713963               0.000475812               0.999999985              -0.000701733               0.000466676               0.999999985              -0.000696069               0.000469865               0.999999985              -0.000693333               0.000477054               0.999999985              -0.000690807               0.000484015               0.999999985              -0.000686765               0.000488052               0.999999985              -0.000679964               0.000487442               0.999999985              -0.000669649               0.000481288               0.999999985              -0.000655731               0.000469753               0.999999985              -0.000638178               0.000452841               0.999999985              -0.000616977               0.000430838               0.999999985              -0.000592534               0.000403464               0.999999985              -0.000565277               0.000370638               0.999999985              -0.000535958               0.000333419               0.999999985              -0.000505387               0.000293032               0.999999985              -0.000726314               0.000745217               0.999999985              -0.000659643               0.000616762               0.999999985              -0.000627341               0.000577272               0.999999985              -0.000612583               0.000570794               0.999999985              -0.000605827               0.000576760               0.999999985              -0.000601314               0.000586225               0.999999985              -0.000595691               0.000594504               0.999999985              -0.000587029               0.000598943               0.999999985              -0.000573955               0.000597786               0.999999985              -0.000555966               0.000590605               0.999999985              -0.000533234               0.000577900               0.999999985              -0.000505990               0.000559823               0.999999985              -0.000474650               0.000536781               0.999999985              -0.000439940               0.000508950               0.999999985              -0.000402670               0.000476696               0.999999985              -0.000363625               0.000441549               0.999999985              -0.000323523               0.000404877               0.999999985              -0.000669885               0.000851845               0.999999985              -0.000577459               0.000717547               0.999999985              -0.000540360               0.000679811               0.999999985              -0.000526024               0.000676072               0.999999985              -0.000519486               0.000684538               0.999999985              -0.000513694               0.000695813               0.999999985              -0.000504928               0.000704955               0.999999985              -0.000490914               0.000709356               0.999999985              -0.000470641               0.000707454               0.999999985              -0.000444057               0.000699317               0.999999985              -0.000411597               0.000685755               0.999999985              -0.000373907               0.000666962               0.999999985              -0.000331839               0.000643377               0.999999985              -0.000286445               0.000615665               0.999999985              -0.000238652               0.000584747               0.999999985              -0.000189244               0.000552280               0.999999985              -0.000139127               0.000519341               0.999999985              -0.000608817               0.000949558               0.999999985              -0.000493898               0.000817520               0.999999985              -0.000457456               0.000781874               0.999999985              -0.000445467               0.000780373               0.999999985              -0.000439883               0.000791043               0.999999985              -0.000432916               0.000803717               0.999999985              -0.000420347               0.000813252               0.999999985              -0.000400036               0.000817142               0.999999985              -0.000371410               0.000814510               0.999999985              -0.000335144               0.000805725               0.999999985              -0.000291930               0.000791319               0.999999985              -0.000242915               0.000771727               0.999999985              -0.000189266               0.000747888               0.999999985              -0.000132141               0.000720990               0.999999985              -0.000072863               0.000692587               0.999999985              -0.000012656               0.000663875               0.999999985               0.000047627               0.000635269               0.999999985              -0.000545615               0.001042240               0.999999985              -0.000423701               0.000929779               0.999999985              -0.000384578               0.000890364               0.999999985              -0.000371994               0.000884151               0.999999985              -0.000367260               0.000892046               0.999999985              -0.000362373               0.000904726               0.999999985              -0.000353172               0.000916828               0.999999985              -0.000337092               0.000925658               0.999999985              -0.000313190               0.000929849               0.999999985              -0.000281852               0.000929104               0.999999985              -0.000243473               0.000923559               0.999999985              -0.000198888               0.000913427               0.999999985              -0.000148922               0.000899281               0.999999985              -0.000094007               0.000881932               0.999999985              -0.000035304               0.000862610               0.999999985               0.000025332               0.000842627               0.999999985               0.000086439               0.000822583               0.999999985              -0.000476693               0.001126854               0.999999985              -0.000356246               0.001038622               0.999999985              -0.000314607               0.001001890               0.999999985              -0.000300607               0.000993240               0.999999985              -0.000295783               0.000999289               0.999999985              -0.000292182               0.001012031               0.999999985              -0.000285501               0.001026655               0.999999985              -0.000273114               0.001039980               0.999999985              -0.000253801               0.001050293               0.999999985              -0.000227417               0.001056968               0.999999985              -0.000194105               0.001059674               0.999999985              -0.000154280               0.001058458               0.999999985              -0.000108372               0.001053543               0.999999985              -0.000056653               0.001045354               0.999999985               0.000000275               0.001034758               0.999999985               0.000061054               0.001022997               0.999999985               0.000123719               0.001011029               0.999999985              -0.000403639               0.001201145               0.999999985              -0.000291598               0.001140596               0.999999985              -0.000249350               0.001111221               0.999999985              -0.000233824               0.001103401               0.999999985              -0.000228243               0.001109081               0.999999985              -0.000224965               0.001122546               0.999999985              -0.000220091               0.001139564               0.999999985              -0.000210774               0.001157167               0.999999985              -0.000195557               0.001173384               0.999999985              -0.000174120               0.001187142               0.999999985              -0.000146128               0.001197887               0.999999985              -0.000111386               0.001205351               0.999999985              -0.000070431               0.001209434               0.999999985              -0.000023020               0.001210325               0.999999985               0.000031239               0.001208593               0.999999985               0.000091403               0.001205148               0.999999985               0.000155867               0.001200990               0.999999985              -0.000327142               0.001263833               0.999999985              -0.000229718               0.001231496               0.999999985              -0.000189777               0.001212778               0.999999985              -0.000173522               0.001208773               0.999999985              -0.000167001               0.001216075               0.999999985              -0.000163661               0.001231037               0.999999985              -0.000159795               0.001250624               0.999999985              -0.000152881               0.001272236               0.999999985              -0.000141286               0.001294054               0.999999985              -0.000124488               0.001314722               0.999999985              -0.000101877               0.001333457               0.999999985              -0.000073137               0.001349666               0.999999985              -0.000038081               0.001362925               0.999999985               0.000003815               0.001373286               0.999999985               0.000053341               0.001380725               0.999999985               0.000110779               0.001385965               0.999999985               0.000175498               0.001389885               0.999999985              -0.000247871               0.001313735               0.999999985              -0.000170298               0.001307087               0.999999985              -0.000135976               0.001300528               0.999999985              -0.000120704               0.001302326               0.999999985              -0.000114011               0.001312737               0.999999985              -0.000110541               0.001330078               0.999999985              -0.000107329               0.001352390               0.999999985              -0.000102255               0.001377807               0.999999985              -0.000093776               0.001404669               0.999999985              -0.000081401               0.001431684               0.999999985              -0.000064525               0.001457851               0.999999985              -0.000042447               0.001482353               0.999999985              -0.000014501               0.001504682               0.999999985               0.000019935               0.001524588               0.999999985               0.000061894               0.001541887               0.999999985               0.000112701               0.001556639               0.999999985               0.000173346               0.001569288               0.999999985              -0.000166446               0.001350033               0.999999985              -0.000112606               0.001363891               0.999999985              -0.000087321               0.001368463               0.999999985              -0.000075315               0.001376345               0.999999985              -0.000069673               0.001390427               0.999999985              -0.000066678               0.001410448               0.999999985              -0.000064160               0.001435396               0.999999985              -0.000060663               0.001463941               0.999999985              -0.000055115               0.001494800               0.999999985              -0.000047011               0.001526949               0.999999985              -0.000035902               0.001559358               0.999999985              -0.000020977               0.001591152               0.999999985              -0.000001457               0.001621711               0.999999985               0.000023337               0.001650417               0.999999985               0.000054309               0.001677020               0.999999985               0.000092968               0.001701168               0.999999985               0.000141327               0.001722488               0.999999985              -0.000083567               0.001372126               0.999999985              -0.000056014               0.001399076               0.999999985              -0.000042618               0.001411384               0.999999985              -0.000035975               0.001423833               0.999999985              -0.000032723               0.001440807               0.999999985              -0.000030974               0.001463004               0.999999985              -0.000029520               0.001489944               0.999999985              -0.000027683               0.001520669               0.999999985              -0.000024892               0.001554121               0.999999985              -0.000021079               0.001589511               0.999999985              -0.000015498               0.001625971               0.999999985              -0.000007851               0.001662769               0.999999985               0.000002142               0.001699155               0.999999985               0.000015095               0.001734367               0.999999985               0.000031651               0.001767927               0.999999985               0.000052763               0.001799187               0.999999985               0.000079858               0.001827279               0.999999985               0.000000000               0.001379575               0.999999985              -0.000000000               0.001410965               0.999999985               0.000000000               0.001426027               0.999999985               0.000000000               0.001440211               0.999999985               0.000000000               0.001458231               0.999999985               0.000000000               0.001481270               0.999999985               0.000000000               0.001508925               0.999999985              -0.000000000               0.001540365               0.999999985              -0.000000000               0.001574837               0.999999985              -0.000000000               0.001611497               0.999999985               0.000000000               0.001649437               0.999999985              -0.000000000               0.001687911               0.999999985              -0.000000000               0.001726281               0.999999985               0.000000000               0.001763944               0.999999985               0.000000000               0.001800123               0.999999985               0.000000000               0.001833791               0.999999985               0.000000000               0.001864203               0.999999985              -0.000896749              -0.000000000               0.999999985              -0.000947007              -0.000000000               0.999999985              -0.000968613              -0.000000000               0.999999985              -0.000981114              -0.000000000               0.999999985              -0.000991443               0.000000000               0.999999985              -0.001002233              -0.000000000               0.999999985              -0.001014036              -0.000000000               0.999999985              -0.001026768              -0.000000000               0.999999985              -0.001040071               0.000000000               0.999999985              -0.001053512               0.000000000               0.999999985              -0.001066695               0.000000000               0.999999985              -0.001079217               0.000000000               0.999999985              -0.001090808               0.000000000               0.999999985              -0.001101199              -0.000000000               0.999999985              -0.001109987               0.000000000               0.999999985              -0.001116487              -0.000000000               0.999999985              -0.001119896              -0.000000000               0.999999985              -0.000891690              -0.000131084               0.999999985              -0.000937765              -0.000104074               0.999999985              -0.000956638              -0.000091943               0.999999985              -0.000967326              -0.000086949               0.999999985              -0.000976394              -0.000085593               0.999999985              -0.000986063              -0.000085939               0.999999985              -0.000996812              -0.000086825               0.999999985              -0.001008474              -0.000087282               0.999999985              -0.001020558              -0.000086913               0.999999985              -0.001032593              -0.000085207               0.999999985              -0.001044165              -0.000082036               0.999999985              -0.001054841              -0.000077354               0.999999985              -0.001064337              -0.000070844               0.999999985              -0.001072445              -0.000062076               0.999999985              -0.001078802              -0.000050200               0.999999985              -0.001082860              -0.000034275               0.999999985              -0.001084003              -0.000012944               0.999999985              -0.000876687              -0.000260967               0.999999985              -0.000910361              -0.000207842               0.999999985              -0.000921605              -0.000184771               0.999999985              -0.000927466              -0.000175941               0.999999985              -0.000933143              -0.000174015               0.999999985              -0.000939983              -0.000175247               0.999999985              -0.000947994              -0.000177155               0.999999985              -0.000956651              -0.000178434               0.999999985              -0.000965392              -0.000177768               0.999999985              -0.000973678              -0.000174757               0.999999985              -0.000981082              -0.000168727               0.999999985              -0.000987099              -0.000159687               0.999999985              -0.000991408              -0.000147437               0.999999985              -0.000993823              -0.000131108               0.999999985              -0.000993982              -0.000109465               0.999999985              -0.000991639              -0.000081253               0.999999985              -0.000986790              -0.000045236               0.999999985              -0.000852119              -0.000388452               0.999999985              -0.000866216              -0.000310963               0.999999985              -0.000866348              -0.000279412               0.999999985              -0.000865632              -0.000268606               0.999999985              -0.000866937              -0.000267340               0.999999985              -0.000870229              -0.000270018               0.999999985              -0.000874639              -0.000273510               0.999999985              -0.000879313              -0.000275630               0.999999985              -0.000883471              -0.000275177               0.999999985              -0.000886533              -0.000271032               0.999999985              -0.000887858              -0.000262716               0.999999985              -0.000887102              -0.000250269               0.999999985              -0.000884117              -0.000233436               0.999999985              -0.000878597              -0.000211338               0.999999985              -0.000870504              -0.000182951               0.999999985              -0.000859899              -0.000147604               0.999999985              -0.000847088              -0.000104656               0.999999985              -0.000818319              -0.000512446               0.999999985              -0.000807617              -0.000413397               0.999999985              -0.000795435              -0.000376365               0.999999985              -0.000788198              -0.000365583               0.999999985              -0.000785416              -0.000366145               0.999999985              -0.000785238              -0.000370940               0.999999985              -0.000786038              -0.000376137               0.999999985              -0.000786409              -0.000379397               0.999999985              -0.000785336              -0.000379007               0.999999985              -0.000781976              -0.000373929               0.999999985              -0.000776029              -0.000363786               0.999999985              -0.000767318              -0.000348757               0.999999985              -0.000755623              -0.000328697               0.999999985              -0.000740946              -0.000303031               0.999999985              -0.000723419              -0.000271226               0.999999985              -0.000703477              -0.000233402               0.999999985              -0.000681908              -0.000189995               0.999999985              -0.000776105              -0.000631733               0.999999985              -0.000737571              -0.000515322               0.999999985              -0.000713963              -0.000475812               0.999999985              -0.000701733              -0.000466676               0.999999985              -0.000696069              -0.000469865               0.999999985              -0.000693333              -0.000477054               0.999999985              -0.000690807              -0.000484015               0.999999985              -0.000686765              -0.000488052               0.999999985              -0.000679964              -0.000487442               0.999999985              -0.000669649              -0.000481288               0.999999985              -0.000655731              -0.000469753               0.999999985              -0.000638178              -0.000452841               0.999999985              -0.000616977              -0.000430838               0.999999985              -0.000592534              -0.000403464               0.999999985              -0.000565277              -0.000370638               0.999999985              -0.000535958              -0.000333419               0.999999985              -0.000505387              -0.000293032               0.999999985              -0.000726314              -0.000745217               0.999999985              -0.000659643              -0.000616762               0.999999985              -0.000627341              -0.000577272               0.999999985              -0.000612583              -0.000570794               0.999999985              -0.000605827              -0.000576760               0.999999985              -0.000601314              -0.000586225               0.999999985              -0.000595691              -0.000594504               0.999999985              -0.000587029              -0.000598943               0.999999985              -0.000573955              -0.000597786               0.999999985              -0.000555966              -0.000590605               0.999999985              -0.000533234              -0.000577900               0.999999985              -0.000505990              -0.000559823               0.999999985              -0.000474650              -0.000536781               0.999999985              -0.000439940              -0.000508950               0.999999985              -0.000402670              -0.000476696               0.999999985              -0.000363625              -0.000441549               0.999999985              -0.000323523              -0.000404877               0.999999985              -0.000669885              -0.000851845               0.999999985              -0.000577459              -0.000717547               0.999999985              -0.000540360              -0.000679811               0.999999985              -0.000526024              -0.000676072               0.999999985              -0.000519486              -0.000684538               0.999999985              -0.000513694              -0.000695813               0.999999985              -0.000504928              -0.000704955               0.999999985              -0.000490914              -0.000709356               0.999999985              -0.000470641              -0.000707454               0.999999985              -0.000444057              -0.000699317               0.999999985              -0.000411597              -0.000685755               0.999999985              -0.000373907              -0.000666962               0.999999985              -0.000331839              -0.000643377               0.999999985              -0.000286445              -0.000615665               0.999999985              -0.000238652              -0.000584747               0.999999985              -0.000189244              -0.000552280               0.999999985              -0.000139127              -0.000519341               0.999999985              -0.000608817              -0.000949558               0.999999985              -0.000493898              -0.000817520               0.999999985              -0.000457456              -0.000781874               0.999999985              -0.000445467              -0.000780373               0.999999985              -0.000439883              -0.000791043               0.999999985              -0.000432916              -0.000803717               0.999999985              -0.000420347              -0.000813252               0.999999985              -0.000400036              -0.000817142               0.999999985              -0.000371410              -0.000814510               0.999999985              -0.000335144              -0.000805725               0.999999985              -0.000291930              -0.000791319               0.999999985              -0.000242915              -0.000771727               0.999999985              -0.000189266              -0.000747888               0.999999985              -0.000132141              -0.000720990               0.999999985              -0.000072863              -0.000692587               0.999999985              -0.000012656              -0.000663875               0.999999985               0.000047627              -0.000635269               0.999999985              -0.000545615              -0.001042240               0.999999985              -0.000423701              -0.000929779               0.999999985              -0.000384578              -0.000890364               0.999999985              -0.000371994              -0.000884151               0.999999985              -0.000367260              -0.000892046               0.999999985              -0.000362373              -0.000904726               0.999999985              -0.000353172              -0.000916828               0.999999985              -0.000337092              -0.000925658               0.999999985              -0.000313190              -0.000929849               0.999999985              -0.000281852              -0.000929104               0.999999985              -0.000243473              -0.000923559               0.999999985              -0.000198888              -0.000913427               0.999999985              -0.000148922              -0.000899281               0.999999985              -0.000094007              -0.000881932               0.999999985              -0.000035304              -0.000862610               0.999999985               0.000025332              -0.000842627               0.999999985               0.000086439              -0.000822583               0.999999985              -0.000476693              -0.001126854               0.999999985              -0.000356246              -0.001038622               0.999999985              -0.000314607              -0.001001890               0.999999985              -0.000300607              -0.000993240               0.999999985              -0.000295783              -0.000999289               0.999999985              -0.000292182              -0.001012031               0.999999985              -0.000285501              -0.001026655               0.999999985              -0.000273114              -0.001039980               0.999999985              -0.000253801              -0.001050293               0.999999985              -0.000227417              -0.001056968               0.999999985              -0.000194105              -0.001059674               0.999999985              -0.000154280              -0.001058458               0.999999985              -0.000108372              -0.001053543               0.999999985              -0.000056653              -0.001045354               0.999999985               0.000000275              -0.001034758               0.999999985               0.000061054              -0.001022997               0.999999985               0.000123719              -0.001011029               0.999999985              -0.000403639              -0.001201145               0.999999985              -0.000291598              -0.001140596               0.999999985              -0.000249350              -0.001111221               0.999999985              -0.000233824              -0.001103401               0.999999985              -0.000228243              -0.001109081               0.999999985              -0.000224965              -0.001122546               0.999999985              -0.000220091              -0.001139564               0.999999985              -0.000210774              -0.001157167               0.999999985              -0.000195557              -0.001173384               0.999999985              -0.000174120              -0.001187142               0.999999985              -0.000146128              -0.001197887               0.999999985              -0.000111386              -0.001205351               0.999999985              -0.000070431              -0.001209434               0.999999985              -0.000023020              -0.001210325               0.999999985               0.000031239              -0.001208593               0.999999985               0.000091403              -0.001205148               0.999999985               0.000155867              -0.001200990               0.999999985              -0.000327142              -0.001263833               0.999999985              -0.000229718              -0.001231496               0.999999985              -0.000189777              -0.001212778               0.999999985              -0.000173522              -0.001208773               0.999999985              -0.000167001              -0.001216075               0.999999985              -0.000163661              -0.001231037               0.999999985              -0.000159795              -0.001250624               0.999999985              -0.000152881              -0.001272236               0.999999985              -0.000141286              -0.001294054               0.999999985              -0.000124488              -0.001314722               0.999999985              -0.000101877              -0.001333457               0.999999985              -0.000073137              -0.001349666               0.999999985              -0.000038081              -0.001362925               0.999999985               0.000003815              -0.001373286               0.999999985               0.000053341              -0.001380725               0.999999985               0.000110779              -0.001385965               0.999999985               0.000175498              -0.001389885               0.999999985              -0.000247871              -0.001313735               0.999999985              -0.000170298              -0.001307087               0.999999985              -0.000135976              -0.001300528               0.999999985              -0.000120704              -0.001302326               0.999999985              -0.000114011              -0.001312737               0.999999985              -0.000110541              -0.001330078               0.999999985              -0.000107329              -0.001352390               0.999999985              -0.000102255              -0.001377807               0.999999985              -0.000093776              -0.001404669               0.999999985              -0.000081401              -0.001431684               0.999999985              -0.000064525              -0.001457851               0.999999985              -0.000042447              -0.001482353               0.999999985              -0.000014501              -0.001504682               0.999999985               0.000019935              -0.001524588               0.999999985               0.000061894              -0.001541887               0.999999985               0.000112701              -0.001556639               0.999999985               0.000173346              -0.001569288               0.999999985              -0.000166446              -0.001350033               0.999999985              -0.000112606              -0.001363891               0.999999985              -0.000087321              -0.001368463               0.999999985              -0.000075315              -0.001376345               0.999999985              -0.000069673              -0.001390427               0.999999985              -0.000066678              -0.001410448               0.999999985              -0.000064160              -0.001435396               0.999999985              -0.000060663              -0.001463941               0.999999985              -0.000055115              -0.001494800               0.999999985              -0.000047011              -0.001526949               0.999999985              -0.000035902              -0.001559358               0.999999985              -0.000020977              -0.001591152               0.999999985              -0.000001457              -0.001621711               0.999999985               0.000023337              -0.001650417               0.999999985               0.000054309              -0.001677020               0.999999985               0.000092968              -0.001701168               0.999999985               0.000141327              -0.001722488               0.999999985              -0.000083567              -0.001372126               0.999999985              -0.000056014              -0.001399076               0.999999985              -0.000042618              -0.001411384               0.999999985              -0.000035975              -0.001423833               0.999999985              -0.000032723              -0.001440807               0.999999985              -0.000030974              -0.001463004               0.999999985              -0.000029520              -0.001489944               0.999999985              -0.000027683              -0.001520669               0.999999985              -0.000024892              -0.001554121               0.999999985              -0.000021079              -0.001589511               0.999999985              -0.000015498              -0.001625971               0.999999985              -0.000007851              -0.001662769               0.999999985               0.000002142              -0.001699155               0.999999985               0.000015095              -0.001734367               0.999999985               0.000031651              -0.001767927               0.999999985               0.000052763              -0.001799187               0.999999985               0.000079858              -0.001827279               0.999999985               0.000000000              -0.001379575               0.999999985              -0.000000000              -0.001410965               0.999999985              -0.000000000              -0.001426027               0.999999985              -0.000000000              -0.001440211               0.999999985               0.000000000              -0.001458231               0.999999985              -0.000000000              -0.001481270               0.999999985               0.000000000              -0.001508925               0.999999985              -0.000000000              -0.001540365               0.999999985              -0.000000000              -0.001574837               0.999999985               0.000000000              -0.001611497               0.999999985              -0.000000000              -0.001649437               0.999999985               0.000000000              -0.001687911               0.999999985              -0.000000000              -0.001726281               0.999999985              -0.000000000              -0.001763944               0.999999985               0.000000000              -0.001800123               0.999999985               0.000000000              -0.001833791               0.999999985               0.000000000              -0.001864203               0.999999985               0.000896749              -0.000000000               0.999999985               0.000947007               0.000000000               0.999999985               0.000968613              -0.000000000               0.999999985               0.000981114              -0.000000000               0.999999985               0.000991443               0.000000000               0.999999985               0.001002233              -0.000000000               0.999999985               0.001014036               0.000000000               0.999999985               0.001026768               0.000000000               0.999999985               0.001040071               0.000000000               0.999999985               0.001053512               0.000000000               0.999999985               0.001066695               0.000000000               0.999999985               0.001079217               0.000000000               0.999999985               0.001090808              -0.000000000               0.999999985               0.001101199               0.000000000               0.999999985               0.001109987               0.000000000               0.999999985               0.001116487               0.000000000               0.999999985               0.001119896               0.000000000               0.999999985               0.000891690              -0.000131084               0.999999985               0.000937765              -0.000104074               0.999999985               0.000956638              -0.000091943               0.999999985               0.000967326              -0.000086949               0.999999985               0.000976394              -0.000085593               0.999999985               0.000986063              -0.000085939               0.999999985               0.000996812              -0.000086825               0.999999985               0.001008474              -0.000087282               0.999999985               0.001020558              -0.000086913               0.999999985               0.001032593              -0.000085207               0.999999985               0.001044165              -0.000082036               0.999999985               0.001054841              -0.000077354               0.999999985               0.001064337              -0.000070844               0.999999985               0.001072445              -0.000062076               0.999999985               0.001078802              -0.000050200               0.999999985               0.001082860              -0.000034275               0.999999985               0.001084003              -0.000012944               0.999999985               0.000876687              -0.000260967               0.999999985               0.000910361              -0.000207842               0.999999985               0.000921605              -0.000184771               0.999999985               0.000927466              -0.000175941               0.999999985               0.000933143              -0.000174015               0.999999985               0.000939983              -0.000175247               0.999999985               0.000947994              -0.000177155               0.999999985               0.000956651              -0.000178434               0.999999985               0.000965392              -0.000177768               0.999999985               0.000973678              -0.000174757               0.999999985               0.000981082              -0.000168727               0.999999985               0.000987099              -0.000159687               0.999999985               0.000991408              -0.000147437               0.999999985               0.000993823              -0.000131108               0.999999985               0.000993982              -0.000109465               0.999999985               0.000991639              -0.000081253               0.999999985               0.000986790              -0.000045236               0.999999985               0.000852119              -0.000388452               0.999999985               0.000866216              -0.000310963               0.999999985               0.000866348              -0.000279412               0.999999985               0.000865632              -0.000268606               0.999999985               0.000866937              -0.000267340               0.999999985               0.000870229              -0.000270018               0.999999985               0.000874639              -0.000273510               0.999999985               0.000879313              -0.000275630               0.999999985               0.000883471              -0.000275177               0.999999985               0.000886533              -0.000271032               0.999999985               0.000887858              -0.000262716               0.999999985               0.000887102              -0.000250269               0.999999985               0.000884117              -0.000233436               0.999999985               0.000878597              -0.000211338               0.999999985               0.000870504              -0.000182951               0.999999985               0.000859899              -0.000147604               0.999999985               0.000847088              -0.000104656               0.999999985               0.000818319              -0.000512446               0.999999985               0.000807617              -0.000413397               0.999999985               0.000795435              -0.000376365               0.999999985               0.000788198              -0.000365583               0.999999985               0.000785416              -0.000366145               0.999999985               0.000785238              -0.000370940               0.999999985               0.000786038              -0.000376137               0.999999985               0.000786409              -0.000379397               0.999999985               0.000785336              -0.000379007               0.999999985               0.000781976              -0.000373929               0.999999985               0.000776029              -0.000363786               0.999999985               0.000767318              -0.000348757               0.999999985               0.000755623              -0.000328697               0.999999985               0.000740946              -0.000303031               0.999999985               0.000723419              -0.000271226               0.999999985               0.000703477              -0.000233402               0.999999985               0.000681908              -0.000189995               0.999999985               0.000776105              -0.000631733               0.999999985               0.000737571              -0.000515322               0.999999985               0.000713963              -0.000475812               0.999999985               0.000701733              -0.000466676               0.999999985               0.000696069              -0.000469865               0.999999985               0.000693333              -0.000477054               0.999999985               0.000690807              -0.000484015               0.999999985               0.000686765              -0.000488052               0.999999985               0.000679964              -0.000487442               0.999999985               0.000669649              -0.000481288               0.999999985               0.000655731              -0.000469753               0.999999985               0.000638178              -0.000452841               0.999999985               0.000616977              -0.000430838               0.999999985               0.000592534              -0.000403464               0.999999985               0.000565277              -0.000370638               0.999999985               0.000535958              -0.000333419               0.999999985               0.000505387              -0.000293032               0.999999985               0.000726314              -0.000745217               0.999999985               0.000659643              -0.000616762               0.999999985               0.000627341              -0.000577272               0.999999985               0.000612583              -0.000570794               0.999999985               0.000605827              -0.000576760               0.999999985               0.000601314              -0.000586225               0.999999985               0.000595691              -0.000594504               0.999999985               0.000587029              -0.000598943               0.999999985               0.000573955              -0.000597786               0.999999985               0.000555966              -0.000590605               0.999999985               0.000533234              -0.000577900               0.999999985               0.000505990              -0.000559823               0.999999985               0.000474650              -0.000536781               0.999999985               0.000439940              -0.000508950               0.999999985               0.000402670              -0.000476696               0.999999985               0.000363625              -0.000441549               0.999999985               0.000323523              -0.000404877               0.999999985               0.000669885              -0.000851845               0.999999985               0.000577459              -0.000717547               0.999999985               0.000540360              -0.000679811               0.999999985               0.000526024              -0.000676072               0.999999985               0.000519486              -0.000684538               0.999999985               0.000513694              -0.000695813               0.999999985               0.000504928              -0.000704955               0.999999985               0.000490914              -0.000709356               0.999999985               0.000470641              -0.000707454               0.999999985               0.000444057              -0.000699317               0.999999985               0.000411597              -0.000685755               0.999999985               0.000373907              -0.000666962               0.999999985               0.000331839              -0.000643377               0.999999985               0.000286445              -0.000615665               0.999999985               0.000238652              -0.000584747               0.999999985               0.000189244              -0.000552280               0.999999985               0.000139127              -0.000519341               0.999999985               0.000608817              -0.000949558               0.999999985               0.000493898              -0.000817520               0.999999985               0.000457456              -0.000781874               0.999999985               0.000445467              -0.000780373               0.999999985               0.000439883              -0.000791043               0.999999985               0.000432916              -0.000803717               0.999999985               0.000420347              -0.000813252               0.999999985               0.000400036              -0.000817142               0.999999985               0.000371410              -0.000814510               0.999999985               0.000335144              -0.000805725               0.999999985               0.000291930              -0.000791319               0.999999985               0.000242915              -0.000771727               0.999999985               0.000189266              -0.000747888               0.999999985               0.000132141              -0.000720990               0.999999985               0.000072863              -0.000692587               0.999999985               0.000012656              -0.000663875               0.999999985              -0.000047627              -0.000635269               0.999999985               0.000545615              -0.001042240               0.999999985               0.000423701              -0.000929779               0.999999985               0.000384578              -0.000890364               0.999999985               0.000371994              -0.000884151               0.999999985               0.000367260              -0.000892046               0.999999985               0.000362373              -0.000904726               0.999999985               0.000353172              -0.000916828               0.999999985               0.000337092              -0.000925658               0.999999985               0.000313190              -0.000929849               0.999999985               0.000281852              -0.000929104               0.999999985               0.000243473              -0.000923559               0.999999985               0.000198888              -0.000913427               0.999999985               0.000148922              -0.000899281               0.999999985               0.000094007              -0.000881932               0.999999985               0.000035304              -0.000862610               0.999999985              -0.000025332              -0.000842627               0.999999985              -0.000086439              -0.000822583               0.999999985               0.000476693              -0.001126854               0.999999985               0.000356246              -0.001038622               0.999999985               0.000314607              -0.001001890               0.999999985               0.000300607              -0.000993240               0.999999985               0.000295783              -0.000999289               0.999999985               0.000292182              -0.001012031               0.999999985               0.000285501              -0.001026655               0.999999985               0.000273114              -0.001039980               0.999999985               0.000253801              -0.001050293               0.999999985               0.000227417              -0.001056968               0.999999985               0.000194105              -0.001059674               0.999999985               0.000154280              -0.001058458               0.999999985               0.000108372              -0.001053543               0.999999985               0.000056653              -0.001045354               0.999999985              -0.000000275              -0.001034758               0.999999985              -0.000061054              -0.001022997               0.999999985              -0.000123719              -0.001011029               0.999999985               0.000403639              -0.001201145               0.999999985               0.000291598              -0.001140596               0.999999985               0.000249350              -0.001111221               0.999999985               0.000233824              -0.001103401               0.999999985               0.000228243              -0.001109081               0.999999985               0.000224965              -0.001122546               0.999999985               0.000220091              -0.001139564               0.999999985               0.000210774              -0.001157167               0.999999985               0.000195557              -0.001173384               0.999999985               0.000174120              -0.001187142               0.999999985               0.000146128              -0.001197887               0.999999985               0.000111386              -0.001205351               0.999999985               0.000070431              -0.001209434               0.999999985               0.000023020              -0.001210325               0.999999985              -0.000031239              -0.001208593               0.999999985              -0.000091403              -0.001205148               0.999999985              -0.000155867              -0.001200990               0.999999985               0.000327142              -0.001263833               0.999999985               0.000229718              -0.001231496               0.999999985               0.000189777              -0.001212778               0.999999985               0.000173522              -0.001208773               0.999999985               0.000167001              -0.001216075               0.999999985               0.000163661              -0.001231037               0.999999985               0.000159795              -0.001250624               0.999999985               0.000152881              -0.001272236               0.999999985               0.000141286              -0.001294054               0.999999985               0.000124488              -0.001314722               0.999999985               0.000101877              -0.001333457               0.999999985               0.000073137              -0.001349666               0.999999985               0.000038081              -0.001362925               0.999999985              -0.000003815              -0.001373286               0.999999985              -0.000053341              -0.001380725               0.999999985              -0.000110779              -0.001385965               0.999999985              -0.000175498              -0.001389885               0.999999985               0.000247871              -0.001313735               0.999999985               0.000170298              -0.001307087               0.999999985               0.000135976              -0.001300528               0.999999985               0.000120704              -0.001302326               0.999999985               0.000114011              -0.001312737               0.999999985               0.000110541              -0.001330078               0.999999985               0.000107329              -0.001352390               0.999999985               0.000102255              -0.001377807               0.999999985               0.000093776              -0.001404669               0.999999985               0.000081401              -0.001431684               0.999999985               0.000064525              -0.001457851               0.999999985               0.000042447              -0.001482353               0.999999985               0.000014501              -0.001504682               0.999999985              -0.000019935              -0.001524588               0.999999985              -0.000061894              -0.001541887               0.999999985              -0.000112701              -0.001556639               0.999999985              -0.000173346              -0.001569288               0.999999985               0.000166446              -0.001350033               0.999999985               0.000112606              -0.001363891               0.999999985               0.000087321              -0.001368463               0.999999985               0.000075315              -0.001376345               0.999999985               0.000069673              -0.001390427               0.999999985               0.000066678              -0.001410448               0.999999985               0.000064160              -0.001435396               0.999999985               0.000060663              -0.001463941               0.999999985               0.000055115              -0.001494800               0.999999985               0.000047011              -0.001526949               0.999999985               0.000035902              -0.001559358               0.999999985               0.000020977              -0.001591152               0.999999985               0.000001457              -0.001621711               0.999999985              -0.000023337              -0.001650417               0.999999985              -0.000054309              -0.001677020               0.999999985              -0.000092968              -0.001701168               0.999999985              -0.000141327              -0.001722488               0.999999985               0.000083567              -0.001372126               0.999999985               0.000056014              -0.001399076               0.999999985               0.000042618              -0.001411384               0.999999985               0.000035975              -0.001423833               0.999999985               0.000032723              -0.001440807               0.999999985               0.000030974              -0.001463004               0.999999985               0.000029520              -0.001489944               0.999999985               0.000027683              -0.001520669               0.999999985               0.000024892              -0.001554121               0.999999985               0.000021079              -0.001589511               0.999999985               0.000015498              -0.001625971               0.999999985               0.000007851              -0.001662769               0.999999985              -0.000002142              -0.001699155               0.999999985              -0.000015095              -0.001734367               0.999999985              -0.000031651              -0.001767927               0.999999985              -0.000052763              -0.001799187               0.999999985              -0.000079858              -0.001827279               0.999999985               0.000000000              -0.001379575               0.999999985              -0.000000000              -0.001410965               0.999999985              -0.000000000              -0.001426027               0.999999985              -0.000000000              -0.001440211               0.999999985               0.000000000              -0.001458231               0.999999985              -0.000000000              -0.001481270               0.999999985               0.000000000              -0.001508925               0.999999985              -0.000000000              -0.001540365               0.999999985              -0.000000000              -0.001574837               0.999999985               0.000000000              -0.001611497               0.999999985              -0.000000000              -0.001649437               0.999999985               0.000000000              -0.001687911               0.999999985              -0.000000000              -0.001726281               0.999999985              -0.000000000              -0.001763944               0.999999985               0.000000000              -0.001800123               0.999999985               0.000000000              -0.001833791               0.999999985               0.000000000              -0.001864203               0.999999985               0.000896749              -0.000000000               0.999999985               0.000947007               0.000000000               0.999999985               0.000968613              -0.000000000               0.999999985               0.000981114              -0.000000000               0.999999985               0.000991443               0.000000000               0.999999985               0.001002233              -0.000000000               0.999999985               0.001014036               0.000000000               0.999999985               0.001026768               0.000000000               0.999999985               0.001040071               0.000000000               0.999999985               0.001053512               0.000000000               0.999999985               0.001066695               0.000000000               0.999999985               0.001079217               0.000000000               0.999999985               0.001090808              -0.000000000               0.999999985               0.001101199               0.000000000               0.999999985               0.001109987               0.000000000               0.999999985               0.001116487               0.000000000               0.999999985               0.001119896               0.000000000               0.999999985               0.000891690               0.000131084               0.999999985               0.000937765               0.000104074               0.999999985               0.000956638               0.000091943               0.999999985               0.000967326               0.000086949               0.999999985               0.000976394               0.000085593               0.999999985               0.000986063               0.000085939               0.999999985               0.000996812               0.000086825               0.999999985               0.001008474               0.000087282               0.999999985               0.001020558               0.000086913               0.999999985               0.001032593               0.000085207               0.999999985               0.001044165               0.000082036               0.999999985               0.001054841               0.000077354               0.999999985               0.001064337               0.000070844               0.999999985               0.001072445               0.000062076               0.999999985               0.001078802               0.000050200               0.999999985               0.001082860               0.000034275               0.999999985               0.001084003               0.000012944               0.999999985               0.000876687               0.000260967               0.999999985               0.000910361               0.000207842               0.999999985               0.000921605               0.000184771               0.999999985               0.000927466               0.000175941               0.999999985               0.000933143               0.000174015               0.999999985               0.000939983               0.000175247               0.999999985               0.000947994               0.000177155               0.999999985               0.000956651               0.000178434               0.999999985               0.000965392               0.000177768               0.999999985               0.000973678               0.000174757               0.999999985               0.000981082               0.000168727               0.999999985               0.000987099               0.000159687               0.999999985               0.000991408               0.000147437               0.999999985               0.000993823               0.000131108               0.999999985               0.000993982               0.000109465               0.999999985               0.000991639               0.000081253               0.999999985               0.000986790               0.000045236               0.999999985               0.000852119               0.000388452               0.999999985               0.000866216               0.000310963               0.999999985               0.000866348               0.000279412               0.999999985               0.000865632               0.000268606               0.999999985               0.000866937               0.000267340               0.999999985               0.000870229               0.000270018               0.999999985               0.000874639               0.000273510               0.999999985               0.000879313               0.000275630               0.999999985               0.000883471               0.000275177               0.999999985               0.000886533               0.000271032               0.999999985               0.000887858               0.000262716               0.999999985               0.000887102               0.000250269               0.999999985               0.000884117               0.000233436               0.999999985               0.000878597               0.000211338               0.999999985               0.000870504               0.000182951               0.999999985               0.000859899               0.000147604               0.999999985               0.000847088               0.000104656               0.999999985               0.000818319               0.000512446               0.999999985               0.000807617               0.000413397               0.999999985               0.000795435               0.000376365               0.999999985               0.000788198               0.000365583               0.999999985               0.000785416               0.000366145               0.999999985               0.000785238               0.000370940               0.999999985               0.000786038               0.000376137               0.999999985               0.000786409               0.000379397               0.999999985               0.000785336               0.000379007               0.999999985               0.000781976               0.000373929               0.999999985               0.000776029               0.000363786               0.999999985               0.000767318               0.000348757               0.999999985               0.000755623               0.000328697               0.999999985               0.000740946               0.000303031               0.999999985               0.000723419               0.000271226               0.999999985               0.000703477               0.000233402               0.999999985               0.000681908               0.000189995               0.999999985               0.000776105               0.000631733               0.999999985               0.000737571               0.000515322               0.999999985               0.000713963               0.000475812               0.999999985               0.000701733               0.000466676               0.999999985               0.000696069               0.000469865               0.999999985               0.000693333               0.000477054               0.999999985               0.000690807               0.000484015               0.999999985               0.000686765               0.000488052               0.999999985               0.000679964               0.000487442               0.999999985               0.000669649               0.000481288               0.999999985               0.000655731               0.000469753               0.999999985               0.000638178               0.000452841               0.999999985               0.000616977               0.000430838               0.999999985               0.000592534               0.000403464               0.999999985               0.000565277               0.000370638               0.999999985               0.000535958               0.000333419               0.999999985               0.000505387               0.000293032               0.999999985               0.000726314               0.000745217               0.999999985               0.000659643               0.000616762               0.999999985               0.000627341               0.000577272               0.999999985               0.000612583               0.000570794               0.999999985               0.000605827               0.000576760               0.999999985               0.000601314               0.000586225               0.999999985               0.000595691               0.000594504               0.999999985               0.000587029               0.000598943               0.999999985               0.000573955               0.000597786               0.999999985               0.000555966               0.000590605               0.999999985               0.000533234               0.000577900               0.999999985               0.000505990               0.000559823               0.999999985               0.000474650               0.000536781               0.999999985               0.000439940               0.000508950               0.999999985               0.000402670               0.000476696               0.999999985               0.000363625               0.000441549               0.999999985               0.000323523               0.000404877               0.999999985               0.000669885               0.000851845               0.999999985               0.000577459               0.000717547               0.999999985               0.000540360               0.000679811               0.999999985               0.000526024               0.000676072               0.999999985               0.000519486               0.000684538               0.999999985               0.000513694               0.000695813               0.999999985               0.000504928               0.000704955               0.999999985               0.000490914               0.000709356               0.999999985               0.000470641               0.000707454               0.999999985               0.000444057               0.000699317               0.999999985               0.000411597               0.000685755               0.999999985               0.000373907               0.000666962               0.999999985               0.000331839               0.000643377               0.999999985               0.000286445               0.000615665               0.999999985               0.000238652               0.000584747               0.999999985               0.000189244               0.000552280               0.999999985               0.000139127               0.000519341               0.999999985               0.000608817               0.000949558               0.999999985               0.000493898               0.000817520               0.999999985               0.000457456               0.000781874               0.999999985               0.000445467               0.000780373               0.999999985               0.000439883               0.000791043               0.999999985               0.000432916               0.000803717               0.999999985               0.000420347               0.000813252               0.999999985               0.000400036               0.000817142               0.999999985               0.000371410               0.000814510               0.999999985               0.000335144               0.000805725               0.999999985               0.000291930               0.000791319               0.999999985               0.000242915               0.000771727               0.999999985               0.000189266               0.000747888               0.999999985               0.000132141               0.000720990               0.999999985               0.000072863               0.000692587               0.999999985               0.000012656               0.000663875               0.999999985              -0.000047627               0.000635269               0.999999985               0.000545615               0.001042240               0.999999985               0.000423701               0.000929779               0.999999985               0.000384578               0.000890364               0.999999985               0.000371994               0.000884151               0.999999985               0.000367260               0.000892046               0.999999985               0.000362373               0.000904726               0.999999985               0.000353172               0.000916828               0.999999985               0.000337092               0.000925658               0.999999985               0.000313190               0.000929849               0.999999985               0.000281852               0.000929104               0.999999985               0.000243473               0.000923559               0.999999985               0.000198888               0.000913427               0.999999985               0.000148922               0.000899281               0.999999985               0.000094007               0.000881932               0.999999985               0.000035304               0.000862610               0.999999985              -0.000025332               0.000842627               0.999999985              -0.000086439               0.000822583               0.999999985               0.000476693               0.001126854               0.999999985               0.000356246               0.001038622               0.999999985               0.000314607               0.001001890               0.999999985               0.000300607               0.000993240               0.999999985               0.000295783               0.000999289               0.999999985               0.000292182               0.001012031               0.999999985               0.000285501               0.001026655               0.999999985               0.000273114               0.001039980               0.999999985               0.000253801               0.001050293               0.999999985               0.000227417               0.001056968               0.999999985               0.000194105               0.001059674               0.999999985               0.000154280               0.001058458               0.999999985               0.000108372               0.001053543               0.999999985               0.000056653               0.001045354               0.999999985              -0.000000275               0.001034758               0.999999985              -0.000061054               0.001022997               0.999999985              -0.000123719               0.001011029               0.999999985               0.000403639               0.001201145               0.999999985               0.000291598               0.001140596               0.999999985               0.000249350               0.001111221               0.999999985               0.000233824               0.001103401               0.999999985               0.000228243               0.001109081               0.999999985               0.000224965               0.001122546               0.999999985               0.000220091               0.001139564               0.999999985               0.000210774               0.001157167               0.999999985               0.000195557               0.001173384               0.999999985               0.000174120               0.001187142               0.999999985               0.000146128               0.001197887               0.999999985               0.000111386               0.001205351               0.999999985               0.000070431               0.001209434               0.999999985               0.000023020               0.001210325               0.999999985              -0.000031239               0.001208593               0.999999985              -0.000091403               0.001205148               0.999999985              -0.000155867               0.001200990               0.999999985               0.000327142               0.001263833               0.999999985               0.000229718               0.001231496               0.999999985               0.000189777               0.001212778               0.999999985               0.000173522               0.001208773               0.999999985               0.000167001               0.001216075               0.999999985               0.000163661               0.001231037               0.999999985               0.000159795               0.001250624               0.999999985               0.000152881               0.001272236               0.999999985               0.000141286               0.001294054               0.999999985               0.000124488               0.001314722               0.999999985               0.000101877               0.001333457               0.999999985               0.000073137               0.001349666               0.999999985               0.000038081               0.001362925               0.999999985              -0.000003815               0.001373286               0.999999985              -0.000053341               0.001380725               0.999999985              -0.000110779               0.001385965               0.999999985              -0.000175498               0.001389885               0.999999985               0.000247871               0.001313735               0.999999985               0.000170298               0.001307087               0.999999985               0.000135976               0.001300528               0.999999985               0.000120704               0.001302326               0.999999985               0.000114011               0.001312737               0.999999985               0.000110541               0.001330078               0.999999985               0.000107329               0.001352390               0.999999985               0.000102255               0.001377807               0.999999985               0.000093776               0.001404669               0.999999985               0.000081401               0.001431684               0.999999985               0.000064525               0.001457851               0.999999985               0.000042447               0.001482353               0.999999985               0.000014501               0.001504682               0.999999985              -0.000019935               0.001524588               0.999999985              -0.000061894               0.001541887               0.999999985              -0.000112701               0.001556639               0.999999985              -0.000173346               0.001569288               0.999999985               0.000166446               0.001350033               0.999999985               0.000112606               0.001363891               0.999999985               0.000087321               0.001368463               0.999999985               0.000075315               0.001376345               0.999999985               0.000069673               0.001390427               0.999999985               0.000066678               0.001410448               0.999999985               0.000064160               0.001435396               0.999999985               0.000060663               0.001463941               0.999999985               0.000055115               0.001494800               0.999999985               0.000047011               0.001526949               0.999999985               0.000035902               0.001559358               0.999999985               0.000020977               0.001591152               0.999999985               0.000001457               0.001621711               0.999999985              -0.000023337               0.001650417               0.999999985              -0.000054309               0.001677020               0.999999985              -0.000092968               0.001701168               0.999999985              -0.000141327               0.001722488               0.999999985               0.000083567               0.001372126               0.999999985               0.000056014               0.001399076               0.999999985               0.000042618               0.001411384               0.999999985               0.000035975               0.001423833               0.999999985               0.000032723               0.001440807               0.999999985               0.000030974               0.001463004               0.999999985               0.000029520               0.001489944               0.999999985               0.000027683               0.001520669               0.999999985               0.000024892               0.001554121               0.999999985               0.000021079               0.001589511               0.999999985               0.000015498               0.001625971               0.999999985               0.000007851               0.001662769               0.999999985              -0.000002142               0.001699155               0.999999985              -0.000015095               0.001734367               0.999999985              -0.000031651               0.001767927               0.999999985              -0.000052763               0.001799187               0.999999985              -0.000079858               0.001827279               0.999999985               0.000000000               0.001379575               0.999999985              -0.000000000               0.001410965               0.999999985               0.000000000               0.001426027               0.999999985               0.000000000               0.001440211               0.999999985               0.000000000               0.001458231               0.999999985               0.000000000               0.001481270               0.999999985               0.000000000               0.001508925               0.999999985              -0.000000000               0.001540365               0.999999985              -0.000000000               0.001574837               0.999999985              -0.000000000               0.001611497               0.999999985               0.000000000               0.001649437               0.999999985              -0.000000000               0.001687911               0.999999985              -0.000000000               0.001726281               0.999999985               0.000000000               0.001763944               0.999999985               0.000000000               0.001800123               0.999999985               0.000000000               0.001833791               0.999999985               0.000000000               0.001864203               0.999999985 </DataArray>
<DataArray type="Float64"                                    Name="defo"                                                      NumberOfComponents=" 3" format="ascii">
             -0.000896749              -0.000000000               0.999999985              -0.000947007              -0.000000000               0.999999985              -0.000968613              -0.000000000               0.999999985              -0.000981114              -0.000000000               0.999999985              -0.000991443               0.000000000               0.999999985              -0.001002233              -0.000000000               0.999999985              -0.001014036              -0.000000000               0.999999985              -0.001026768              -0.000000000               0.999999985              -0.001040071               0.000000000               0.999999985              -0.001053512               0.000000000               0.999999985              -0.001066695               0.000000000               0.999999985              -0.001079217               0.000000000               0.999999985              -0.001090808               0.000000000               0.999999985              -0.001101199              -0.000000000               0.999999985              -0.001109987               0.000000000               0.999999985              -0.001116487              -0.000000000               0.999999985              -0.001119896              -0.000000000               0.999999985              -0.000891690               0.000131084               0.999999985              -0.000937765               0.000104074               0.999999985              -0.000956638               0.000091943               0.999999985              -0.000967326               0.000086949               0.999999985              -0.000976394               0.000085593               0.999999985              -0.000986063               0.000085939               0.999999985              -0.000996812               0.000086825               0.999999985              -0.001008474               0.000087282               0.999999985              -0.001020558               0.000086913               0.999999985              -0.001032593               0.000085207               0.999999985              -0.001044165               0.000082036               0.999999985              -0.001054841               0.000077354               0.999999985              -0.001064337               0.000070844               0.999999985              -0.001072445               0.000062076               0.999999985              -0.001078802               0.000050200               0.999999985              -0.001082860               0.000034275               0.999999985              -0.001084003               0.000012944               0.999999985              -0.000876687               0.000260967               0.999999985              -0.000910361               0.000207842               0.999999985              -0.000921605               0.000184771               0.999999985              -0.000927466               0.000175941               0.999999985              -0.000933143               0.000174015               0.999999985              -0.000939983               0.000175247               0.999999985              -0.000947994               0.000177155               0.999999985              -0.000956651               0.000178434               0.999999985              -0.000965392               0.000177768               0.999999985              -0.000973678               0.000174757               0.999999985              -0.000981082               0.000168727               0.999999985              -0.000987099               0.000159687               0.999999985              -0.000991408               0.000147437               0.999999985              -0.000993823               0.000131108               0.999999985              -0.000993982               0.000109465               0.999999985              -0.000991639               0.000081253               0.999999985              -0.000986790               0.000045236               0.999999985              -0.000852119               0.000388452               0.999999985              -0.000866216               0.000310963               0.999999985              -0.000866348               0.000279412               0.999999985              -0.000865632               0.000268606               0.999999985              -0.000866937               0.000267340               0.999999985              -0.000870229               0.000270018               0.999999985              -0.000874639               0.000273510               0.999999985              -0.000879313               0.000275630               0.999999985              -0.000883471               0.000275177               0.999999985              -0.000886533               0.000271032               0.999999985              -0.000887858               0.000262716               0.999999985              -0.000887102               0.000250269               0.999999985              -0.000884117               0.000233436               0.999999985              -0.000878597               0.000211338               0.999999985              -0.000870504               0.000182951               0.999999985              -0.000859899               0.000147604               0.999999985              -0.000847088               0.000104656               0.999999985              -0.000818319               0.000512446               0.999999985              -0.000807617               0.000413397               0.999999985              -0.000795435               0.000376365               0.999999985              -0.000788198               0.000365583               0.999999985              -0.000785416               0.000366145               0.999999985              -0.000785238               0.000370940               0.999999985              -0.000786038               0.000376137               0.999999985              -0.000786409               0.000379397               0.999999985              -0.000785336               0.000379007               0.999999985              -0.000781976               0.000373929               0.999999985              -0.000776029               0.000363786               0.999999985              -0.000767318               0.000348757               0.999999985              -0.000755623               0.000328697               0.999999985              -0.000740946               0.000303031               0.999999985              -0.000723419               0.000271226               0.999999985              -0.000703477               0.000233402               0.999999985              -0.000681908               0.000189995               0.999999985              -0.000776105               0.000631733               0.999999985              -0.000737571               0.000515322               0.999999985              -0.000713963               0.000475812               0.999999985              -0.000701733               0.000466676               0.999999985              -0.000696069               0.000469865               0.999999985              -0.000693333               0.000477054               0.999999985              -0.000690807               0.000484015               0.999999985              -0.000686765               0.000488052               0.999999985              -0.000679964               0.000487442               0.999999985              -0.000669649               0.000481288               0.999999985              -0.000655731               0.000469753               0.999999985              -0.000638178               0.000452841               0.999999985              -0.000616977               0.000430838               0.999999985              -0.000592534               0.000403464               0.999999985              -0.000565277               0.000370638               0.999999985              -0.000535958               0.000333419               0.999999985              -0.000505387               0.000293032               0.999999985              -0.000726314               0.000745217               0.999999985              -0.000659643               0.000616762               0.999999985              -0.000627341               0.000577272               0.999999985              -0.000612583               0.000570794               0.999999985              -0.000605827               0.000576760               0.999999985              -0.000601314               0.000586225               0.999999985              -0.000595691               0.000594504               0.999999985              -0.000587029               0.000598943               0.999999985              -0.000573955               0.000597786               0.999999985              -0.000555966               0.000590605               0.999999985              -0.000533234               0.000577900               0.999999985              -0.000505990               0.000559823               0.999999985              -0.000474650               0.000536781               0.999999985              -0.000439940               0.000508950               0.999999985              -0.000402670               0.000476696               0.999999985              -0.000363625               0.000441549               0.999999985              -0.000323523               0.000404877               0.999999985              -0.000669885               0.000851845               0.999999985              -0.000577459               0.000717547               0.999999985              -0.000540360               0.000679811               0.999999985              -0.000526024               0.000676072               0.999999985              -0.000519486               0.000684538               0.999999985              -0.000513694               0.000695813               0.999999985              -0.000504928               0.000704955               0.999999985              -0.000490914               0.000709356               0.999999985              -0.000470641               0.000707454               0.999999985              -0.000444057               0.000699317               0.999999985              -0.000411597               0.000685755               0.999999985              -0.000373907               0.000666962               0.999999985              -0.000331839               0.000643377               0.999999985              -0.000286445               0.000615665               0.999999985              -0.000238652               0.000584747               0.999999985              -0.000189244               0.000552280               0.999999985              -0.000139127               0.000519341               0.999999985              -0.000608817               0.000949558               0.999999985              -0.000493898               0.000817520               0.999999985              -0.000457456               0.000781874               0.999999985              -0.000445467               0.000780373               0.999999985              -0.000439883               0.000791043               0.999999985              -0.000432916               0.000803717               0.999999985              -0.000420347               0.000813252               0.999999985              -0.000400036               0.000817142               0.999999985              -0.000371410               0.000814510               0.999999985              -0.000335144               0.000805725               0.999999985              -0.000291930               0.000791319               0.999999985              -0.000242915               0.000771727               0.999999985              -0.000189266               0.000747888               0.999999985              -0.000132141               0.000720990               0.999999985              -0.000072863               0.000692587               0.999999985              -0.000012656               0.000663875               0.999999985               0.000047627               0.000635269               0.999999985              -0.000545615               0.001042240               0.999999985              -0.000423701               0.000929779               0.999999985              -0.000384578               0.000890364               0.999999985              -0.000371994               0.000884151               0.999999985              -0.000367260               0.000892046               0.999999985              -0.000362373               0.000904726               0.999999985              -0.000353172               0.000916828               0.999999985              -0.000337092               0.000925658               0.999999985              -0.000313190               0.000929849               0.999999985              -0.000281852               0.000929104               0.999999985              -0.000243473               0.000923559               0.999999985              -0.000198888               0.000913427               0.999999985              -0.000148922               0.000899281               0.999999985              -0.000094007               0.000881932               0.999999985              -0.000035304               0.000862610               0.999999985               0.000025332               0.000842627               0.999999985               0.000086439               0.000822583               0.999999985              -0.000476693               0.001126854               0.999999985              -0.000356246               0.001038622               0.999999985              -0.000314607               0.001001890               0.999999985              -0.000300607               0.000993240               0.999999985              -0.000295783               0.000999289               0.999999985              -0.000292182               0.001012031               0.999999985              -0.000285501               0.001026655               0.999999985              -0.000273114               0.001039980               0.999999985              -0.000253801               0.001050293               0.999999985              -0.000227417               0.001056968               0.999999985              -0.000194105               0.001059674               0.999999985              -0.000154280               0.001058458               0.999999985              -0.000108372               0.001053543               0.999999985              -0.000056653               0.001045354               0.999999985               0.000000275               0.001034758               0.999999985               0.000061054               0.001022997               0.999999985               0.000123719               0.001011029               0.999999985              -0.000403639               0.001201145               0.999999985              -0.000291598               0.001140596               0.999999985              -0.000249350               0.001111221               0.999999985              -0.000233824               0.001103401               0.999999985              -0.000228243               0.001109081               0.999999985              -0.000224965               0.001122546               0.999999985              -0.000220091               0.001139564               0.999999985              -0.000210774               0.001157167               0.999999985              -0.000195557               0.001173384               0.999999985              -0.000174120               0.001187142               0.999999985              -0.000146128               0.001197887               0.999999985              -0.000111386               0.001205351               0.999999985              -0.000070431               0.001209434               0.999999985              -0.000023020               0.001210325               0.999999985               0.000031239               0.001208593               0.999999985               0.000091403               0.001205148               0.999999985               0.000155867               0.001200990               0.999999985              -0.000327142               0.001263833               0.999999985              -0.000229718               0.001231496               0.999999985              -0.000189777               0.001212778               0.999999985              -0.000173522               0.001208773               0.999999985              -0.000167001               0.001216075               0.999999985              -0.000163661               0.001231037               0.999999985              -0.000159795               0.001250624               0.999999985              -0.000152881               0.001272236               0.999999985              -0.000141286               0.001294054               0.999999985              -0.000124488               0.001314722               0.999999985              -0.000101877               0.001333457               0.999999985              -0.000073137               0.001349666               0.999999985              -0.000038081               0.001362925               0.999999985               0.000003815               0.001373286               0.999999985               0.000053341               0.001380725               0.999999985               0.000110779               0.001385965               0.999999985               0.000175498               0.001389885               0.999999985              -0.000247871               0.001313735               0.999999985              -0.000170298               0.001307087               0.999999985              -0.000135976               0.001300528               0.999999985              -0.000120704               0.001302326               0.999999985              -0.000114011               0.001312737               0.999999985              -0.000110541               0.001330078               0.999999985              -0.000107329               0.001352390               0.999999985              -0.000102255               0.001377807               0.999999985              -0.000093776               0.001404669               0.999999985              -0.000081401               0.001431684               0.999999985              -0.000064525               0.001457851               0.999999985              -0.000042447               0.001482353               0.999999985              -0.000014501               0.001504682               0.999999985               0.000019935               0.001524588               0.999999985               0.000061894               0.001541887               0.999999985               0.000112701               0.001556639               0.999999985               0.000173346               0.001569288               0.999999985              -0.000166446               0.001350033               0.999999985              -0.000112606               0.001363891               0.999999985              -0.000087321               0.001368463               0.999999985              -0.000075315               0.001376345               0.999999985              -0.000069673               0.001390427               0.999999985              -0.000066678               0.001410448               0.999999985              -0.000064160               0.001435396               0.999999985              -0.000060663               0.001463941               0.999999985              -0.000055115               0.001494800               0.999999985              -0.000047011               0.001526949               0.999999985              -0.000035902               0.001559358               0.999999985              -0.000020977               0.001591152               0.999999985              -0.000001457               0.001621711               0.999999985               0.000023337               0.001650417               0.999999985               0.000054309               0.001677020               0.999999985               0.000092968               0.001701168               0.999999985               0.000141327               0.001722488               0.999999985              -0.000083567               0.001372126               0.999999985              -0.000056014               0.001399076               0.999999985              -0.000042618               0.001411384               0.999999985              -0.000035975               0.001423833               0.999999985              -0.000032723               0.001440807               0.999999985              -0.000030974               0.001463004               0.999999985              -0.000029520               0.001489944               0.999999985              -0.000027683               0.001520669               0.999999985              -0.000024892               0.001554121               0.999999985              -0.000021079               0.001589511               0.999999985              -0.000015498               0.001625971               0.999999985              -0.000007851               0.001662769               0.999999985               0.000002142               0.001699155               0.999999985               0.000015095               0.001734367               0.999999985               0.000031651               0.001767927               0.999999985               0.000052763               0.001799187               0.999999985               0.000079858               0.001827279               0.999999985               0.000000000               0.001379575               0.999999985              -0.000000000               0.001410965               0.999999985               0.000000000               0.001426027               0.999999985               0.000000000               0.001440211               0.999999985               0.000000000               0.001458231               0.999999985               0.000000000               0.001481270               0.999999985               0.000000000               0.001508925               0.999999985              -0.000000000               0.001540365               0.999999985              -0.000000000               0.001574837               0.999999985              -0.000000000               0.001611497               0.999999985               0.000000000               0.001649437               0.999999985              -0.000000000               0.001687911               0.999999985              -0.000000000               0.001726281               0.999999985               0.000000000               0.001763944               0.999999985               0.000000000               0.001800123               0.999999985               0.000000000               0.001833791               0.999999985               0.000000000               0.001864203               0.999999985              -0.000896749              -0.000000000               0.999999985              -0.000947007              -0.000000000               0.999999985              -0.000968613              -0.000000000               0.999999985              -0.000981114              -0.000000000               0.999999985              -0.000991443               0.000000000               0.999999985              -0.001002233              -0.000000000               0.999999985              -0.001014036              -0.000000000               0.999999985              -0.001026768              -0.000000000               0.999999985              -0.001040071               0.000000000               0.999999985              -0.001053512               0.000000000               0.999999985              -0.001066695               0.000000000               0.999999985              -0.001079217               0.000000000               0.999999985              -0.001090808               0.000000000               0.999999985              -0.001101199              -0.000000000               0.999999985              -0.001109987               0.000000000               0.999999985              -0.001116487              -0.000000000               0.999999985              -0.001119896              -0.000000000               0.999999985              -0.000891690              -0.000131084               0.999999985              -0.000937765              -0.000104074               0.999999985              -0.000956638              -0.000091943               0.999999985              -0.000967326              -0.000086949               0.999999985              -0.000976394              -0.000085593               0.999999985              -0.000986063              -0.000085939               0.999999985              -0.000996812              -0.000086825               0.999999985              -0.001008474              -0.000087282               0.999999985              -0.001020558              -0.000086913               0.999999985              -0.001032593              -0.000085207               0.999999985              -0.001044165              -0.000082036               0.999999985              -0.001054841              -0.000077354               0.999999985              -0.001064337              -0.000070844               0.999999985              -0.001072445              -0.000062076               0.999999985              -0.001078802              -0.000050200               0.999999985              -0.001082860              -0.000034275               0.999999985              -0.001084003              -0.000012944               0.999999985              -0.000876687              -0.000260967               0.999999985              -0.000910361              -0.000207842               0.999999985              -0.000921605              -0.000184771               0.999999985              -0.000927466              -0.000175941               0.999999985              -0.000933143              -0.000174015               0.999999985              -0.000939983              -0.000175247               0.999999985              -0.000947994              -0.000177155               0.999999985              -0.000956651              -0.000178434               0.999999985              -0.000965392              -0.000177768               0.999999985              -0.000973678              -0.000174757               0.999999985              -0.000981082              -0.000168727               0.999999985              -0.000987099              -0.000159687               0.999999985              -0.000991408              -0.000147437               0.999999985              -0.000993823              -0.000131108               0.999999985              -0.000993982              -0.000109465               0.999999985              -0.000991639              -0.000081253               0.999999985              -0.000986790              -0.000045236               0.999999985              -0.000852119              -0.000388452               0.999999985              -0.000866216              -0.000310963               0.999999985              -0.000866348              -0.000279412               0.999999985              -0.000865632              -0.000268606               0.999999985              -0.000866937              -0.000267340               0.999999985              -0.000870229              -0.000270018               0.999999985              -0.000874639              -0.000273510               0.999999985              -0.000879313              -0.000275630               0.999999985              -0.000883471              -0.000275177               0.999999985              -0.000886533              -0.000271032               0.999999985              -0.000887858              -0.000262716               0.999999985              -0.000887102              -0.000250269               0.999999985              -0.000884117              -0.000233436               0.999999985              -0.000878597              -0.000211338               0.999999985              -0.000870504              -0.000182951               0.999999985              -0.000859899              -0.000147604               0.999999985              -0.000847088              -0.000104656               0.999999985              -0.000818319              -0.000512446               0.999999985              -0.000807617              -0.000413397               0.999999985              -0.000795435              -0.000376365               0.999999985              -0.000788198              -0.000365583               0.999999985              -0.000785416              -0.000366145               0.999999985              -0.000785238              -0.000370940               0.999999985              -0.000786038              -0.000376137               0.999999985              -0.000786409              -0.000379397               0.999999985              -0.000785336              -0.000379007               0.999999985              -0.000781976              -0.000373929               0.999999985              -0.000776029              -0.000363786               0.999999985              -0.000767318              -0.000348757               0.999999985              -0.000755623              -0.000328697               0.999999985              -0.000740946              -0.000303031               0.999999985              -0.000723419              -0.000271226               0.999999985              -0.000703477              -0.000233402               0.999999985              -0.000681908              -0.000189995               0.999999985              -0.000776105              -0.000631733               0.999999985              -0.000737571              -0.000515322               0.999999985              -0.000713963              -0.000475812               0.999999985              -0.000701733              -0.000466676               0.999999985              -0.000696069              -0.000469865               0.999999985              -0.000693333              -0.000477054               0.999999985              -0.000690807              -0.000484015               0.999999985              -0.000686765              -0.000488052               0.999999985              -0.000679964              -0.000487442               0.999999985              -0.000669649              -0.000481288               0.999999985              -0.000655731              -0.000469753               0.999999985              -0.000638178              -0.000452841               0.999999985              -0.000616977              -0.000430838               0.999999985              -0.000592534              -0.000403464               0.999999985              -0.000565277              -0.000370638               0.999999985              -0.000535958              -0.000333419               0.999999985              -0.000505387              -0.000293032               0.999999985              -0.000726314              -0.000745217               0.999999985              -0.000659643              -0.000616762               0.999999985              -0.000627341              -0.000577272               0.999999985              -0.000612583              -0.000570794               0.999999985              -0.000605827              -0.000576760               0.999999985              -0.000601314              -0.000586225               0.999999985              -0.000595691              -0.000594504               0.999999985              -0.000587029              -0.000598943               0.999999985              -0.000573955              -0.000597786               0.999999985              -0.000555966              -0.000590605               0.999999985              -0.000533234              -0.000577900               0.999999985              -0.000505990              -0.000559823               0.999999985              -0.000474650              -0.000536781               0.999999985              -0.000439940              -0.000508950               0.999999985              -0.000402670              -0.000476696               0.999999985              -0.000363625              -0.000441549               0.999999985              -0.000323523              -0.000404877               0.999999985              -0.000669885              -0.000851845               0.999999985              -0.000577459              -0.000717547               0.999999985              -0.000540360              -0.000679811               0.999999985              -0.000526024              -0.000676072               0.999999985              -0.000519486              -0.000684538               0.999999985              -0.000513694              -0.000695813               0.999999985              -0.000504928              -0.000704955               0.999999985              -0.000490914              -0.000709356               0.999999985              -0.000470641              -0.000707454               0.999999985              -0.000444057              -0.000699317               0.999999985              -0.000411597              -0.000685755               0.999999985              -0.000373907              -0.000666962               0.999999985              -0.000331839              -0.000643377               0.999999985              -0.000286445              -0.000615665               0.999999985              -0.000238652              -0.000584747               0.999999985              -0.000189244              -0.000552280               0.999999985              -0.000139127              -0.000519341               0.999999985              -0.000608817              -0.000949558               0.999999985              -0.000493898              -0.000817520               0.999999985              -0.000457456              -0.000781874               0.999999985              -0.000445467              -0.000780373               0.999999985              -0.000439883              -0.000791043               0.999999985              -0.000432916              -0.000803717               0.999999985              -0.000420347              -0.000813252               0.999999985              -0.000400036              -0.000817142               0.999999985              -0.000371410              -0.000814510               0.999999985              -0.000335144              -0.000805725               0.999999985              -0.000291930              -0.000791319               0.999999985              -0.000242915              -0.000771727               0.999999985              -0.000189266              -0.000747888               0.999999985              -0.000132141              -0.000720990               0.999999985              -0.000072863              -0.000692587               0.999999985              -0.000012656              -0.000663875               0.999999985               0.000047627              -0.000635269               0.999999985              -0.000545615              -0.001042240               0.999999985              -0.000423701              -0.000929779               0.999999985              -0.000384578              -0.000890364               0.999999985              -0.000371994              -0.000884151               0.999999985              -0.000367260              -0.000892046               0.999999985              -0.000362373              -0.000904726               0.999999985              -0.000353172              -0.000916828               0.999999985              -0.000337092              -0.000925658               0.999999985              -0.000313190              -0.000929849               0.999999985              -0.000281852              -0.000929104               0.999999985              -0.000243473              -0.000923559               0.999999985              -0.000198888              -0.000913427               0.999999985              -0.000148922              -0.000899281               0.999999985              -0.000094007              -0.000881932               0.999999985              -0.000035304              -0.000862610               0.999999985               0.000025332              -0.000842627               0.999999985               0.000086439              -0.000822583               0.999999985              -0.000476693              -0.001126854               0.999999985              -0.000356246              -0.001038622               0.999999985              -0.000314607              -0.001001890               0.999999985              -0.000300607              -0.000993240               0.999999985              -0.000295783              -0.000999289               0.999999985              -0.000292182              -0.001012031               0.999999985              -0.000285501              -0.001026655               0.999999985              -0.000273114              -0.001039980               0.999999985              -0.000253801              -0.001050293               0.999999985              -0.000227417              -0.001056968               0.999999985              -0.000194105              -0.001059674               0.999999985              -0.000154280              -0.001058458               0.999999985              -0.000108372              -0.001053543               0.999999985              -0.000056653              -0.001045354               0.999999985               0.000000275              -0.001034758               0.999999985               0.000061054              -0.001022997               0.999999985               0.000123719              -0.001011029               0.999999985              -0.000403639              -0.001201145               0.999999985              -0.000291598              -0.001140596               0.999999985              -0.000249350              -0.001111221               0.999999985              -0.000233824              -0.001103401               0.999999985              -0.000228243              -0.001109081               0.999999985              -0.000224965              -0.001122546               0.999999985              -0.000220091              -0.001139564               0.999999985              -0.000210774              -0.001157167               0.999999985              -0.000195557              -0.001173384               0.999999985              -0.000174120              -0.001187142               0.999999985              -0.000146128              -0.001197887               0.999999985              -0.000111386              -0.001205351               0.999999985              -0.000070431              -0.001209434               0.999999985              -0.000023020              -0.001210325               0.999999985               0.000031239              -0.001208593               0.999999985               0.000091403              -0.001205148               0.999999985               0.000155867              -0.001200990               0.999999985              -0.000327142              -0.001263833               0.999999985              -0.000229718              -0.001231496               0.999999985              -0.000189777              -0.001212778               0.999999985              -0.000173522              -0.001208773               0.999999985              -0.000167001              -0.001216075               0.999999985              -0.000163661              -0.001231037               0.999999985              -0.000159795              -0.001250624               0.999999985              -0.000152881              -0.001272236               0.999999985              -0.000141286              -0.001294054               0.999999985              -0.000124488              -0.001314722               0.999999985              -0.000101877              -0.001333457               0.999999985              -0.000073137              -0.001349666               0.999999985              -0.000038081              -0.001362925               0.999999985               0.000003815              -0.001373286               0.999999985               0.000053341              -0.001380725               0.999999985               0.000110779              -0.001385965               0.999999985               0.000175498              -0.001389885               0.999999985              -0.000247871              -0.001313735               0.999999985              -0.000170298              -0.001307087               0.999999985              -0.000135976              -0.001300528               0.999999985              -0.000120704              -0.001302326               0.999999985              -0.000114011              -0.001312737               0.999999985              -0.000110541              -0.001330078               0.999999985              -0.000107329              -0.001352390               0.999999985              -0.000102255              -0.001377807               0.999999985              -0.000093776              -0.001404669               0.999999985              -0.000081401              -0.001431684               0.999999985              -0.000064525              -0.001457851               0.999999985              -0.000042447              -0.001482353               0.999999985              -0.000014501              -0.001504682               0.999999985               0.000019935              -0.001524588               0.999999985               0.000061894              -0.001541887               0.999999985               0.000112701              -0.001556639               0.999999985               0.000173346              -0.001569288               0.999999985              -0.000166446              -0.001350033               0.999999985              -0.000112606              -0.001363891               0.999999985              -0.000087321              -0.001368463               0.999999985              -0.000075315              -0.001376345               0.999999985              -0.000069673              -0.001390427               0.999999985              -0.000066678              -0.001410448               0.999999985              -0.000064160              -0.001435396               0.999999985              -0.000060663              -0.001463941               0.999999985              -0.000055115              -0.001494800               0.999999985              -0.000047011              -0.001526949               0.999999985              -0.000035902              -0.001559358               0.999999985              -0.000020977              -0.001591152               0.999999985              -0.000001457              -0.001621711               0.999999985               0.000023337              -0.001650417               0.999999985               0.000054309              -0.001677020               0.999999985               0.000092968              -0.001701168               0.999999985               0.000141327              -0.001722488               0.999999985              -0.000083567              -0.001372126               0.999999985              -0.000056014              -0.001399076               0.999999985              -0.000042618              -0.001411384               0.999999985              -0.000035975              -0.001423833               0.999999985              -0.000032723              -0.001440807               0.999999985              -0.000030974              -0.001463004               0.999999985              -0.000029520              -0.001489944               0.999999985              -0.000027683              -0.001520669               0.999999985              -0.000024892              -0.001554121               0.999999985              -0.000021079              -0.001589511               0.999999985              -0.000015498              -0.001625971               0.999999985              -0.000007851              -0.001662769               0.999999985               0.000002142              -0.001699155               0.999999985               0.000015095              -0.001734367               0.999999985               0.000031651              -0.001767927               0.999999985               0.000052763              -0.001799187               0.999999985               0.000079858              -0.001827279               0.999999985               0.000000000              -0.001379575               0.999999985              -0.000000000              -0.001410965               0.999999985              -0.000000000              -0.001426027               0.999999985              -0.000000000              -0.001440211               0.999999985               0.000000000              -0.001458231               0.999999985              -0.000000000              -0.001481270               0.999999985               0.000000000              -0.001508925               0.999999985              -0.000000000              -0.001540365               0.999999985              -0.000000000              -0.001574837               0.999999985               0.000000000              -0.001611497               0.999999985              -0.000000000              -0.001649437               0.999999985               0.000000000              -0.001687911               0.999999985              -0.000000000              -0.001726281               0.999999985              -0.000000000              -0.001763944               0.999999985               0.000000000              -0.001800123               0.999999985               0.000000000              -0.001833791               0.999999985               0.000000000              -0.001864203               0.999999985               0.000896749              -0.000000000               0.999999985               0.000947007               0.000000000               0.999999985               0.000968613              -0.000000000               0.999999985               0.000981114              -0.000000000               0.999999985               0.000991443               0.000000000               0.999999985               0.001002233              -0.000000000               0.999999985               0.001014036               0.000000000               0.999999985               0.001026768               0.000000000               0.999999985               0.001040071               0.000000000               0.999999985               0.001053512               0.000000000               0.999999985               0.001066695               0.000000000               0.999999985               0.001079217               0.000000000               0.999999985               0.001090808              -0.000000000               0.999999985               0.001101199               0.000000000               0.999999985               0.001109987               0.000000000               0.999999985               0.001116487               0.000000000               0.999999985               0.001119896               0.000000000               0.999999985               0.000891690              -0.000131084               0.999999985               0.000937765              -0.000104074               0.999999985               0.000956638              -0.000091943               0.999999985               0.000967326              -0.000086949               0.999999985               0.000976394              -0.000085593               0.999999985               0.000986063              -0.000085939               0.999999985               0.000996812              -0.000086825               0.999999985               0.001008474              -0.000087282               0.999999985               0.001020558              -0.000086913               0.999999985               0.001032593              -0.000085207               0.999999985               0.001044165              -0.000082036               0.999999985               0.001054841              -0.000077354               0.999999985               0.001064337              -0.000070844               0.999999985               0.001072445              -0.000062076               0.999999985               0.001078802              -0.000050200               0.999999985               0.001082860              -0.000034275               0.999999985               0.001084003              -0.000012944               0.999999985               0.000876687              -0.000260967               0.999999985               0.000910361              -0.000207842               0.999999985               0.000921605              -0.000184771               0.999999985               0.000927466              -0.000175941               0.999999985               0.000933143              -0.000174015               0.999999985               0.000939983              -0.000175247               0.999999985               0.000947994              -0.000177155               0.999999985               0.000956651              -0.000178434               0.999999985               0.000965392              -0.000177768               0.999999985               0.000973678              -0.000174757               0.999999985               0.000981082              -0.000168727               0.999999985               0.000987099              -0.000159687               0.999999985               0.000991408              -0.000147437               0.999999985               0.000993823              -0.000131108               0.999999985               0.000993982              -0.000109465               0.999999985               0.000991639              -0.000081253               0.999999985               0.000986790              -0.000045236               0.999999985               0.000852119              -0.000388452               0.999999985               0.000866216              -0.000310963               0.999999985               0.000866348              -0.000279412               0.999999985               0.000865632              -0.000268606               0.999999985               0.000866937              -0.000267340               0.999999985               0.000870229              -0.000270018               0.999999985               0.000874639              -0.000273510               0.999999985               0.000879313              -0.000275630               0.999999985               0.000883471              -0.000275177               0.999999985               0.000886533              -0.000271032               0.999999985               0.000887858              -0.000262716               0.999999985               0.000887102              -0.000250269               0.999999985               0.000884117              -0.000233436               0.999999985               0.000878597              -0.000211338               0.999999985               0.000870504              -0.000182951               0.999999985               0.000859899              -0.000147604               0.999999985               0.000847088              -0.000104656               0.999999985               0.000818319              -0.000512446               0.999999985               0.000807617              -0.000413397               0.999999985               0.000795435              -0.000376365               0.999999985               0.000788198              -0.000365583               0.999999985               0.000785416              -0.000366145               0.999999985               0.000785238              -0.000370940               0.999999985               0.000786038              -0.000376137               0.999999985               0.000786409              -0.000379397               0.999999985               0.000785336              -0.000379007               0.999999985               0.000781976              -0.000373929               0.999999985               0.000776029              -0.000363786               0.999999985               0.000767318              -0.000348757               0.999999985               0.000755623              -0.000328697               0.999999985               0.000740946              -0.000303031               0.999999985               0.000723419              -0.000271226               0.999999985               0.000703477              -0.000233402               0.999999985               0.000681908              -0.000189995               0.999999985               0.000776105              -0.000631733               0.999999985               0.000737571              -0.000515322               0.999999985               0.000713963              -0.000475812               0.999999985               0.000701733              -0.000466676               0.999999985               0.000696069              -0.000469865               0.999999985               0.000693333              -0.000477054               0.999999985               0.000690807              -0.000484015               0.999999985               0.000686765              -0.000488052               0.999999985               0.000679964              -0.000487442               0.999999985               0.000669649              -0.000481288               0.999999985               0.000655731              -0.000469753               0.999999985               0.000638178              -0.000452841               0.999999985               0.000616977              -0.000430838               0.999999985               0.000592534              -0.000403464               0.999999985               0.000565277              -0.000370638               0.999999985               0.000535958              -0.000333419               0.999999985               0.000505387              -0.000293032               0.999999985               0.000726314              -0.000745217               0.999999985               0.000659643              -0.000616762               0.999999985               0.000627341              -0.000577272               0.999999985               0.000612583              -0.000570794               0.999999985               0.000605827              -0.000576760               0.999999985               0.000601314              -0.000586225               0.999999985               0.000595691              -0.000594504               0.999999985               0.000587029              -0.000598943               0.999999985               0.000573955              -0.000597786               0.999999985               0.000555966              -0.000590605               0.999999985               0.000533234              -0.000577900               0.999999985               0.000505990              -0.000559823               0.999999985               0.000474650              -0.000536781               0.999999985               0.000439940              -0.000508950               0.999999985               0.000402670              -0.000476696               0.999999985               0.000363625              -0.000441549               0.999999985               0.000323523              -0.000404877               0.999999985               0.000669885              -0.000851845               0.999999985               0.000577459              -0.000717547               0.999999985               0.000540360              -0.000679811               0.999999985               0.000526024              -0.000676072               0.999999985               0.000519486              -0.000684538               0.999999985               0.000513694              -0.000695813               0.999999985               0.000504928              -0.000704955               0.999999985               0.000490914              -0.000709356               0.999999985               0.000470641              -0.000707454               0.999999985               0.000444057              -0.000699317               0.999999985               0.000411597              -0.000685755               0.999999985               0.000373907              -0.000666962               0.999999985               0.000331839              -0.000643377               0.999999985               0.000286445              -0.000615665               0.999999985               0.000238652              -0.000584747               0.999999985               0.000189244              -0.000552280               0.999999985               0.000139127              -0.000519341               0.999999985               0.000608817              -0.000949558               0.999999985               0.000493898              -0.000817520               0.999999985               0.000457456              -0.000781874               0.999999985               0.000445467              -0.000780373               0.999999985               0.000439883              -0.000791043               0.999999985               0.000432916              -0.000803717               0.999999985               0.000420347              -0.000813252               0.999999985               0.000400036              -0.000817142               0.999999985               0.000371410              -0.000814510               0.999999985               0.000335144              -0.000805725               0.999999985               0.000291930              -0.000791319               0.999999985               0.000242915              -0.000771727               0.999999985               0.000189266              -0.000747888               0.999999985               0.000132141              -0.000720990               0.999999985               0.000072863              -0.000692587               0.999999985               0.000012656              -0.000663875               0.999999985              -0.000047627              -0.000635269               0.999999985               0.000545615              -0.001042240               0.999999985               0.000423701              -0.000929779               0.999999985               0.000384578              -0.000890364               0.999999985               0.000371994              -0.000884151               0.999999985               0.000367260              -0.000892046               0.999999985               0.000362373              -0.000904726               0.999999985               0.000353172              -0.000916828               0.999999985               0.000337092              -0.000925658               0.999999985               0.000313190              -0.000929849               0.999999985               0.000281852              -0.000929104               0.999999985               0.000243473              -0.000923559               0.999999985               0.000198888              -0.000913427               0.999999985               0.000148922              -0.000899281               0.999999985               0.000094007              -0.000881932               0.999999985               0.000035304              -0.000862610               0.999999985              -0.000025332              -0.000842627               0.999999985              -0.000086439              -0.000822583               0.999999985               0.000476693              -0.001126854               0.999999985               0.000356246              -0.001038622               0.999999985               0.000314607              -0.001001890               0.999999985               0.000300607              -0.000993240               0.999999985               0.000295783              -0.000999289               0.999999985               0.000292182              -0.001012031               0.999999985               0.000285501              -0.001026655               0.999999985               0.000273114              -0.001039980               0.999999985               0.000253801              -0.001050293               0.999999985               0.000227417              -0.001056968               0.999999985               0.000194105              -0.001059674               0.999999985               0.000154280              -0.001058458               0.999999985               0.000108372              -0.001053543               0.999999985               0.000056653              -0.001045354               0.999999985              -0.000000275              -0.001034758               0.999999985              -0.000061054              -0.001022997               0.999999985              -0.000123719              -0.001011029               0.999999985               0.000403639              -0.001201145               0.999999985               0.000291598              -0.001140596               0.999999985               0.000249350              -0.001111221               0.999999985               0.000233824              -0.001103401               0.999999985               0.000228243              -0.001109081               0.999999985               0.000224965              -0.001122546               0.999999985               0.000220091              -0.001139564               0.999999985               0.000210774              -0.001157167               0.999999985               0.000195557              -0.001173384               0.999999985               0.000174120              -0.001187142               0.999999985               0.000146128              -0.001197887               0.999999985               0.000111386              -0.001205351               0.999999985               0.000070431              -0.001209434               0.999999985               0.000023020              -0.001210325               0.999999985              -0.000031239              -0.001208593               0.999999985              -0.000091403              -0.001205148               0.999999985              -0.000155867              -0.001200990               0.999999985               0.000327142              -0.001263833               0.999999985               0.000229718              -0.001231496               0.999999985               0.000189777              -0.001212778               0.999999985               0.000173522              -0.001208773               0.999999985               0.000167001              -0.001216075               0.999999985               0.000163661              -0.001231037               0.999999985               0.000159795              -0.001250624               0.999999985               0.000152881              -0.001272236               0.999999985               0.000141286              -0.001294054               0.999999985               0.000124488              -0.001314722               0.999999985               0.000101877              -0.001333457               0.999999985               0.000073137              -0.001349666               0.999999985               0.000038081              -0.001362925               0.999999985              -0.000003815              -0.001373286               0.999999985              -0.000053341              -0.001380725               0.999999985              -0.000110779              -0.001385965               0.999999985              -0.000175498              -0.001389885               0.999999985               0.000247871              -0.001313735               0.999999985               0.000170298              -0.001307087               0.999999985               0.000135976              -0.001300528               0.999999985               0.000120704              -0.001302326               0.999999985               0.000114011              -0.001312737               0.999999985               0.000110541              -0.001330078               0.999999985               0.000107329              -0.001352390               0.999999985               0.000102255              -0.001377807               0.999999985               0.000093776              -0.001404669               0.999999985               0.000081401              -0.001431684               0.999999985               0.000064525              -0.001457851               0.999999985               0.000042447              -0.001482353               0.999999985               0.000014501              -0.001504682               0.999999985              -0.000019935              -0.001524588               0.999999985              -0.000061894              -0.001541887               0.999999985              -0.000112701              -0.001556639               0.999999985              -0.000173346              -0.001569288               0.999999985               0.000166446              -0.001350033               0.999999985               0.000112606              -0.001363891               0.999999985               0.000087321              -0.001368463               0.999999985               0.000075315              -0.001376345               0.999999985               0.000069673              -0.001390427               0.999999985               0.000066678              -0.001410448               0.999999985               0.000064160              -0.001435396               0.999999985               0.000060663              -0.001463941               0.999999985               0.000055115              -0.001494800               0.999999985               0.000047011              -0.001526949               0.999999985               0.000035902              -0.001559358               0.999999985               0.000020977              -0.001591152               0.999999985               0.000001457              -0.001621711               0.999999985              -0.000023337              -0.001650417               0.999999985              -0.000054309              -0.001677020               0.999999985              -0.000092968              -0.001701168               0.999999985              -0.000141327              -0.001722488               0.999999985               0.000083567              -0.001372126               0.999999985               0.000056014              -0.001399076               0.999999985               0.000042618              -0.001411384               0.999999985               0.000035975              -0.001423833               0.999999985               0.000032723              -0.001440807               0.999999985               0.000030974              -0.001463004               0.999999985               0.000029520              -0.001489944               0.999999985               0.000027683              -0.001520669               0.999999985               0.000024892              -0.001554121               0.999999985               0.000021079              -0.001589511               0.999999985               0.000015498              -0.001625971               0.999999985               0.000007851              -0.001662769               0.999999985              -0.000002142              -0.001699155               0.999999985              -0.000015095              -0.001734367               0.999999985              -0.000031651              -0.001767927               0.999999985              -0.000052763              -0.001799187               0.999999985              -0.000079858              -0.001827279               0.999999985               0.000000000              -0.001379575               0.999999985              -0.000000000              -0.001410965               0.999999985              -0.000000000              -0.001426027               0.999999985              -0.000000000              -0.001440211               0.999999985               0.000000000              -0.001458231               0.999999985              -0.000000000              -0.001481270               0.999999985               0.000000000              -0.001508925               0.999999985              -0.000000000              -0.001540365               0.999999985              -0.000000000              -0.001574837               0.999999985               0.000000000              -0.001611497               0.999999985              -0.000000000              -0.001649437               0.999999985               0.000000000              -0.001687911               0.999999985              -0.000000000              -0.001726281               0.999999985              -0.000000000              -0.001763944               0.999999985               0.000000000              -0.001800123               0.999999985               0.000000000              -0.001833791               0.999999985               0.000000000              -0.001864203               0.999999985               0.000896749              -0.000000000               0.999999985               0.000947007               0.000000000               0.999999985               0.000968613              -0.000000000               0.999999985               0.000981114              -0.000000000               0.999999985               0.000991443               0.000000000               0.999999985               0.001002233              -0.000000000               0.999999985               0.001014036               0.000000000               0.999999985               0.001026768               0.000000000               0.999999985               0.001040071               0.000000000               0.999999985               0.001053512               0.000000000               0.999999985               0.001066695               0.000000000               0.999999985               0.001079217               0.000000000               0.999999985               0.001090808              -0.000000000               0.999999985               0.001101199               0.000000000               0.999999985               0.001109987               0.000000000               0.999999985               0.001116487               0.000000000               0.999999985               0.001119896               0.000000000               0.999999985               0.000891690               0.000131084               0.999999985               0.000937765               0.000104074               0.999999985               0.000956638               0.000091943               0.999999985               0.000967326               0.000086949               0.999999985               0.000976394               0.000085593               0.999999985               0.000986063               0.000085939               0.999999985               0.000996812               0.000086825               0.999999985               0.001008474               0.000087282               0.999999985               0.001020558               0.000086913               0.999999985               0.001032593               0.000085207               0.999999985               0.001044165               0.000082036               0.999999985               0.001054841               0.000077354               0.999999985               0.001064337               0.000070844               0.999999985               0.001072445               0.000062076               0.999999985               0.001078802               0.000050200               0.999999985               0.001082860               0.000034275               0.999999985               0.001084003               0.000012944               0.999999985               0.000876687               0.000260967               0.999999985               0.000910361               0.000207842               0.999999985               0.000921605               0.000184771               0.999999985               0.000927466               0.000175941               0.999999985               0.000933143               0.000174015               0.999999985               0.000939983               0.000175247               0.999999985               0.000947994               0.000177155               0.999999985               0.000956651               0.000178434               0.999999985               0.000965392               0.000177768               0.999999985               0.000973678               0.000174757               0.999999985               0.000981082               0.000168727               0.999999985               0.000987099               0.000159687               0.999999985               0.000991408               0.000147437               0.999999985               0.000993823               0.000131108               0.999999985               0.000993982               0.000109465               0.999999985               0.000991639               0.000081253               0.999999985               0.000986790               0.000045236               0.999999985               0.000852119               0.000388452               0.999999985               0.000866216               0.000310963               0.999999985               0.000866348               0.000279412               0.999999985               0.000865632               0.000268606               0.999999985               0.000866937               0.000267340               0.999999985               0.000870229               0.000270018               0.999999985               0.000874639               0.000273510               0.999999985               0.000879313               0.000275630               0.999999985               0.000883471               0.000275177               0.999999985               0.000886533               0.000271032               0.999999985               0.000887858               0.000262716               0.999999985               0.000887102               0.000250269               0.999999985               0.000884117               0.000233436               0.999999985               0.000878597               0.000211338               0.999999985               0.000870504               0.000182951               0.999999985               0.000859899               0.000147604               0.999999985               0.000847088               0.000104656               0.999999985               0.000818319               0.000512446               0.999999985               0.000807617               0.000413397               0.999999985               0.000795435               0.000376365               0.999999985               0.000788198               0.000365583               0.999999985               0.000785416               0.000366145               0.999999985               0.000785238               0.000370940               0.999999985               0.000786038               0.000376137               0.999999985               0.000786409               0.000379397               0.999999985               0.000785336               0.000379007               0.999999985               0.000781976               0.000373929               0.999999985               0.000776029               0.000363786               0.999999985               0.000767318               0.000348757               0.999999985               0.000755623               0.000328697               0.999999985               0.000740946               0.000303031               0.999999985               0.000723419               0.000271226               0.999999985               0.000703477               0.000233402               0.999999985               0.000681908               0.000189995               0.999999985               0.000776105               0.000631733               0.999999985               0.000737571               0.000515322               0.999999985               0.000713963               0.000475812               0.999999985               0.000701733               0.000466676               0.999999985               0.000696069               0.000469865               0.999999985               0.000693333               0.000477054               0.999999985               0.000690807               0.000484015               0.999999985               0.000686765               0.000488052               0.999999985               0.000679964               0.000487442               0.999999985               0.000669649               0.000481288               0.999999985               0.000655731               0.000469753               0.999999985               0.000638178               0.000452841               0.999999985               0.000616977               0.000430838               0.999999985               0.000592534               0.000403464               0.999999985               0.000565277               0.000370638               0.999999985               0.000535958               0.000333419               0.999999985               0.000505387               0.000293032               0.999999985               0.000726314               0.000745217               0.999999985               0.000659643               0.000616762               0.999999985               0.000627341               0.000577272               0.999999985               0.000612583               0.000570794               0.999999985               0.000605827               0.000576760               0.999999985               0.000601314               0.000586225               0.999999985               0.000595691               0.000594504               0.999999985               0.000587029               0.000598943               0.999999985               0.000573955               0.000597786               0.999999985               0.000555966               0.000590605               0.999999985               0.000533234               0.000577900               0.999999985               0.000505990               0.000559823               0.999999985               0.000474650               0.000536781               0.999999985               0.000439940               0.000508950               0.999999985               0.000402670               0.000476696               0.999999985               0.000363625               0.000441549               0.999999985               0.000323523               0.000404877               0.999999985               0.000669885               0.000851845               0.999999985               0.000577459               0.000717547               0.999999985               0.000540360               0.000679811               0.999999985               0.000526024               0.000676072               0.999999985               0.000519486               0.000684538               0.999999985               0.000513694               0.000695813               0.999999985               0.000504928               0.000704955               0.999999985               0.000490914               0.000709356               0.999999985               0.000470641               0.000707454               0.999999985               0.000444057               0.000699317               0.999999985               0.000411597               0.000685755               0.999999985               0.000373907               0.000666962               0.999999985               0.000331839               0.000643377               0.999999985               0.000286445               0.000615665               0.999999985               0.000238652               0.000584747               0.999999985               0.000189244               0.000552280               0.999999985               0.000139127               0.000519341               0.999999985               0.000608817               0.000949558               0.999999985               0.000493898               0.000817520               0.999999985               0.000457456               0.000781874               0.999999985               0.000445467               0.000780373               0.999999985               0.000439883               0.000791043               0.999999985               0.000432916               0.000803717               0.999999985               0.000420347               0.000813252               0.999999985               0.000400036               0.000817142               0.999999985               0.000371410               0.000814510               0.999999985               0.000335144               0.000805725               0.999999985               0.000291930               0.000791319               0.999999985               0.000242915               0.000771727               0.999999985               0.000189266               0.000747888               0.999999985               0.000132141               0.000720990               0.999999985               0.000072863               0.000692587               0.999999985               0.000012656               0.000663875               0.999999985              -0.000047627               0.000635269               0.999999985               0.000545615               0.001042240               0.999999985               0.000423701               0.000929779               0.999999985               0.000384578               0.000890364               0.999999985               0.000371994               0.000884151               0.999999985               0.000367260               0.000892046               0.999999985               0.000362373               0.000904726               0.999999985               0.000353172               0.000916828               0.999999985               0.000337092               0.000925658               0.999999985               0.000313190               0.000929849               0.999999985               0.000281852               0.000929104               0.999999985               0.000243473               0.000923559               0.999999985               0.000198888               0.000913427               0.999999985               0.000148922               0.000899281               0.999999985               0.000094007               0.000881932               0.999999985               0.000035304               0.000862610               0.999999985              -0.000025332               0.000842627               0.999999985              -0.000086439               0.000822583               0.999999985               0.000476693               0.001126854               0.999999985               0.000356246               0.001038622               0.999999985               0.000314607               0.001001890               0.999999985               0.000300607               0.000993240               0.999999985               0.000295783               0.000999289               0.999999985               0.000292182               0.001012031               0.999999985               0.000285501               0.001026655               0.999999985               0.000273114               0.001039980               0.999999985               0.000253801               0.001050293               0.999999985               0.000227417               0.001056968               0.999999985               0.000194105               0.001059674               0.999999985               0.000154280               0.001058458               0.999999985               0.000108372               0.001053543               0.999999985               0.000056653               0.001045354               0.999999985              -0.000000275               0.001034758               0.999999985              -0.000061054               0.001022997               0.999999985              -0.000123719               0.001011029               0.999999985               0.000403639               0.001201145               0.999999985               0.000291598               0.001140596               0.999999985               0.000249350               0.001111221               0.999999985               0.000233824               0.001103401               0.999999985               0.000228243               0.001109081               0.999999985               0.000224965               0.001122546               0.999999985               0.000220091               0.001139564               0.999999985               0.000210774               0.001157167               0.999999985               0.000195557               0.001173384               0.999999985               0.000174120               0.001187142               0.999999985               0.000146128               0.001197887               0.999999985               0.000111386               0.001205351               0.999999985               0.000070431               0.001209434               0.999999985               0.000023020               0.001210325               0.999999985              -0.000031239               0.001208593               0.999999985              -0.000091403               0.001205148               0.999999985              -0.000155867               0.001200990               0.999999985               0.000327142               0.001263833               0.999999985               0.000229718               0.001231496               0.999999985               0.000189777               0.001212778               0.999999985               0.000173522               0.001208773               0.999999985               0.000167001               0.001216075               0.999999985               0.000163661               0.001231037               0.999999985               0.000159795               0.001250624               0.999999985               0.000152881               0.001272236               0.999999985               0.000141286               0.001294054               0.999999985               0.000124488               0.001314722               0.999999985               0.000101877               0.001333457               0.999999985               0.000073137               0.001349666               0.999999985               0.000038081               0.001362925               0.999999985              -0.000003815               0.001373286               0.999999985              -0.000053341               0.001380725               0.999999985              -0.000110779               0.001385965               0.999999985              -0.000175498               0.001389885               0.999999985               0.000247871               0.001313735               0.999999985               0.000170298               0.001307087               0.999999985               0.000135976               0.001300528               0.999999985               0.000120704               0.001302326               0.999999985               0.000114011               0.001312737               0.999999985               0.000110541               0.001330078               0.999999985               0.000107329               0.001352390               0.999999985               0.000102255               0.001377807               0.999999985               0.000093776               0.001404669               0.999999985               0.000081401               0.001431684               0.999999985               0.000064525               0.001457851               0.999999985               0.000042447               0.001482353               0.999999985               0.000014501               0.001504682               0.999999985              -0.000019935               0.001524588               0.999999985              -0.000061894               0.001541887               0.999999985              -0.000112701               0.001556639               0.999999985              -0.000173346               0.001569288               0.999999985               0.000166446               0.001350033               0.999999985               0.000112606               0.001363891               0.999999985               0.000087321               0.001368463               0.999999985               0.000075315               0.001376345               0.999999985               0.000069673               0.001390427               0.999999985               0.000066678               0.001410448               0.999999985               0.000064160               0.001435396               0.999999985               0.000060663               0.001463941               0.999999985               0.000055115               0.001494800               0.999999985               0.000047011               0.001526949               0.999999985               0.000035902               0.001559358               0.999999985               0.000020977               0.001591152               0.999999985               0.000001457               0.001621711               0.999999985              -0.000023337               0.001650417               0.999999985              -0.000054309               0.001677020               0.999999985              -0.000092968               0.001701168               0.999999985              -0.000141327               0.001722488               0.999999985               0.000083567               0.001372126               0.999999985               0.000056014               0.001399076               0.999999985               0.000042618               0.001411384               0.999999985               0.000035975               0.001423833               0.999999985               0.000032723               0.001440807               0.999999985               0.000030974               0.001463004               0.999999985               0.000029520               0.001489944               0.999999985               0.000027683               0.001520669               0.999999985               0.000024892               0.001554121               0.999999985               0.000021079               0.001589511               0.999999985               0.000015498               0.001625971               0.999999985               0.000007851               0.001662769               0.999999985              -0.000002142               0.001699155               0.999999985              -0.000015095               0.001734367               0.999999985              -0.000031651               0.001767927               0.999999985              -0.000052763               0.001799187               0.999999985              -0.000079858               0.001827279               0.999999985               0.000000000               0.001379575               0.999999985              -0.000000000               0.001410965               0.999999985               0.000000000               0.001426027               0.999999985               0.000000000               0.001440211               0.999999985               0.000000000               0.001458231               0.999999985               0.000000000               0.001481270               0.999999985               0.000000000               0.001508925               0.999999985              -0.000000000               0.001540365               0.999999985              -0.000000000               0.001574837               0.999999985              -0.000000000               0.001611497               0.999999985               0.000000000               0.001649437               0.999999985              -0.000000000               0.001687911               0.999999985              -0.000000000               0.001726281               0.999999985               0.000000000               0.001763944               0.999999985               0.000000000               0.001800123               0.999999985               0.000000000               0.001833791               0.999999985               0.000000000               0.001864203               0.999999985 </DataArray>
<DataArray type="Float64"                                    Name="stress"                                                      NumberOfComponents="10" format="ascii">
              0.002207839               0.023786420              -0.000000000              -0.002145358               0.008643847               0.006498489               0.000000000               0.000000000               0.000000000               0.000000000               0.002089076               0.018257010              -0.000000000              -0.001498719               0.006585182               0.005086463               0.000000000               0.000000000               0.000000000               0.000000000               0.002656558               0.013781154              -0.000000000              -0.000726433               0.004835817               0.004109383               0.000000000               0.000000000               0.000000000               0.000000000               0.002418903               0.011257516               0.000000000              -0.000500100               0.003919168               0.003419068               0.000000000               0.000000000               0.000000000               0.000000000               0.001969516               0.009663684              -0.000000000              -0.000469391               0.003377659               0.002908268               0.000000000               0.000000000               0.000000000               0.000000000               0.001510277               0.008549562              -0.000000000              -0.000502340               0.003017272               0.002514932               0.000000000               0.000000000               0.000000000               0.000000000               0.001113458               0.007691806              -0.000000000              -0.000543928               0.002745219               0.002201291               0.000000000               0.000000000               0.000000000               0.000000000               0.000788842               0.006961372               0.000000000              -0.000574355               0.002511886               0.001937531               0.000000000               0.000000000               0.000000000               0.000000000               0.000534409               0.006296379               0.000000000              -0.000586642               0.002294319               0.001707677               0.000000000               0.000000000               0.000000000               0.000000000               0.000336178               0.005654778               0.000000000              -0.000580779               0.002078500               0.001497721               0.000000000               0.000000000               0.000000000               0.000000000               0.000187775               0.005022737               0.000000000              -0.000557425               0.001860037               0.001302612               0.000000000               0.000000000               0.000000000               0.000000000               0.000078980               0.004392260               0.000000000              -0.000519414               0.001637210               0.001117796               0.000000000               0.000000000               0.000000000               0.000000000              -0.000005606               0.003744911              -0.000000000              -0.000470215               0.001405030               0.000934815               0.000000000               0.000000000               0.000000000               0.000000000              -0.000065302               0.003061191              -0.000000000              -0.000407136               0.001156099               0.000748963               0.000000000               0.000000000               0.000000000               0.000000000              -0.000085736               0.002315615               0.000000000              -0.000321602               0.000879065               0.000557462               0.000000000               0.000000000               0.000000000               0.000000000              -0.000056188               0.001478843              -0.000000000              -0.000205925               0.000561584               0.000355659               0.000000000               0.000000000               0.000000000               0.000000000              -0.000097627               0.000837290              -0.000000000              -0.000141271               0.000326184               0.000184913               0.000000000               0.000000000               0.000000000               0.000000000               0.002266540               0.023274714              -0.001565772              -0.002059382               0.008444621               0.006385239               0.000000000               0.000000000               0.000000000               0.000000000               0.002020509               0.017936521              -0.000694708              -0.001484371               0.006473571               0.004989200               0.000000000               0.000000000               0.000000000               0.000000000               0.002451547               0.013653982               0.000162100              -0.000787416               0.004813754               0.004026338               0.000000000               0.000000000               0.000000000               0.000000000               0.002164367               0.011233373               0.000511813              -0.000592533               0.003941931               0.003349398               0.000000000               0.000000000               0.000000000               0.000000000               0.001710736               0.009692916               0.000648723              -0.000570087               0.003420969               0.002850882               0.000000000               0.000000000               0.000000000               0.000000000               0.001266837               0.008603979               0.000690355              -0.000600432               0.003068108               0.002467676               0.000000000               0.000000000               0.000000000               0.000000000               0.000888697               0.007752652               0.000684446              -0.000635819               0.002796131               0.002160312               0.000000000               0.000000000               0.000000000               0.000000000               0.000588969               0.007030008               0.000656181              -0.000657886               0.002562608               0.001904722               0.000000000               0.000000000               0.000000000               0.000000000               0.000359970               0.006368604               0.000618690              -0.000661085               0.002343208               0.001682123               0.000000000               0.000000000               0.000000000               0.000000000               0.000187913               0.005736442               0.000577955              -0.000646586               0.002127657               0.001481070               0.000000000               0.000000000               0.000000000               0.000000000               0.000064873               0.005113624               0.000541452              -0.000614874               0.001909482               0.001294608               0.000000000               0.000000000               0.000000000               0.000000000              -0.000018128               0.004494686               0.000507083              -0.000568632               0.001687758               0.001119125               0.000000000               0.000000000               0.000000000               0.000000000              -0.000077210               0.003868546               0.000465146              -0.000512521               0.001460343               0.000947822               0.000000000               0.000000000               0.000000000               0.000000000              -0.000112709               0.003217277               0.000403265              -0.000444424               0.001220556               0.000776132               0.000000000               0.000000000               0.000000000               0.000000000              -0.000112173               0.002522849               0.000311875              -0.000357420               0.000960081               0.000602661               0.000000000               0.000000000               0.000000000               0.000000000              -0.000069538               0.001768277               0.000180117              -0.000247111               0.000671790               0.000424679               0.000000000               0.000000000               0.000000000               0.000000000              -0.000096471               0.001208682               0.000112381              -0.000187261               0.000465311               0.000278049               0.000000000               0.000000000               0.000000000               0.000000000               0.002411101               0.021810742              -0.002891538              -0.001822177               0.007877567               0.006055390               0.000000000               0.000000000               0.000000000               0.000000000               0.001805432               0.017021547              -0.001274886              -0.001450653               0.006157343               0.004706690               0.000000000               0.000000000               0.000000000               0.000000000               0.001857565               0.013300033               0.000299462              -0.000965915               0.004755272               0.003789357               0.000000000               0.000000000               0.000000000               0.000000000               0.001447023               0.011162459               0.000917469              -0.000852672               0.004005006               0.003152335               0.000000000               0.000000000               0.000000000               0.000000000               0.000989884               0.009760493               0.001145826              -0.000848853               0.003536416               0.002687563               0.000000000               0.000000000               0.000000000               0.000000000               0.000595061               0.008732865               0.001203386              -0.000868458               0.003200412               0.002331954               0.000000000               0.000000000               0.000000000               0.000000000               0.000287260               0.007909606               0.001183307              -0.000880977               0.002930168               0.002049191               0.000000000               0.000000000               0.000000000               0.000000000               0.000062295               0.007200784               0.001125685              -0.000876736               0.002692482               0.001815747               0.000000000               0.000000000               0.000000000               0.000000000              -0.000094930               0.006554463               0.001051352              -0.000854905               0.002469767               0.001614862               0.000000000               0.000000000               0.000000000               0.000000000              -0.000199232               0.005939497               0.000971845              -0.000817147               0.002252195               0.001435047               0.000000000               0.000000000               0.000000000               0.000000000              -0.000256858               0.005342672               0.000897522              -0.000764154               0.002035591               0.001271437               0.000000000               0.000000000               0.000000000               0.000000000              -0.000275691               0.004761819               0.000830779              -0.000698610               0.001820127               0.001121517               0.000000000               0.000000000               0.000000000               0.000000000              -0.000269638               0.004190790               0.000750837              -0.000624962               0.001605237               0.000980275               0.000000000               0.000000000               0.000000000               0.000000000              -0.000238620               0.003621447               0.000637063              -0.000542162               0.001387857               0.000845695               0.000000000               0.000000000               0.000000000               0.000000000              -0.000177556               0.003053989               0.000478871              -0.000448331               0.001167430               0.000719099               0.000000000               0.000000000               0.000000000               0.000000000              -0.000095210               0.002493905               0.000268892              -0.000347441               0.000947107               0.000599666               0.000000000               0.000000000               0.000000000               0.000000000              -0.000088917               0.002113342               0.000163246              -0.000297511               0.000803611               0.000506100               0.000000000               0.000000000               0.000000000               0.000000000               0.002521983               0.019592020              -0.003796057              -0.001503258               0.007031693               0.005528436               0.000000000               0.000000000               0.000000000               0.000000000               0.001418585               0.015651747              -0.001668573              -0.001424496               0.005692029               0.004267532               0.000000000               0.000000000               0.000000000               0.000000000               0.000951666               0.012776023               0.000371219              -0.001240125               0.004672007               0.003431882               0.000000000               0.000000000               0.000000000               0.000000000               0.000403455               0.011032497               0.001123478              -0.001227764               0.004086717               0.002858953               0.000000000               0.000000000               0.000000000               0.000000000              -0.000029138               0.009813441               0.001377202              -0.001237604               0.003683649               0.002446045               0.000000000               0.000000000               0.000000000               0.000000000              -0.000329297               0.008868546               0.001426783              -0.001232052               0.003366836               0.002134784               0.000000000               0.000000000               0.000000000               0.000000000              -0.000517375               0.008084629               0.001385171              -0.001204592               0.003096380               0.001891788               0.000000000               0.000000000               0.000000000               0.000000000              -0.000622144               0.007395737               0.001302036              -0.001157769               0.002851144               0.001693375               0.000000000               0.000000000               0.000000000               0.000000000              -0.000666957               0.006765866               0.001200370              -0.001095840               0.002620546               0.001524706               0.000000000               0.000000000               0.000000000               0.000000000              -0.000666846               0.006171345               0.001094631              -0.001021483               0.002397589               0.001376105               0.000000000               0.000000000               0.000000000               0.000000000              -0.000628343               0.005612760               0.000998828              -0.000937222               0.002183308               0.001246087               0.000000000               0.000000000               0.000000000               0.000000000              -0.000564939               0.005086796               0.000910528              -0.000847700               0.001978148               0.001130448               0.000000000               0.000000000               0.000000000               0.000000000              -0.000478818               0.004590619               0.000806487              -0.000753382               0.001781318               0.001027936               0.000000000               0.000000000               0.000000000               0.000000000              -0.000371477               0.004128211               0.000665986              -0.000655329               0.001594499               0.000939170               0.000000000               0.000000000               0.000000000               0.000000000              -0.000250664               0.003711681               0.000485659              -0.000557958               0.001423201               0.000865243               0.000000000               0.000000000               0.000000000               0.000000000              -0.000125929               0.003362160               0.000264838              -0.000467492               0.001276540               0.000809047               0.000000000               0.000000000               0.000000000               0.000000000              -0.000083224               0.003160209               0.000153080              -0.000426234               0.001195471               0.000769236               0.000000000               0.000000000               0.000000000               0.000000000               0.002440050               0.016885433              -0.004199408              -0.001195661               0.006026974               0.004831313               0.000000000               0.000000000               0.000000000               0.000000000               0.000831748               0.014018167              -0.001861957              -0.001440363               0.005152796               0.003712433               0.000000000               0.000000000               0.000000000               0.000000000              -0.000163775               0.012143561               0.000338602              -0.001579357               0.004574265               0.002994909               0.000000000               0.000000000               0.000000000               0.000000000              -0.000786942               0.010828013               0.001087394              -0.001648601               0.004158835               0.002510234               0.000000000               0.000000000               0.000000000               0.000000000              -0.001128885               0.009801575               0.001314017              -0.001648525               0.003816667               0.002168142               0.000000000               0.000000000               0.000000000               0.000000000              -0.001282462               0.008946056               0.001339862              -0.001599177               0.003515048               0.001915871               0.000000000               0.000000000               0.000000000               0.000000000              -0.001314866               0.008201085               0.001283643              -0.001518207               0.003239737               0.001721529               0.000000000               0.000000000               0.000000000               0.000000000              -0.001268566               0.007530911               0.001189825              -0.001417073               0.002982636               0.001565563               0.000000000               0.000000000               0.000000000               0.000000000              -0.001171068               0.006911950               0.001080439              -0.001303141               0.002738341               0.001435199               0.000000000               0.000000000               0.000000000               0.000000000              -0.001047424               0.006341295               0.000971847              -0.001185443               0.002508891               0.001323448               0.000000000               0.000000000               0.000000000               0.000000000              -0.000911289               0.005824513               0.000873385              -0.001069795               0.002298083               0.001228288               0.000000000               0.000000000               0.000000000               0.000000000              -0.000760286               0.005358547               0.000781897              -0.000954923               0.002104472               0.001149549               0.000000000               0.000000000               0.000000000               0.000000000              -0.000597132               0.004945367               0.000676222              -0.000842093               0.001929137               0.001087043               0.000000000               0.000000000               0.000000000               0.000000000              -0.000427809               0.004591071               0.000538250              -0.000734310               0.001775112               0.001040801               0.000000000               0.000000000               0.000000000               0.000000000              -0.000263841               0.004308236               0.000375030              -0.000637468               0.001648554               0.001011085               0.000000000               0.000000000               0.000000000               0.000000000              -0.000123602               0.004116649               0.000196193              -0.000560930               0.001559179               0.000998249               0.000000000               0.000000000               0.000000000               0.000000000              -0.000066715               0.004036456               0.000106568              -0.000529574               0.001521996               0.000992423               0.000000000               0.000000000               0.000000000               0.000000000               0.002051410               0.013979141              -0.004117290              -0.000978115               0.004985704               0.004007589               0.000000000               0.000000000               0.000000000               0.000000000               0.000060151               0.012301637              -0.001889179              -0.001515146               0.004605553               0.003090407               0.000000000               0.000000000               0.000000000               0.000000000              -0.001353378               0.011453538               0.000176069              -0.001939204               0.004464209               0.002525005               0.000000000               0.000000000               0.000000000               0.000000000              -0.001940314               0.010538897               0.000821216              -0.002044975               0.004194589               0.002149614               0.000000000               0.000000000               0.000000000               0.000000000              -0.002118504               0.009683393               0.000997073              -0.002004858               0.003896051               0.001891193               0.000000000               0.000000000               0.000000000               0.000000000              -0.002082801               0.008907364               0.001006675              -0.001894466               0.003600580               0.001706114               0.000000000               0.000000000               0.000000000               0.000000000              -0.001936407               0.008198016               0.000953343              -0.001750900               0.003316278               0.001565378               0.000000000               0.000000000               0.000000000               0.000000000              -0.001730182               0.007543701               0.000870028              -0.001591777               0.003045134               0.001453357               0.000000000               0.000000000               0.000000000               0.000000000              -0.001491264               0.006943272               0.000776318              -0.001427129               0.002790111               0.001362981               0.000000000               0.000000000               0.000000000               0.000000000              -0.001251231               0.006405144               0.000689411              -0.001269852               0.002558311               0.001288459               0.000000000               0.000000000               0.000000000               0.000000000              -0.001023331               0.005936687               0.000611412              -0.001125832               0.002354153               0.001228321               0.000000000               0.000000000               0.000000000               0.000000000              -0.000798623               0.005533400               0.000537214              -0.000991156               0.002174834               0.001183677               0.000000000               0.000000000               0.000000000               0.000000000              -0.000585513               0.005193002               0.000451303              -0.000868691               0.002020547               0.001151856               0.000000000               0.000000000               0.000000000               0.000000000              -0.000392645               0.004919656               0.000338220              -0.000762197               0.001893935               0.001131737               0.000000000               0.000000000               0.000000000               0.000000000              -0.000225627               0.004723771               0.000216133              -0.000675080               0.001799601               0.001124521               0.000000000               0.000000000               0.000000000               0.000000000              -0.000098197               0.004615399               0.000104936              -0.000613747               0.001743033               0.001129286               0.000000000               0.000000000               0.000000000               0.000000000              -0.000047172               0.004584398               0.000053856              -0.000590738               0.001725030               0.001134292               0.000000000               0.000000000               0.000000000               0.000000000               0.001284841               0.011126732              -0.003639057              -0.000909027               0.004011882               0.003102855               0.000000000               0.000000000               0.000000000               0.000000000              -0.000858403               0.010637376              -0.001809973              -0.001651570               0.004096279               0.002444709               0.000000000               0.000000000               0.000000000               0.000000000              -0.002483781               0.010728272              -0.000122026              -0.002272446               0.004333537               0.002061091               0.000000000               0.000000000               0.000000000               0.000000000              -0.002909390               0.010146629               0.000372727              -0.002359344               0.004168624               0.001809280               0.000000000               0.000000000               0.000000000               0.000000000              -0.002864518               0.009432352               0.000511199              -0.002253233               0.003895163               0.001641931               0.000000000               0.000000000               0.000000000               0.000000000              -0.002621246               0.008724592               0.000530540              -0.002073536               0.003599347               0.001525811               0.000000000               0.000000000               0.000000000               0.000000000              -0.002298496               0.008050352               0.000504092              -0.001868225               0.003306166               0.001437940               0.000000000               0.000000000               0.000000000               0.000000000              -0.001945063               0.007423566               0.000455647              -0.001657340               0.003026944               0.001369604               0.000000000               0.000000000               0.000000000               0.000000000              -0.001586939               0.006856397               0.000400446              -0.001452148               0.002769492               0.001317344               0.000000000               0.000000000               0.000000000               0.000000000              -0.001254242               0.006364418               0.000354833              -0.001265890               0.002543415               0.001277525               0.000000000               0.000000000               0.000000000               0.000000000              -0.000957562               0.005948359               0.000314792              -0.001102628               0.002350309               0.001247681               0.000000000               0.000000000               0.000000000               0.000000000              -0.000691588               0.005600038               0.000271033              -0.000959348               0.002186443               0.001227095               0.000000000               0.000000000               0.000000000               0.000000000              -0.000466589               0.005309847               0.000217023              -0.000838700               0.002049498               0.001210798               0.000000000               0.000000000               0.000000000               0.000000000              -0.000287932               0.005084000               0.000144905              -0.000743473               0.001942474               0.001199001               0.000000000               0.000000000               0.000000000               0.000000000              -0.000150399               0.004934035               0.000076463              -0.000673152               0.001869046               0.001195894               0.000000000               0.000000000               0.000000000               0.000000000              -0.000057184               0.004856206               0.000031828              -0.000628468               0.001828208               0.001199740               0.000000000               0.000000000               0.000000000               0.000000000              -0.000025914               0.004831305               0.000016938              -0.000613629               0.001814962               0.001201333               0.000000000               0.000000000               0.000000000               0.000000000               0.000185226               0.008501000              -0.002884054              -0.000993165               0.003164693               0.002171527               0.000000000               0.000000000               0.000000000               0.000000000              -0.001867746               0.009118867              -0.001680511              -0.001840259               0.003653011               0.001812752               0.000000000               0.000000000               0.000000000               0.000000000              -0.003448077               0.009970564              -0.000538683              -0.002539343               0.004169936               0.001630593               0.000000000               0.000000000               0.000000000               0.000000000              -0.003606659               0.009647129              -0.000176285              -0.002558382               0.004068471               0.001510090               0.000000000               0.000000000               0.000000000               0.000000000              -0.003314940               0.009061884              -0.000039147              -0.002375832               0.003812542               0.001436710               0.000000000               0.000000000               0.000000000               0.000000000              -0.002874313               0.008423161               0.000015120              -0.002130757               0.003517945               0.001387187               0.000000000               0.000000000               0.000000000               0.000000000              -0.002392003               0.007792731               0.000037705              -0.001871088               0.003221247               0.001350159               0.000000000               0.000000000               0.000000000               0.000000000              -0.001916472               0.007202275               0.000044607              -0.001618957               0.002940387               0.001321429               0.000000000               0.000000000               0.000000000               0.000000000              -0.001476986               0.006681022               0.000043103              -0.001388994               0.002689983               0.001300989               0.000000000               0.000000000               0.000000000               0.000000000              -0.001087335               0.006242498               0.000046581              -0.001188060               0.002476832               0.001288772               0.000000000               0.000000000               0.000000000               0.000000000              -0.000758920               0.005869850               0.000050389              -0.001018324               0.002296039               0.001277715               0.000000000               0.000000000               0.000000000               0.000000000              -0.000492576               0.005553221               0.000044083              -0.000878867               0.002144011               0.001265144               0.000000000               0.000000000               0.000000000               0.000000000              -0.000291849               0.005293464               0.000029224              -0.000771124               0.002021512               0.001250387               0.000000000               0.000000000               0.000000000               0.000000000              -0.000154171               0.005101658               0.000008131              -0.000695520               0.001932375               0.001236856               0.000000000               0.000000000               0.000000000               0.000000000              -0.000062515               0.004989885              -0.000005149              -0.000647177               0.001879004               0.001231827               0.000000000               0.000000000               0.000000000               0.000000000              -0.000015750               0.004937581              -0.000003093              -0.000623102               0.001853545               0.001230442               0.000000000               0.000000000               0.000000000               0.000000000              -0.000008831               0.004919186               0.000001985              -0.000618208               0.001845782               0.001227573               0.000000000               0.000000000               0.000000000               0.000000000              -0.001102942               0.006294599              -0.001974233              -0.001200426               0.002498320               0.001297894               0.000000000               0.000000000               0.000000000               0.000000000              -0.002850762               0.007764412              -0.001542832              -0.002039583               0.003267972               0.001228389               0.000000000               0.000000000               0.000000000               0.000000000              -0.004202361               0.009208679              -0.001036547              -0.002726963               0.003978517               0.001251553               0.000000000               0.000000000               0.000000000               0.000000000              -0.004083103               0.009154919              -0.000752363              -0.002675522               0.003943450               0.001267928               0.000000000               0.000000000               0.000000000               0.000000000              -0.003586727               0.008721115              -0.000587102              -0.002435156               0.003718728               0.001283572               0.000000000               0.000000000               0.000000000               0.000000000              -0.002989725               0.008174386              -0.000482792              -0.002142940               0.003439081               0.001296141               0.000000000               0.000000000               0.000000000               0.000000000              -0.002383106               0.007607113              -0.000402384              -0.001844549               0.003150529               0.001305980               0.000000000               0.000000000               0.000000000               0.000000000              -0.001816059               0.007069152              -0.000333315              -0.001564662               0.002877914               0.001313252               0.000000000               0.000000000               0.000000000               0.000000000              -0.001318823               0.006596719              -0.000276366              -0.001319145               0.002638600               0.001319454               0.000000000               0.000000000               0.000000000               0.000000000              -0.000896290               0.006195500              -0.000226123              -0.001110544               0.002435327               0.001324784               0.000000000               0.000000000               0.000000000               0.000000000              -0.000557034               0.005838494              -0.000181256              -0.000938697               0.002259044               0.001320347               0.000000000               0.000000000               0.000000000               0.000000000              -0.000300592               0.005525761              -0.000145075              -0.000803440               0.002109715               0.001306275               0.000000000               0.000000000               0.000000000               0.000000000              -0.000120044               0.005274876              -0.000110239              -0.000704374               0.001993066               0.001288691               0.000000000               0.000000000               0.000000000               0.000000000              -0.000017563               0.005100594              -0.000071411              -0.000644159               0.001914901               0.001270742               0.000000000               0.000000000               0.000000000               0.000000000               0.000021860               0.005011288              -0.000034128              -0.000618212               0.001876483               0.001258271               0.000000000               0.000000000               0.000000000               0.000000000               0.000020349               0.004977793              -0.000008096              -0.000614592               0.001864112               0.001249520               0.000000000               0.000000000               0.000000000               0.000000000               0.000007570               0.004966309               0.000002548              -0.000617948               0.001861402               0.001243454               0.000000000               0.000000000               0.000000000               0.000000000              -0.002597716               0.004258304              -0.001024315              -0.001506428               0.001921563               0.000415135               0.000000000               0.000000000               0.000000000               0.000000000              -0.003677062               0.006191107              -0.001393403              -0.002152782               0.002781275               0.000628494               0.000000000               0.000000000               0.000000000               0.000000000              -0.004653410               0.008063640              -0.001556793              -0.002752977               0.003605512               0.000852535               0.000000000               0.000000000               0.000000000               0.000000000              -0.004383615               0.008412163              -0.001360794              -0.002695369               0.003702482               0.001007113               0.000000000               0.000000000               0.000000000               0.000000000              -0.003804236               0.008257512              -0.001163351              -0.002458771               0.003572067               0.001113295               0.000000000               0.000000000               0.000000000               0.000000000              -0.003156912               0.007915884              -0.001002431              -0.002173322               0.003363042               0.001189720               0.000000000               0.000000000               0.000000000               0.000000000              -0.002514346               0.007506691              -0.000864321              -0.001881212               0.003129276               0.001248064               0.000000000               0.000000000               0.000000000               0.000000000              -0.001915090               0.007085685              -0.000737221              -0.001603865               0.002896493               0.001292628               0.000000000               0.000000000               0.000000000               0.000000000              -0.001384303               0.006686635              -0.000627603              -0.001354940               0.002680503               0.001325563               0.000000000               0.000000000               0.000000000               0.000000000              -0.000933208               0.006322659              -0.000530993              -0.001140283               0.002487626               0.001347343               0.000000000               0.000000000               0.000000000               0.000000000              -0.000567587               0.005981204              -0.000441688              -0.000960493               0.002313879               0.001353386               0.000000000               0.000000000               0.000000000               0.000000000              -0.000287955               0.005667542              -0.000359139              -0.000816424               0.002161303               0.001344879               0.000000000               0.000000000               0.000000000               0.000000000              -0.000090127               0.005396812              -0.000269634              -0.000708397               0.002035052               0.001326654               0.000000000               0.000000000               0.000000000               0.000000000               0.000029295               0.005190490              -0.000171568              -0.000637824               0.001942754               0.001304930               0.000000000               0.000000000               0.000000000               0.000000000               0.000079246               0.005069526              -0.000085739              -0.000603972               0.001891149               0.001287177               0.000000000               0.000000000               0.000000000               0.000000000               0.000073908               0.005013352              -0.000029180              -0.000598952               0.001870751               0.001271799               0.000000000               0.000000000               0.000000000               0.000000000               0.000050106               0.004988500              -0.000005425              -0.000604771               0.001864407               0.001259636               0.000000000               0.000000000               0.000000000               0.000000000              -0.004484806               0.002416811              -0.000110305              -0.001983900               0.001466894              -0.000517006               0.000000000               0.000000000               0.000000000               0.000000000              -0.004603631               0.004595954              -0.001180311              -0.002300851               0.002298919              -0.000001932               0.000000000               0.000000000               0.000000000               0.000000000              -0.005012141               0.006691253              -0.001975094              -0.002715953               0.003135713               0.000419759               0.000000000               0.000000000               0.000000000               0.000000000              -0.004606048               0.007418751              -0.001939127              -0.002654606               0.003357760               0.000703155               0.000000000               0.000000000               0.000000000               0.000000000              -0.003986217               0.007588195              -0.001743158              -0.002443350               0.003343823               0.000900473               0.000000000               0.000000000               0.000000000               0.000000000              -0.003324878               0.007507131              -0.001540580              -0.002185215               0.003230757               0.001045541               0.000000000               0.000000000               0.000000000               0.000000000              -0.002671483               0.007299157              -0.001354245              -0.001914196               0.003071093               0.001156897               0.000000000               0.000000000               0.000000000               0.000000000              -0.002055853               0.007021015              -0.001182235              -0.001648568               0.002889838               0.001241269               0.000000000               0.000000000               0.000000000               0.000000000              -0.001495659               0.006722570              -0.001030447              -0.001401190               0.002707898               0.001306707               0.000000000               0.000000000               0.000000000               0.000000000              -0.001003326               0.006424493              -0.000894996              -0.001179306               0.002534578               0.001355272               0.000000000               0.000000000               0.000000000               0.000000000              -0.000590034               0.006127267              -0.000766680              -0.000987169               0.002371458               0.001384289               0.000000000               0.000000000               0.000000000               0.000000000              -0.000263919               0.005835792              -0.000641095              -0.000828442               0.002221392               0.001392950               0.000000000               0.000000000               0.000000000               0.000000000              -0.000017742               0.005559204              -0.000507627              -0.000701552               0.002086900               0.001385348               0.000000000               0.000000000               0.000000000               0.000000000               0.000152553               0.005321719              -0.000359536              -0.000608006               0.001976557               0.001368551               0.000000000               0.000000000               0.000000000               0.000000000               0.000239922               0.005152811              -0.000211677              -0.000554129               0.001902296               0.001348167               0.000000000               0.000000000               0.000000000               0.000000000               0.000242513               0.005052155              -0.000089518              -0.000540576               0.001864227               0.001323651               0.000000000               0.000000000               0.000000000               0.000000000               0.000204078               0.005003804              -0.000031271              -0.000548945               0.001850900               0.001301955               0.000000000               0.000000000               0.000000000               0.000000000              -0.006625389               0.000928057               0.000680037              -0.002600525               0.001176186              -0.001424339               0.000000000               0.000000000               0.000000000               0.000000000              -0.005673930               0.003090462              -0.000891816              -0.002514027               0.001868150              -0.000645877               0.000000000               0.000000000               0.000000000               0.000000000              -0.005304769               0.005117966              -0.002181133              -0.002629029               0.002582313              -0.000046715               0.000000000               0.000000000               0.000000000               0.000000000              -0.004680700               0.006108168              -0.002344836              -0.002518778               0.002875627               0.000356850               0.000000000               0.000000000               0.000000000               0.000000000              -0.004002652               0.006582585              -0.002202636              -0.002323812               0.002968776               0.000644964               0.000000000               0.000000000               0.000000000               0.000000000              -0.003332337               0.006773232              -0.001996056              -0.002096276               0.002956479               0.000860204               0.000000000               0.000000000               0.000000000               0.000000000              -0.002684932               0.006786523              -0.001785713              -0.001855161               0.002880538               0.001025377               0.000000000               0.000000000               0.000000000               0.000000000              -0.002068999               0.006688133              -0.001584873              -0.001611888               0.002766651               0.001154763               0.000000000               0.000000000               0.000000000               0.000000000              -0.001497984               0.006527431              -0.001407764              -0.001377670               0.002635012               0.001257342               0.000000000               0.000000000               0.000000000               0.000000000              -0.000978153               0.006333953              -0.001249407              -0.001158549               0.002497479               0.001338930               0.000000000               0.000000000               0.000000000               0.000000000              -0.000519484               0.006119752              -0.001094976              -0.000959774               0.002359821               0.001400048               0.000000000               0.000000000               0.000000000               0.000000000              -0.000133921               0.005885128              -0.000944247              -0.000785860               0.002223643               0.001437783               0.000000000               0.000000000               0.000000000               0.000000000               0.000176547               0.005640674              -0.000784924              -0.000638878               0.002093165               0.001454287               0.000000000               0.000000000               0.000000000               0.000000000               0.000411378               0.005410623              -0.000594873              -0.000522060               0.001977543               0.001455483               0.000000000               0.000000000               0.000000000               0.000000000               0.000559156               0.005220927              -0.000384285              -0.000442932               0.001887935               0.001445004               0.000000000               0.000000000               0.000000000               0.000000000               0.000605117               0.005086763              -0.000183109              -0.000408926               0.001831879               0.001422954               0.000000000               0.000000000               0.000000000               0.000000000               0.000579721               0.005020760              -0.000081714              -0.000410199               0.001810303               0.001400104               0.000000000               0.000000000               0.000000000               0.000000000              -0.008875011              -0.000127460               0.001229399              -0.003312194               0.001061570              -0.002250623               0.000000000               0.000000000               0.000000000               0.000000000              -0.006825842               0.001761542              -0.000577996              -0.002779880               0.001513797              -0.001266083               0.000000000               0.000000000               0.000000000               0.000000000              -0.005562174               0.003489308              -0.002143913              -0.002521974               0.002003747              -0.000518228               0.000000000               0.000000000               0.000000000               0.000000000              -0.004633984               0.004606120              -0.002481920              -0.002313504               0.002306525              -0.000006980               0.000000000               0.000000000               0.000000000               0.000000000              -0.003859741               0.005313995              -0.002427348              -0.002111648               0.002475196               0.000363548               0.000000000               0.000000000               0.000000000               0.000000000              -0.003171573               0.005747590              -0.002253738              -0.001907785               0.002551772               0.000643987               0.000000000               0.000000000               0.000000000               0.000000000              -0.002537495               0.005986029              -0.002049727              -0.001699811               0.002561926               0.000862115               0.000000000               0.000000000               0.000000000               0.000000000              -0.001935955               0.006087021              -0.001845079              -0.001486858               0.002524605               0.001037748               0.000000000               0.000000000               0.000000000               0.000000000              -0.001367791               0.006092913              -0.001660908              -0.001274533               0.002455795               0.001181261               0.000000000               0.000000000               0.000000000               0.000000000              -0.000833539               0.006035333              -0.001497387              -0.001066992               0.002367421               0.001300429               0.000000000               0.000000000               0.000000000               0.000000000              -0.000335051               0.005931837              -0.001340134              -0.000867122               0.002266300               0.001399177               0.000000000               0.000000000               0.000000000               0.000000000               0.000113679               0.005783273              -0.001183438              -0.000680278               0.002154498               0.001474219               0.000000000               0.000000000               0.000000000               0.000000000               0.000499370               0.005607659              -0.001012100              -0.000513693               0.002040432               0.001526739               0.000000000               0.000000000               0.000000000               0.000000000               0.000822059               0.005419836              -0.000805538              -0.000369207               0.001929663               0.001560456               0.000000000               0.000000000               0.000000000               0.000000000               0.001077345               0.005243867              -0.000559730              -0.000251479               0.001831764               0.001580286               0.000000000               0.000000000               0.000000000               0.000000000               0.001237623               0.005106144              -0.000288944              -0.000174159               0.001760084               0.001585925               0.000000000               0.000000000               0.000000000               0.000000000               0.001284982               0.005043604              -0.000149477              -0.000148582               0.001730712               0.001582130               0.000000000               0.000000000               0.000000000               0.000000000              -0.011026931              -0.000775818               0.001431697              -0.004038119               0.001087426              -0.002950693               0.000000000               0.000000000               0.000000000               0.000000000              -0.007960723               0.000691163              -0.000300465              -0.003071663               0.001254267              -0.001817397               0.000000000               0.000000000               0.000000000               0.000000000              -0.005795528               0.001973684              -0.001859461              -0.002420030               0.001464561              -0.000955469               0.000000000               0.000000000               0.000000000               0.000000000              -0.004508406               0.003082109              -0.002289910              -0.002075912               0.001719328              -0.000356585               0.000000000               0.000000000               0.000000000               0.000000000              -0.003598664               0.003932444              -0.002316416              -0.001841051               0.001924484               0.000083433               0.000000000               0.000000000               0.000000000               0.000000000              -0.002875277               0.004555344              -0.002196872              -0.001647644               0.002067646               0.000420003               0.000000000               0.000000000               0.000000000               0.000000000              -0.002247658               0.004994078              -0.002028270              -0.001467129               0.002153718               0.000686590               0.000000000               0.000000000               0.000000000               0.000000000              -0.001665791               0.005285198              -0.001846942              -0.001285319               0.002190154               0.000904835               0.000000000               0.000000000               0.000000000               0.000000000              -0.001108330               0.005462340              -0.001679350              -0.001098414               0.002186899               0.001088485               0.000000000               0.000000000               0.000000000               0.000000000              -0.000568908               0.005553294              -0.001533426              -0.000907501               0.002153579               0.001246079               0.000000000               0.000000000               0.000000000               0.000000000              -0.000044745               0.005572705              -0.001393702              -0.000713367               0.002095339               0.001381972               0.000000000               0.000000000               0.000000000               0.000000000               0.000454276               0.005532955              -0.001247882              -0.000521265               0.002018055               0.001496790               0.000000000               0.000000000               0.000000000               0.000000000               0.000921375               0.005453944              -0.001087235              -0.000336227               0.001930039               0.001593812               0.000000000               0.000000000               0.000000000               0.000000000               0.001357534               0.005347475              -0.000895681              -0.000159359               0.001835593               0.001676234               0.000000000               0.000000000               0.000000000               0.000000000               0.001763268               0.005229000              -0.000655176               0.000007600               0.001740449               0.001748049               0.000000000               0.000000000               0.000000000               0.000000000               0.002117562               0.005113763              -0.000355126               0.000154864               0.001652949               0.001807813               0.000000000               0.000000000               0.000000000               0.000000000               0.002321104               0.005074833              -0.000199019               0.000236057               0.001612908               0.001848966               0.000000000               0.000000000               0.000000000               0.000000000              -0.012829371              -0.001102542               0.001244570              -0.004673193               0.001190209              -0.003482985               0.000000000               0.000000000               0.000000000               0.000000000              -0.008940009              -0.000078885              -0.000109925              -0.003342640               0.001087911              -0.002254729               0.000000000               0.000000000               0.000000000               0.000000000              -0.005990261               0.000735089              -0.001361839              -0.002338232               0.001024433              -0.001313799               0.000000000               0.000000000               0.000000000               0.000000000              -0.004354659               0.001752215              -0.001758647              -0.001852021               0.001201403              -0.000650618               0.000000000               0.000000000               0.000000000               0.000000000              -0.003300128               0.002665849              -0.001825375              -0.001570776               0.001412198              -0.000158578               0.000000000               0.000000000               0.000000000               0.000000000              -0.002525828               0.003414170              -0.001760171              -0.001373954               0.001596029               0.000222075               0.000000000               0.000000000               0.000000000               0.000000000              -0.001894537               0.004000452              -0.001644422              -0.001210506               0.001736972               0.000526466               0.000000000               0.000000000               0.000000000               0.000000000              -0.001328995               0.004440736              -0.001511930              -0.001053463               0.001831385               0.000777921               0.000000000               0.000000000               0.000000000               0.000000000              -0.000784577               0.004767336              -0.001385921              -0.000890132               0.001885806               0.000995675               0.000000000               0.000000000               0.000000000               0.000000000              -0.000246930               0.004999691              -0.001274851              -0.000717559               0.001905733               0.001188174               0.000000000               0.000000000               0.000000000               0.000000000               0.000281876               0.005143866              -0.001166971              -0.000537279               0.001893697               0.001356418               0.000000000               0.000000000               0.000000000               0.000000000               0.000813013               0.005220861              -0.001053742              -0.000347727               0.001856179               0.001508451               0.000000000               0.000000000               0.000000000               0.000000000               0.001353862               0.005242951              -0.000929569              -0.000147671               0.001796856               0.001649185               0.000000000               0.000000000               0.000000000               0.000000000               0.001907757               0.005226350              -0.000782666               0.000062114               0.001721395               0.001783509               0.000000000               0.000000000               0.000000000               0.000000000               0.002481769               0.005183658              -0.000592354               0.000282703               0.001633634               0.001916337               0.000000000               0.000000000               0.000000000               0.000000000               0.003073064               0.005106529              -0.000332979               0.000514078               0.001530800               0.002044878               0.000000000               0.000000000               0.000000000               0.000000000               0.003489181               0.005102092              -0.000198930               0.000670675               0.001477122               0.002147797               0.000000000               0.000000000               0.000000000               0.000000000              -0.014029063              -0.001236304               0.000719652              -0.005106357               0.001290009              -0.003816348               0.000000000               0.000000000               0.000000000               0.000000000              -0.009603948              -0.000541870              -0.000020393              -0.003533744               0.000997285              -0.002536460               0.000000000               0.000000000               0.000000000               0.000000000              -0.006121919              -0.000076940              -0.000715881              -0.002286100               0.000736382              -0.001549719               0.000000000               0.000000000               0.000000000               0.000000000              -0.004231445               0.000841665              -0.000953445              -0.001691998               0.000844548              -0.000847450               0.000000000               0.000000000               0.000000000               0.000000000              -0.003062728               0.001772286              -0.001005531              -0.001370056               0.001047440              -0.000322616               0.000000000               0.000000000               0.000000000               0.000000000              -0.002244674               0.002588399              -0.000979693              -0.001165300               0.001251224               0.000085924               0.000000000               0.000000000               0.000000000               0.000000000              -0.001601861               0.003261678              -0.000921899              -0.001008405               0.001423350               0.000414945               0.000000000               0.000000000               0.000000000               0.000000000              -0.001042553               0.003796644              -0.000853192              -0.000865536               0.001554047               0.000688511               0.000000000               0.000000000               0.000000000               0.000000000              -0.000512764               0.004221132              -0.000789653              -0.000719927               0.001647005               0.000927079               0.000000000               0.000000000               0.000000000               0.000000000               0.000009575               0.004549698              -0.000729455              -0.000565120               0.001704924               0.001139804               0.000000000               0.000000000               0.000000000               0.000000000               0.000537761               0.004790824              -0.000666350              -0.000397192               0.001729323               0.001332131               0.000000000               0.000000000               0.000000000               0.000000000               0.001091110               0.004961023              -0.000604441              -0.000210961               0.001723978               0.001513017               0.000000000               0.000000000               0.000000000               0.000000000               0.001682782               0.005066042              -0.000537698              -0.000002213               0.001689401               0.001687189               0.000000000               0.000000000               0.000000000               0.000000000               0.002325841               0.005121838              -0.000457959               0.000231958               0.001629943               0.001861901               0.000000000               0.000000000               0.000000000               0.000000000               0.003033397               0.005133196              -0.000352147               0.000495869               0.001545759               0.002041628               0.000000000               0.000000000               0.000000000               0.000000000               0.003822135               0.005087769              -0.000200328               0.000797321               0.001430132               0.002227454               0.000000000               0.000000000               0.000000000               0.000000000               0.004421985               0.005115369              -0.000122979               0.001018813               0.001365502               0.002384315               0.000000000               0.000000000               0.000000000               0.000000000              -0.014449381              -0.001272193              -0.000000000              -0.005259490               0.001329090              -0.003930400               0.000000000               0.000000000               0.000000000               0.000000000              -0.009838365              -0.000696748               0.000000000              -0.003602291               0.000968508              -0.002633783               0.000000000               0.000000000               0.000000000               0.000000000              -0.006169481              -0.000358094               0.000000000              -0.002268792               0.000636895              -0.001631897               0.000000000               0.000000000               0.000000000               0.000000000              -0.004185689               0.000518012              -0.000000000              -0.001634383               0.000717460              -0.000916923               0.000000000               0.000000000               0.000000000               0.000000000              -0.002973547               0.001449484              -0.000000000              -0.001296264               0.000915243              -0.000381021               0.000000000               0.000000000               0.000000000               0.000000000              -0.002138219               0.002286564              -0.000000000              -0.001087650               0.001124730               0.000037080               0.000000000               0.000000000               0.000000000               0.000000000              -0.001489290               0.002986158              -0.000000000              -0.000931751               0.001305960               0.000374208               0.000000000               0.000000000               0.000000000               0.000000000              -0.000928897               0.003557409              -0.000000000              -0.000793011               0.001450128               0.000657117               0.000000000               0.000000000               0.000000000               0.000000000              -0.000403357               0.004021239              -0.000000000              -0.000653912               0.001558370               0.000904458               0.000000000               0.000000000               0.000000000               0.000000000               0.000105430               0.004380804              -0.000000000              -0.000508063               0.001629608               0.001121545               0.000000000               0.000000000               0.000000000               0.000000000               0.000633128               0.004652832              -0.000000000              -0.000344180               0.001665655               0.001321475               0.000000000               0.000000000               0.000000000               0.000000000               0.001197156               0.004855487              -0.000000000              -0.000158002               0.001671147               0.001513145               0.000000000               0.000000000               0.000000000               0.000000000               0.001807253               0.004997021               0.000000000               0.000053091               0.001647960               0.001701051               0.000000000               0.000000000               0.000000000               0.000000000               0.002482075               0.005083526               0.000000000               0.000295335               0.001596047               0.001891382               0.000000000               0.000000000               0.000000000               0.000000000               0.003237287               0.005105090               0.000000000               0.000575841               0.001509733               0.002085573               0.000000000               0.000000000               0.000000000               0.000000000               0.004101999               0.005064904               0.000000000               0.000905128               0.001386575               0.002291703               0.000000000               0.000000000               0.000000000               0.000000000               0.004774746               0.005105741               0.000000000               0.001152301               0.001317796               0.002470097               0.000000000               0.000000000               0.000000000               0.000000000               0.000000000               0.000000000               0.000000000               0.000000000               0.000000000               0.000000000               0.000000000               0.000000000               0.000000000               0.000000000               0.000000000               0.000000000               0.000000000               0.000000000               0.000000000               0.000000000               0.000000000               0.000000000               0.000000000               0.000000000               0.000000000               0.000000000               0.000000000               0.000000000               0.000000000               0.000000000               0.000000000               0.000000000               0.000000000               0.000000000               0.000000000               0.000000000               0.000000000               0.000000000               0.000000000               0.000000000               0.000000000               0.000000000               0.000000000               0.000000000               0.000000000               0.000000000               0.000000000               0.000000000               0.000000000               0.000000000               0.000000000               0.000000000               0.000000000               0.000000000               0.000000000               0.000000000               0.000000000               0.000000000               0.000000000               0.000000000               0.000000000               0.000000000               0.000000000               0.000000000               0.000000000               0.000000000               0.000000000               0.000000000               0.000000000               0.000000000               0.000000000               0.000000000               0.000000000               0.000000000               0.000000000               0.000000000               0.000000000               0.000000000               0.000000000               0.000000000               0.000000000               0.000000000               0.000000000               0.000000000               0.000000000               0.000000000               0.000000000               0.000000000               0.000000000               0.000000000               0.000000000               0.000000000               0.000000000               0.000000000               0.000000000               0.000000000               0.000000000               0.000000000               0.000000000               0.000000000               0.000000000               0.000000000               0.000000000               0.000000000               0.000000000               0.000000000               0.000000000               0.000000000               0.000000000               0.000000000               0.000000000               0.000000000               0.000000000               0.000000000               0.000000000               0.000000000               0.000000000               0.000000000               0.000000000               0.000000000               0.000000000               0.000000000               0.000000000               0.000000000               0.000000000               0.000000000               0.000000000               0.000000000               0.000000000               0.000000000               0.000000000               0.000000000               0.000000000               0.000000000               0.000000000               0.000000000               0.000000000               0.000000000               0.000000000               0.000000000               0.000000000               0.000000000               0.000000000               0.000000000               0.000000000               0.000000000               0.000000000               0.000000000               0.000000000               0.000000000               0.000000000               0.000000000               0.000000000               0.000000000               0.000000000               0.000000000               0.000000000               0.000000000               0.000000000               0.000000000               0.000000000               0.000000000               0.000000000               0.000000000               0.000000000               0.000000000               0.000000000               0.000000000               0.000000000               0.000000000               0.000000000               0.000000000               0.000000000               0.000000000               0.002266540               0.023274714               0.001565772              -0.002059382               0.008444621               0.006385239               0.000000000               0.000000000               0.000000000               0.000000000               0.002020509               0.017936521               0.000694708              -0.001484371               0.006473571               0.004989200               0.000000000               0.000000000               0.000000000               0.000000000               0.002451547               0.013653982              -0.000162100              -0.000787416               0.004813754               0.004026338               0.000000000               0.000000000               0.000000000               0.000000000               0.002164367               0.011233373              -0.000511813              -0.000592533               0.003941931               0.003349398               0.000000000               0.000000000               0.000000000               0.000000000               0.001710736               0.009692916              -0.000648723              -0.000570087               0.003420969               0.002850882               0.000000000               0.000000000               0.000000000               0.000000000               0.001266837               0.008603979              -0.000690355              -0.000600432               0.003068108               0.002467676               0.000000000               0.000000000               0.000000000               0.000000000               0.000888697               0.007752652              -0.000684446              -0.000635819               0.002796131               0.002160312               0.000000000               0.000000000               0.000000000               0.000000000               0.000588969               0.007030008              -0.000656181              -0.000657886               0.002562608               0.001904722               0.000000000               0.000000000               0.000000000               0.000000000               0.000359970               0.006368604              -0.000618690              -0.000661085               0.002343208               0.001682123               0.000000000               0.000000000               0.000000000               0.000000000               0.000187913               0.005736442              -0.000577955              -0.000646586               0.002127657               0.001481070               0.000000000               0.000000000               0.000000000               0.000000000               0.000064873               0.005113624              -0.000541452              -0.000614874               0.001909482               0.001294608               0.000000000               0.000000000               0.000000000               0.000000000              -0.000018128               0.004494686              -0.000507083              -0.000568632               0.001687758               0.001119125               0.000000000               0.000000000               0.000000000               0.000000000              -0.000077210               0.003868546              -0.000465146              -0.000512521               0.001460343               0.000947822               0.000000000               0.000000000               0.000000000               0.000000000              -0.000112709               0.003217277              -0.000403265              -0.000444424               0.001220556               0.000776132               0.000000000               0.000000000               0.000000000               0.000000000              -0.000112173               0.002522849              -0.000311875              -0.000357420               0.000960081               0.000602661               0.000000000               0.000000000               0.000000000               0.000000000              -0.000069538               0.001768277              -0.000180117              -0.000247111               0.000671790               0.000424679               0.000000000               0.000000000               0.000000000               0.000000000              -0.000096471               0.001208682              -0.000112381              -0.000187261               0.000465311               0.000278049               0.000000000               0.000000000               0.000000000               0.000000000               0.002411101               0.021810742               0.002891538              -0.001822177               0.007877567               0.006055390               0.000000000               0.000000000               0.000000000               0.000000000               0.001805432               0.017021547               0.001274886              -0.001450653               0.006157343               0.004706690               0.000000000               0.000000000               0.000000000               0.000000000               0.001857565               0.013300033              -0.000299462              -0.000965915               0.004755272               0.003789357               0.000000000               0.000000000               0.000000000               0.000000000               0.001447023               0.011162459              -0.000917469              -0.000852672               0.004005006               0.003152335               0.000000000               0.000000000               0.000000000               0.000000000               0.000989884               0.009760493              -0.001145826              -0.000848853               0.003536416               0.002687563               0.000000000               0.000000000               0.000000000               0.000000000               0.000595061               0.008732865              -0.001203386              -0.000868458               0.003200412               0.002331954               0.000000000               0.000000000               0.000000000               0.000000000               0.000287260               0.007909606              -0.001183307              -0.000880977               0.002930168               0.002049191               0.000000000               0.000000000               0.000000000               0.000000000               0.000062295               0.007200784              -0.001125685              -0.000876736               0.002692482               0.001815747               0.000000000               0.000000000               0.000000000               0.000000000              -0.000094930               0.006554463              -0.001051352              -0.000854905               0.002469767               0.001614862               0.000000000               0.000000000               0.000000000               0.000000000              -0.000199232               0.005939497              -0.000971845              -0.000817147               0.002252195               0.001435047               0.000000000               0.000000000               0.000000000               0.000000000              -0.000256858               0.005342672              -0.000897522              -0.000764154               0.002035591               0.001271437               0.000000000               0.000000000               0.000000000               0.000000000              -0.000275691               0.004761819              -0.000830779              -0.000698610               0.001820127               0.001121517               0.000000000               0.000000000               0.000000000               0.000000000              -0.000269638               0.004190790              -0.000750837              -0.000624962               0.001605237               0.000980275               0.000000000               0.000000000               0.000000000               0.000000000              -0.000238620               0.003621447              -0.000637063              -0.000542162               0.001387857               0.000845695               0.000000000               0.000000000               0.000000000               0.000000000              -0.000177556               0.003053989              -0.000478871              -0.000448331               0.001167430               0.000719099               0.000000000               0.000000000               0.000000000               0.000000000              -0.000095210               0.002493905              -0.000268892              -0.000347441               0.000947107               0.000599666               0.000000000               0.000000000               0.000000000               0.000000000              -0.000088917               0.002113342              -0.000163246              -0.000297511               0.000803611               0.000506100               0.000000000               0.000000000               0.000000000               0.000000000               0.002521983               0.019592020               0.003796057              -0.001503258               0.007031693               0.005528436               0.000000000               0.000000000               0.000000000               0.000000000               0.001418585               0.015651747               0.001668573              -0.001424496               0.005692029               0.004267532               0.000000000               0.000000000               0.000000000               0.000000000               0.000951666               0.012776023              -0.000371219              -0.001240125               0.004672007               0.003431882               0.000000000               0.000000000               0.000000000               0.000000000               0.000403455               0.011032497              -0.001123478              -0.001227764               0.004086717               0.002858953               0.000000000               0.000000000               0.000000000               0.000000000              -0.000029138               0.009813441              -0.001377202              -0.001237604               0.003683649               0.002446045               0.000000000               0.000000000               0.000000000               0.000000000              -0.000329297               0.008868546              -0.001426783              -0.001232052               0.003366836               0.002134784               0.000000000               0.000000000               0.000000000               0.000000000              -0.000517375               0.008084629              -0.001385171              -0.001204592               0.003096380               0.001891788               0.000000000               0.000000000               0.000000000               0.000000000              -0.000622144               0.007395737              -0.001302036              -0.001157769               0.002851144               0.001693375               0.000000000               0.000000000               0.000000000               0.000000000              -0.000666957               0.006765866              -0.001200370              -0.001095840               0.002620546               0.001524706               0.000000000               0.000000000               0.000000000               0.000000000              -0.000666846               0.006171345              -0.001094631              -0.001021483               0.002397589               0.001376105               0.000000000               0.000000000               0.000000000               0.000000000              -0.000628343               0.005612760              -0.000998828              -0.000937222               0.002183308               0.001246087               0.000000000               0.000000000               0.000000000               0.000000000              -0.000564939               0.005086796              -0.000910528              -0.000847700               0.001978148               0.001130448               0.000000000               0.000000000               0.000000000               0.000000000              -0.000478818               0.004590619              -0.000806487              -0.000753382               0.001781318               0.001027936               0.000000000               0.000000000               0.000000000               0.000000000              -0.000371477               0.004128211              -0.000665986              -0.000655329               0.001594499               0.000939170               0.000000000               0.000000000               0.000000000               0.000000000              -0.000250664               0.003711681              -0.000485659              -0.000557958               0.001423201               0.000865243               0.000000000               0.000000000               0.000000000               0.000000000              -0.000125929               0.003362160              -0.000264838              -0.000467492               0.001276540               0.000809047               0.000000000               0.000000000               0.000000000               0.000000000              -0.000083224               0.003160209              -0.000153080              -0.000426234               0.001195471               0.000769236               0.000000000               0.000000000               0.000000000               0.000000000               0.002440050               0.016885433               0.004199408              -0.001195661               0.006026974               0.004831313               0.000000000               0.000000000               0.000000000               0.000000000               0.000831748               0.014018167               0.001861957              -0.001440363               0.005152796               0.003712433               0.000000000               0.000000000               0.000000000               0.000000000              -0.000163775               0.012143561              -0.000338602              -0.001579357               0.004574265               0.002994909               0.000000000               0.000000000               0.000000000               0.000000000              -0.000786942               0.010828013              -0.001087394              -0.001648601               0.004158835               0.002510234               0.000000000               0.000000000               0.000000000               0.000000000              -0.001128885               0.009801575              -0.001314017              -0.001648525               0.003816667               0.002168142               0.000000000               0.000000000               0.000000000               0.000000000              -0.001282462               0.008946056              -0.001339862              -0.001599177               0.003515048               0.001915871               0.000000000               0.000000000               0.000000000               0.000000000              -0.001314866               0.008201085              -0.001283643              -0.001518207               0.003239737               0.001721529               0.000000000               0.000000000               0.000000000               0.000000000              -0.001268566               0.007530911              -0.001189825              -0.001417073               0.002982636               0.001565563               0.000000000               0.000000000               0.000000000               0.000000000              -0.001171068               0.006911950              -0.001080439              -0.001303141               0.002738341               0.001435199               0.000000000               0.000000000               0.000000000               0.000000000              -0.001047424               0.006341295              -0.000971847              -0.001185443               0.002508891               0.001323448               0.000000000               0.000000000               0.000000000               0.000000000              -0.000911289               0.005824513              -0.000873385              -0.001069795               0.002298083               0.001228288               0.000000000               0.000000000               0.000000000               0.000000000              -0.000760286               0.005358547              -0.000781897              -0.000954923               0.002104472               0.001149549               0.000000000               0.000000000               0.000000000               0.000000000              -0.000597132               0.004945367              -0.000676222              -0.000842093               0.001929137               0.001087043               0.000000000               0.000000000               0.000000000               0.000000000              -0.000427809               0.004591071              -0.000538250              -0.000734310               0.001775112               0.001040801               0.000000000               0.000000000               0.000000000               0.000000000              -0.000263841               0.004308236              -0.000375030              -0.000637468               0.001648554               0.001011085               0.000000000               0.000000000               0.000000000               0.000000000              -0.000123602               0.004116649              -0.000196193              -0.000560930               0.001559179               0.000998249               0.000000000               0.000000000               0.000000000               0.000000000              -0.000066715               0.004036456              -0.000106568              -0.000529574               0.001521996               0.000992423               0.000000000               0.000000000               0.000000000               0.000000000               0.002051410               0.013979141               0.004117290              -0.000978115               0.004985704               0.004007589               0.000000000               0.000000000               0.000000000               0.000000000               0.000060151               0.012301637               0.001889179              -0.001515146               0.004605553               0.003090407               0.000000000               0.000000000               0.000000000               0.000000000              -0.001353378               0.011453538              -0.000176069              -0.001939204               0.004464209               0.002525005               0.000000000               0.000000000               0.000000000               0.000000000              -0.001940314               0.010538897              -0.000821216              -0.002044975               0.004194589               0.002149614               0.000000000               0.000000000               0.000000000               0.000000000              -0.002118504               0.009683393              -0.000997073              -0.002004858               0.003896051               0.001891193               0.000000000               0.000000000               0.000000000               0.000000000              -0.002082801               0.008907364              -0.001006675              -0.001894466               0.003600580               0.001706114               0.000000000               0.000000000               0.000000000               0.000000000              -0.001936407               0.008198016              -0.000953343              -0.001750900               0.003316278               0.001565378               0.000000000               0.000000000               0.000000000               0.000000000              -0.001730182               0.007543701              -0.000870028              -0.001591777               0.003045134               0.001453357               0.000000000               0.000000000               0.000000000               0.000000000              -0.001491264               0.006943272              -0.000776318              -0.001427129               0.002790111               0.001362981               0.000000000               0.000000000               0.000000000               0.000000000              -0.001251231               0.006405144              -0.000689411              -0.001269852               0.002558311               0.001288459               0.000000000               0.000000000               0.000000000               0.000000000              -0.001023331               0.005936687              -0.000611412              -0.001125832               0.002354153               0.001228321               0.000000000               0.000000000               0.000000000               0.000000000              -0.000798623               0.005533400              -0.000537214              -0.000991156               0.002174834               0.001183677               0.000000000               0.000000000               0.000000000               0.000000000              -0.000585513               0.005193002              -0.000451303              -0.000868691               0.002020547               0.001151856               0.000000000               0.000000000               0.000000000               0.000000000              -0.000392645               0.004919656              -0.000338220              -0.000762197               0.001893935               0.001131737               0.000000000               0.000000000               0.000000000               0.000000000              -0.000225627               0.004723771              -0.000216133              -0.000675080               0.001799601               0.001124521               0.000000000               0.000000000               0.000000000               0.000000000              -0.000098197               0.004615399              -0.000104936              -0.000613747               0.001743033               0.001129286               0.000000000               0.000000000               0.000000000               0.000000000              -0.000047172               0.004584398              -0.000053856              -0.000590738               0.001725030               0.001134292               0.000000000               0.000000000               0.000000000               0.000000000               0.001284841               0.011126732               0.003639057              -0.000909027               0.004011882               0.003102855               0.000000000               0.000000000               0.000000000               0.000000000              -0.000858403               0.010637376               0.001809973              -0.001651570               0.004096279               0.002444709               0.000000000               0.000000000               0.000000000               0.000000000              -0.002483781               0.010728272               0.000122026              -0.002272446               0.004333537               0.002061091               0.000000000               0.000000000               0.000000000               0.000000000              -0.002909390               0.010146629              -0.000372727              -0.002359344               0.004168624               0.001809280               0.000000000               0.000000000               0.000000000               0.000000000              -0.002864518               0.009432352              -0.000511199              -0.002253233               0.003895163               0.001641931               0.000000000               0.000000000               0.000000000               0.000000000              -0.002621246               0.008724592              -0.000530540              -0.002073536               0.003599347               0.001525811               0.000000000               0.000000000               0.000000000               0.000000000              -0.002298496               0.008050352              -0.000504092              -0.001868225               0.003306166               0.001437940               0.000000000               0.000000000               0.000000000               0.000000000              -0.001945063               0.007423566              -0.000455647              -0.001657340               0.003026944               0.001369604               0.000000000               0.000000000               0.000000000               0.000000000              -0.001586939               0.006856397              -0.000400446              -0.001452148               0.002769492               0.001317344               0.000000000               0.000000000               0.000000000               0.000000000              -0.001254242               0.006364418              -0.000354833              -0.001265890               0.002543415               0.001277525               0.000000000               0.000000000               0.000000000               0.000000000              -0.000957562               0.005948359              -0.000314792              -0.001102628               0.002350309               0.001247681               0.000000000               0.000000000               0.000000000               0.000000000              -0.000691588               0.005600038              -0.000271033              -0.000959348               0.002186443               0.001227095               0.000000000               0.000000000               0.000000000               0.000000000              -0.000466589               0.005309847              -0.000217023              -0.000838700               0.002049498               0.001210798               0.000000000               0.000000000               0.000000000               0.000000000              -0.000287932               0.005084000              -0.000144905              -0.000743473               0.001942474               0.001199001               0.000000000               0.000000000               0.000000000               0.000000000              -0.000150399               0.004934035              -0.000076463              -0.000673152               0.001869046               0.001195894               0.000000000               0.000000000               0.000000000               0.000000000              -0.000057184               0.004856206              -0.000031828              -0.000628468               0.001828208               0.001199740               0.000000000               0.000000000               0.000000000               0.000000000              -0.000025914               0.004831305              -0.000016938              -0.000613629               0.001814962               0.001201333               0.000000000               0.000000000               0.000000000               0.000000000               0.000185226               0.008501000               0.002884054              -0.000993165               0.003164693               0.002171527               0.000000000               0.000000000               0.000000000               0.000000000              -0.001867746               0.009118867               0.001680511              -0.001840259               0.003653011               0.001812752               0.000000000               0.000000000               0.000000000               0.000000000              -0.003448077               0.009970564               0.000538683              -0.002539343               0.004169936               0.001630593               0.000000000               0.000000000               0.000000000               0.000000000              -0.003606659               0.009647129               0.000176285              -0.002558382               0.004068471               0.001510090               0.000000000               0.000000000               0.000000000               0.000000000              -0.003314940               0.009061884               0.000039147              -0.002375832               0.003812542               0.001436710               0.000000000               0.000000000               0.000000000               0.000000000              -0.002874313               0.008423161              -0.000015120              -0.002130757               0.003517945               0.001387187               0.000000000               0.000000000               0.000000000               0.000000000              -0.002392003               0.007792731              -0.000037705              -0.001871088               0.003221247               0.001350159               0.000000000               0.000000000               0.000000000               0.000000000              -0.001916472               0.007202275              -0.000044607              -0.001618957               0.002940387               0.001321429               0.000000000               0.000000000               0.000000000               0.000000000              -0.001476986               0.006681022              -0.000043103              -0.001388994               0.002689983               0.001300989               0.000000000               0.000000000               0.000000000               0.000000000              -0.001087335               0.006242498              -0.000046581              -0.001188060               0.002476832               0.001288772               0.000000000               0.000000000               0.000000000               0.000000000              -0.000758920               0.005869850              -0.000050389              -0.001018324               0.002296039               0.001277715               0.000000000               0.000000000               0.000000000               0.000000000              -0.000492576               0.005553221              -0.000044083              -0.000878867               0.002144011               0.001265144               0.000000000               0.000000000               0.000000000               0.000000000              -0.000291849               0.005293464              -0.000029224              -0.000771124               0.002021512               0.001250387               0.000000000               0.000000000               0.000000000               0.000000000              -0.000154171               0.005101658              -0.000008131              -0.000695520               0.001932375               0.001236856               0.000000000               0.000000000               0.000000000               0.000000000              -0.000062515               0.004989885               0.000005149              -0.000647177               0.001879004               0.001231827               0.000000000               0.000000000               0.000000000               0.000000000              -0.000015750               0.004937581               0.000003093              -0.000623102               0.001853545               0.001230442               0.000000000               0.000000000               0.000000000               0.000000000              -0.000008831               0.004919186              -0.000001985              -0.000618208               0.001845782               0.001227573               0.000000000               0.000000000               0.000000000               0.000000000              -0.001102942               0.006294599               0.001974233              -0.001200426               0.002498320               0.001297894               0.000000000               0.000000000               0.000000000               0.000000000              -0.002850762               0.007764412               0.001542832              -0.002039583               0.003267972               0.001228389               0.000000000               0.000000000               0.000000000               0.000000000              -0.004202361               0.009208679               0.001036547              -0.002726963               0.003978517               0.001251553               0.000000000               0.000000000               0.000000000               0.000000000              -0.004083103               0.009154919               0.000752363              -0.002675522               0.003943450               0.001267928               0.000000000               0.000000000               0.000000000               0.000000000              -0.003586727               0.008721115               0.000587102              -0.002435156               0.003718728               0.001283572               0.000000000               0.000000000               0.000000000               0.000000000              -0.002989725               0.008174386               0.000482792              -0.002142940               0.003439081               0.001296141               0.000000000               0.000000000               0.000000000               0.000000000              -0.002383106               0.007607113               0.000402384              -0.001844549               0.003150529               0.001305980               0.000000000               0.000000000               0.000000000               0.000000000              -0.001816059               0.007069152               0.000333315              -0.001564662               0.002877914               0.001313252               0.000000000               0.000000000               0.000000000               0.000000000              -0.001318823               0.006596719               0.000276366              -0.001319145               0.002638600               0.001319454               0.000000000               0.000000000               0.000000000               0.000000000              -0.000896290               0.006195500               0.000226123              -0.001110544               0.002435327               0.001324784               0.000000000               0.000000000               0.000000000               0.000000000              -0.000557034               0.005838494               0.000181256              -0.000938697               0.002259044               0.001320347               0.000000000               0.000000000               0.000000000               0.000000000              -0.000300592               0.005525761               0.000145075              -0.000803440               0.002109715               0.001306275               0.000000000               0.000000000               0.000000000               0.000000000              -0.000120044               0.005274876               0.000110239              -0.000704374               0.001993066               0.001288691               0.000000000               0.000000000               0.000000000               0.000000000              -0.000017563               0.005100594               0.000071411              -0.000644159               0.001914901               0.001270742               0.000000000               0.000000000               0.000000000               0.000000000               0.000021860               0.005011288               0.000034128              -0.000618212               0.001876483               0.001258271               0.000000000               0.000000000               0.000000000               0.000000000               0.000020349               0.004977793               0.000008096              -0.000614592               0.001864112               0.001249520               0.000000000               0.000000000               0.000000000               0.000000000               0.000007570               0.004966309              -0.000002548              -0.000617948               0.001861402               0.001243454               0.000000000               0.000000000               0.000000000               0.000000000              -0.002597716               0.004258304               0.001024315              -0.001506428               0.001921563               0.000415135               0.000000000               0.000000000               0.000000000               0.000000000              -0.003677062               0.006191107               0.001393403              -0.002152782               0.002781275               0.000628494               0.000000000               0.000000000               0.000000000               0.000000000              -0.004653410               0.008063640               0.001556793              -0.002752977               0.003605512               0.000852535               0.000000000               0.000000000               0.000000000               0.000000000              -0.004383615               0.008412163               0.001360794              -0.002695369               0.003702482               0.001007113               0.000000000               0.000000000               0.000000000               0.000000000              -0.003804236               0.008257512               0.001163351              -0.002458771               0.003572067               0.001113295               0.000000000               0.000000000               0.000000000               0.000000000              -0.003156912               0.007915884               0.001002431              -0.002173322               0.003363042               0.001189720               0.000000000               0.000000000               0.000000000               0.000000000              -0.002514346               0.007506691               0.000864321              -0.001881212               0.003129276               0.001248064               0.000000000               0.000000000               0.000000000               0.000000000              -0.001915090               0.007085685               0.000737221              -0.001603865               0.002896493               0.001292628               0.000000000               0.000000000               0.000000000               0.000000000              -0.001384303               0.006686635               0.000627603              -0.001354940               0.002680503               0.001325563               0.000000000               0.000000000               0.000000000               0.000000000              -0.000933208               0.006322659               0.000530993              -0.001140283               0.002487626               0.001347343               0.000000000               0.000000000               0.000000000               0.000000000              -0.000567587               0.005981204               0.000441688              -0.000960493               0.002313879               0.001353386               0.000000000               0.000000000               0.000000000               0.000000000              -0.000287955               0.005667542               0.000359139              -0.000816424               0.002161303               0.001344879               0.000000000               0.000000000               0.000000000               0.000000000              -0.000090127               0.005396812               0.000269634              -0.000708397               0.002035052               0.001326654               0.000000000               0.000000000               0.000000000               0.000000000               0.000029295               0.005190490               0.000171568              -0.000637824               0.001942754               0.001304930               0.000000000               0.000000000               0.000000000               0.000000000               0.000079246               0.005069526               0.000085739              -0.000603972               0.001891149               0.001287177               0.000000000               0.000000000               0.000000000               0.000000000               0.000073908               0.005013352               0.000029180              -0.000598952               0.001870751               0.001271799               0.000000000               0.000000000               0.000000000               0.000000000               0.000050106               0.004988500               0.000005425              -0.000604771               0.001864407               0.001259636               0.000000000               0.000000000               0.000000000               0.000000000              -0.004484806               0.002416811               0.000110305              -0.001983900               0.001466894              -0.000517006               0.000000000               0.000000000               0.000000000               0.000000000              -0.004603631               0.004595954               0.001180311              -0.002300851               0.002298919              -0.000001932               0.000000000               0.000000000               0.000000000               0.000000000              -0.005012141               0.006691253               0.001975094              -0.002715953               0.003135713               0.000419759               0.000000000               0.000000000               0.000000000               0.000000000              -0.004606048               0.007418751               0.001939127              -0.002654606               0.003357760               0.000703155               0.000000000               0.000000000               0.000000000               0.000000000              -0.003986217               0.007588195               0.001743158              -0.002443350               0.003343823               0.000900473               0.000000000               0.000000000               0.000000000               0.000000000              -0.003324878               0.007507131               0.001540580              -0.002185215               0.003230757               0.001045541               0.000000000               0.000000000               0.000000000               0.000000000              -0.002671483               0.007299157               0.001354245              -0.001914196               0.003071093               0.001156897               0.000000000               0.000000000               0.000000000               0.000000000              -0.002055853               0.007021015               0.001182235              -0.001648568               0.002889838               0.001241269               0.000000000               0.000000000               0.000000000               0.000000000              -0.001495659               0.006722570               0.001030447              -0.001401190               0.002707898               0.001306707               0.000000000               0.000000000               0.000000000               0.000000000              -0.001003326               0.006424493               0.000894996              -0.001179306               0.002534578               0.001355272               0.000000000               0.000000000               0.000000000               0.000000000              -0.000590034               0.006127267               0.000766680              -0.000987169               0.002371458               0.001384289               0.000000000               0.000000000               0.000000000               0.000000000              -0.000263919               0.005835792               0.000641095              -0.000828442               0.002221392               0.001392950               0.000000000               0.000000000               0.000000000               0.000000000              -0.000017742               0.005559204               0.000507627              -0.000701552               0.002086900               0.001385348               0.000000000               0.000000000               0.000000000               0.000000000               0.000152553               0.005321719               0.000359536              -0.000608006               0.001976557               0.001368551               0.000000000               0.000000000               0.000000000               0.000000000               0.000239922               0.005152811               0.000211677              -0.000554129               0.001902296               0.001348167               0.000000000               0.000000000               0.000000000               0.000000000               0.000242513               0.005052155               0.000089518              -0.000540576               0.001864227               0.001323651               0.000000000               0.000000000               0.000000000               0.000000000               0.000204078               0.005003804               0.000031271              -0.000548945               0.001850900               0.001301955               0.000000000               0.000000000               0.000000000               0.000000000              -0.006625389               0.000928057              -0.000680037              -0.002600525               0.001176186              -0.001424339               0.000000000               0.000000000               0.000000000               0.000000000              -0.005673930               0.003090462               0.000891816              -0.002514027               0.001868150              -0.000645877               0.000000000               0.000000000               0.000000000               0.000000000              -0.005304769               0.005117966               0.002181133              -0.002629029               0.002582313              -0.000046715               0.000000000               0.000000000               0.000000000               0.000000000              -0.004680700               0.006108168               0.002344836              -0.002518778               0.002875627               0.000356850               0.000000000               0.000000000               0.000000000               0.000000000              -0.004002652               0.006582585               0.002202636              -0.002323812               0.002968776               0.000644964               0.000000000               0.000000000               0.000000000               0.000000000              -0.003332337               0.006773232               0.001996056              -0.002096276               0.002956479               0.000860204               0.000000000               0.000000000               0.000000000               0.000000000              -0.002684932               0.006786523               0.001785713              -0.001855161               0.002880538               0.001025377               0.000000000               0.000000000               0.000000000               0.000000000              -0.002068999               0.006688133               0.001584873              -0.001611888               0.002766651               0.001154763               0.000000000               0.000000000               0.000000000               0.000000000              -0.001497984               0.006527431               0.001407764              -0.001377670               0.002635012               0.001257342               0.000000000               0.000000000               0.000000000               0.000000000              -0.000978153               0.006333953               0.001249407              -0.001158549               0.002497479               0.001338930               0.000000000               0.000000000               0.000000000               0.000000000              -0.000519484               0.006119752               0.001094976              -0.000959774               0.002359821               0.001400048               0.000000000               0.000000000               0.000000000               0.000000000              -0.000133921               0.005885128               0.000944247              -0.000785860               0.002223643               0.001437783               0.000000000               0.000000000               0.000000000               0.000000000               0.000176547               0.005640674               0.000784924              -0.000638878               0.002093165               0.001454287               0.000000000               0.000000000               0.000000000               0.000000000               0.000411378               0.005410623               0.000594873              -0.000522060               0.001977543               0.001455483               0.000000000               0.000000000               0.000000000               0.000000000               0.000559156               0.005220927               0.000384285              -0.000442932               0.001887935               0.001445004               0.000000000               0.000000000               0.000000000               0.000000000               0.000605117               0.005086763               0.000183109              -0.000408926               0.001831879               0.001422954               0.000000000               0.000000000               0.000000000               0.000000000               0.000579721               0.005020760               0.000081714              -0.000410199               0.001810303               0.001400104               0.000000000               0.000000000               0.000000000               0.000000000              -0.008875011              -0.000127460              -0.001229399              -0.003312194               0.001061570              -0.002250623               0.000000000               0.000000000               0.000000000               0.000000000              -0.006825842               0.001761542               0.000577996              -0.002779880               0.001513797              -0.001266083               0.000000000               0.000000000               0.000000000               0.000000000              -0.005562174               0.003489308               0.002143913              -0.002521974               0.002003747              -0.000518228               0.000000000               0.000000000               0.000000000               0.000000000              -0.004633984               0.004606120               0.002481920              -0.002313504               0.002306525              -0.000006980               0.000000000               0.000000000               0.000000000               0.000000000              -0.003859741               0.005313995               0.002427348              -0.002111648               0.002475196               0.000363548               0.000000000               0.000000000               0.000000000               0.000000000              -0.003171573               0.005747590               0.002253738              -0.001907785               0.002551772               0.000643987               0.000000000               0.000000000               0.000000000               0.000000000              -0.002537495               0.005986029               0.002049727              -0.001699811               0.002561926               0.000862115               0.000000000               0.000000000               0.000000000               0.000000000              -0.001935955               0.006087021               0.001845079              -0.001486858               0.002524605               0.001037748               0.000000000               0.000000000               0.000000000               0.000000000              -0.001367791               0.006092913               0.001660908              -0.001274533               0.002455795               0.001181261               0.000000000               0.000000000               0.000000000               0.000000000              -0.000833539               0.006035333               0.001497387              -0.001066992               0.002367421               0.001300429               0.000000000               0.000000000               0.000000000               0.000000000              -0.000335051               0.005931837               0.001340134              -0.000867122               0.002266300               0.001399177               0.000000000               0.000000000               0.000000000               0.000000000               0.000113679               0.005783273               0.001183438              -0.000680278               0.002154498               0.001474219               0.000000000               0.000000000               0.000000000               0.000000000               0.000499370               0.005607659               0.001012100              -0.000513693               0.002040432               0.001526739               0.000000000               0.000000000               0.000000000               0.000000000               0.000822059               0.005419836               0.000805538              -0.000369207               0.001929663               0.001560456               0.000000000               0.000000000               0.000000000               0.000000000               0.001077345               0.005243867               0.000559730              -0.000251479               0.001831764               0.001580286               0.000000000               0.000000000               0.000000000               0.000000000               0.001237623               0.005106144               0.000288944              -0.000174159               0.001760084               0.001585925               0.000000000               0.000000000               0.000000000               0.000000000               0.001284982               0.005043604               0.000149477              -0.000148582               0.001730712               0.001582130               0.000000000               0.000000000               0.000000000               0.000000000              -0.011026931              -0.000775818              -0.001431697              -0.004038119               0.001087426              -0.002950693               0.000000000               0.000000000               0.000000000               0.000000000              -0.007960723               0.000691163               0.000300465              -0.003071663               0.001254267              -0.001817397               0.000000000               0.000000000               0.000000000               0.000000000              -0.005795528               0.001973684               0.001859461              -0.002420030               0.001464561              -0.000955469               0.000000000               0.000000000               0.000000000               0.000000000              -0.004508406               0.003082109               0.002289910              -0.002075912               0.001719328              -0.000356585               0.000000000               0.000000000               0.000000000               0.000000000              -0.003598664               0.003932444               0.002316416              -0.001841051               0.001924484               0.000083433               0.000000000               0.000000000               0.000000000               0.000000000              -0.002875277               0.004555344               0.002196872              -0.001647644               0.002067646               0.000420003               0.000000000               0.000000000               0.000000000               0.000000000              -0.002247658               0.004994078               0.002028270              -0.001467129               0.002153718               0.000686590               0.000000000               0.000000000               0.000000000               0.000000000              -0.001665791               0.005285198               0.001846942              -0.001285319               0.002190154               0.000904835               0.000000000               0.000000000               0.000000000               0.000000000              -0.001108330               0.005462340               0.001679350              -0.001098414               0.002186899               0.001088485               0.000000000               0.000000000               0.000000000               0.000000000              -0.000568908               0.005553294               0.001533426              -0.000907501               0.002153579               0.001246079               0.000000000               0.000000000               0.000000000               0.000000000              -0.000044745               0.005572705               0.001393702              -0.000713367               0.002095339               0.001381972               0.000000000               0.000000000               0.000000000               0.000000000               0.000454276               0.005532955               0.001247882              -0.000521265               0.002018055               0.001496790               0.000000000               0.000000000               0.000000000               0.000000000               0.000921375               0.005453944               0.001087235              -0.000336227               0.001930039               0.001593812               0.000000000               0.000000000               0.000000000               0.000000000               0.001357534               0.005347475               0.000895681              -0.000159359               0.001835593               0.001676234               0.000000000               0.000000000               0.000000000               0.000000000               0.001763268               0.005229000               0.000655176               0.000007600               0.001740449               0.001748049               0.000000000               0.000000000               0.000000000               0.000000000               0.002117562               0.005113763               0.000355126               0.000154864               0.001652949               0.001807813               0.000000000               0.000000000               0.000000000               0.000000000               0.002321104               0.005074833               0.000199019               0.000236057               0.001612908               0.001848966               0.000000000               0.000000000               0.000000000               0.000000000              -0.012829371              -0.001102542              -0.001244570              -0.004673193               0.001190209              -0.003482985               0.000000000               0.000000000               0.000000000               0.000000000              -0.008940009              -0.000078885               0.000109925              -0.003342640               0.001087911              -0.002254729               0.000000000               0.000000000               0.000000000               0.000000000              -0.005990261               0.000735089               0.001361839              -0.002338232               0.001024433              -0.001313799               0.000000000               0.000000000               0.000000000               0.000000000              -0.004354659               0.001752215               0.001758647              -0.001852021               0.001201403              -0.000650618               0.000000000               0.000000000               0.000000000               0.000000000              -0.003300128               0.002665849               0.001825375              -0.001570776               0.001412198              -0.000158578               0.000000000               0.000000000               0.000000000               0.000000000              -0.002525828               0.003414170               0.001760171              -0.001373954               0.001596029               0.000222075               0.000000000               0.000000000               0.000000000               0.000000000              -0.001894537               0.004000452               0.001644422              -0.001210506               0.001736972               0.000526466               0.000000000               0.000000000               0.000000000               0.000000000              -0.001328995               0.004440736               0.001511930              -0.001053463               0.001831385               0.000777921               0.000000000               0.000000000               0.000000000               0.000000000              -0.000784577               0.004767336               0.001385921              -0.000890132               0.001885806               0.000995675               0.000000000               0.000000000               0.000000000               0.000000000              -0.000246930               0.004999691               0.001274851              -0.000717559               0.001905733               0.001188174               0.000000000               0.000000000               0.000000000               0.000000000               0.000281876               0.005143866               0.001166971              -0.000537279               0.001893697               0.001356418               0.000000000               0.000000000               0.000000000               0.000000000               0.000813013               0.005220861               0.001053742              -0.000347727               0.001856179               0.001508451               0.000000000               0.000000000               0.000000000               0.000000000               0.001353862               0.005242951               0.000929569              -0.000147671               0.001796856               0.001649185               0.000000000               0.000000000               0.000000000               0.000000000               0.001907757               0.005226350               0.000782666               0.000062114               0.001721395               0.001783509               0.000000000               0.000000000               0.000000000               0.000000000               0.002481769               0.005183658               0.000592354               0.000282703               0.001633634               0.001916337               0.000000000               0.000000000               0.000000000               0.000000000               0.003073064               0.005106529               0.000332979               0.000514078               0.001530800               0.002044878               0.000000000               0.000000000               0.000000000               0.000000000               0.003489181               0.005102092               0.000198930               0.000670675               0.001477122               0.002147797               0.000000000               0.000000000               0.000000000               0.000000000              -0.014029063              -0.001236304              -0.000719652              -0.005106357               0.001290009              -0.003816348               0.000000000               0.000000000               0.000000000               0.000000000              -0.009603948              -0.000541870               0.000020393              -0.003533744               0.000997285              -0.002536460               0.000000000               0.000000000               0.000000000               0.000000000              -0.006121919              -0.000076940               0.000715881              -0.002286100               0.000736382              -0.001549719               0.000000000               0.000000000               0.000000000               0.000000000              -0.004231445               0.000841665               0.000953445              -0.001691998               0.000844548              -0.000847450               0.000000000               0.000000000               0.000000000               0.000000000              -0.003062728               0.001772286               0.001005531              -0.001370056               0.001047440              -0.000322616               0.000000000               0.000000000               0.000000000               0.000000000              -0.002244674               0.002588399               0.000979693              -0.001165300               0.001251224               0.000085924               0.000000000               0.000000000               0.000000000               0.000000000              -0.001601861               0.003261678               0.000921899              -0.001008405               0.001423350               0.000414945               0.000000000               0.000000000               0.000000000               0.000000000              -0.001042553               0.003796644               0.000853192              -0.000865536               0.001554047               0.000688511               0.000000000               0.000000000               0.000000000               0.000000000              -0.000512764               0.004221132               0.000789653              -0.000719927               0.001647005               0.000927079               0.000000000               0.000000000               0.000000000               0.000000000               0.000009575               0.004549698               0.000729455              -0.000565120               0.001704924               0.001139804               0.000000000               0.000000000               0.000000000               0.000000000               0.000537761               0.004790824               0.000666350              -0.000397192               0.001729323               0.001332131               0.000000000               0.000000000               0.000000000               0.000000000               0.001091110               0.004961023               0.000604441              -0.000210961               0.001723978               0.001513017               0.000000000               0.000000000               0.000000000               0.000000000               0.001682782               0.005066042               0.000537698              -0.000002213               0.001689401               0.001687189               0.000000000               0.000000000               0.000000000               0.000000000               0.002325841               0.005121838               0.000457959               0.000231958               0.001629943               0.001861901               0.000000000               0.000000000               0.000000000               0.000000000               0.003033397               0.005133196               0.000352147               0.000495869               0.001545759               0.002041628               0.000000000               0.000000000               0.000000000               0.000000000               0.003822135               0.005087769               0.000200328               0.000797321               0.001430132               0.002227454               0.000000000               0.000000000               0.000000000               0.000000000               0.004421985               0.005115369               0.000122979               0.001018813               0.001365502               0.002384315               0.000000000               0.000000000               0.000000000               0.000000000              -0.014449381              -0.001272193              -0.000000000              -0.005259490               0.001329090              -0.003930400               0.000000000               0.000000000               0.000000000               0.000000000              -0.009838365              -0.000696748              -0.000000000              -0.003602291               0.000968508              -0.002633783               0.000000000               0.000000000               0.000000000               0.000000000              -0.006169481              -0.000358094               0.000000000              -0.002268792               0.000636895              -0.001631897               0.000000000               0.000000000               0.000000000               0.000000000              -0.004185689               0.000518012              -0.000000000              -0.001634383               0.000717460              -0.000916923               0.000000000               0.000000000               0.000000000               0.000000000              -0.002973547               0.001449484              -0.000000000              -0.001296264               0.000915243              -0.000381021               0.000000000               0.000000000               0.000000000               0.000000000              -0.002138219               0.002286564               0.000000000              -0.001087650               0.001124730               0.000037080               0.000000000               0.000000000               0.000000000               0.000000000              -0.001489290               0.002986158              -0.000000000              -0.000931751               0.001305960               0.000374208               0.000000000               0.000000000               0.000000000               0.000000000              -0.000928897               0.003557409               0.000000000              -0.000793011               0.001450128               0.000657117               0.000000000               0.000000000               0.000000000               0.000000000              -0.000403357               0.004021239              -0.000000000              -0.000653912               0.001558370               0.000904458               0.000000000               0.000000000               0.000000000               0.000000000               0.000105430               0.004380804              -0.000000000              -0.000508063               0.001629608               0.001121545               0.000000000               0.000000000               0.000000000               0.000000000               0.000633128               0.004652832               0.000000000              -0.000344180               0.001665655               0.001321475               0.000000000               0.000000000               0.000000000               0.000000000               0.001197156               0.004855487               0.000000000              -0.000158002               0.001671147               0.001513145               0.000000000               0.000000000               0.000000000               0.000000000               0.001807253               0.004997021               0.000000000               0.000053091               0.001647960               0.001701051               0.000000000               0.000000000               0.000000000               0.000000000               0.002482075               0.005083526               0.000000000               0.000295335               0.001596047               0.001891382               0.000000000               0.000000000               0.000000000               0.000000000               0.003237287               0.005105090              -0.000000000               0.000575841               0.001509733               0.002085573               0.000000000               0.000000000               0.000000000               0.000000000               0.004101999               0.005064904              -0.000000000               0.000905128               0.001386575               0.002291703               0.000000000               0.000000000               0.000000000               0.000000000               0.004774746               0.005105741              -0.000000000               0.001152301               0.001317796               0.002470097               0.000000000               0.000000000               0.000000000               0.000000000               0.002207839               0.023786420              -0.000000000              -0.002145358               0.008643847               0.006498489               0.000000000               0.000000000               0.000000000               0.000000000               0.002089076               0.018257010              -0.000000000              -0.001498719               0.006585182               0.005086463               0.000000000               0.000000000               0.000000000               0.000000000               0.002656558               0.013781154              -0.000000000              -0.000726433               0.004835817               0.004109383               0.000000000               0.000000000               0.000000000               0.000000000               0.002418903               0.011257516              -0.000000000              -0.000500100               0.003919168               0.003419068               0.000000000               0.000000000               0.000000000               0.000000000               0.001969516               0.009663684              -0.000000000              -0.000469391               0.003377659               0.002908268               0.000000000               0.000000000               0.000000000               0.000000000               0.001510277               0.008549562               0.000000000              -0.000502340               0.003017272               0.002514932               0.000000000               0.000000000               0.000000000               0.000000000               0.001113458               0.007691806              -0.000000000              -0.000543928               0.002745219               0.002201291               0.000000000               0.000000000               0.000000000               0.000000000               0.000788842               0.006961372               0.000000000              -0.000574355               0.002511886               0.001937531               0.000000000               0.000000000               0.000000000               0.000000000               0.000534409               0.006296379              -0.000000000              -0.000586642               0.002294319               0.001707677               0.000000000               0.000000000               0.000000000               0.000000000               0.000336178               0.005654778               0.000000000              -0.000580779               0.002078500               0.001497721               0.000000000               0.000000000               0.000000000               0.000000000               0.000187775               0.005022737               0.000000000              -0.000557425               0.001860037               0.001302612               0.000000000               0.000000000               0.000000000               0.000000000               0.000078980               0.004392260               0.000000000              -0.000519414               0.001637210               0.001117796               0.000000000               0.000000000               0.000000000               0.000000000              -0.000005606               0.003744911              -0.000000000              -0.000470215               0.001405030               0.000934815               0.000000000               0.000000000               0.000000000               0.000000000              -0.000065302               0.003061191              -0.000000000              -0.000407136               0.001156099               0.000748963               0.000000000               0.000000000               0.000000000               0.000000000              -0.000085736               0.002315615              -0.000000000              -0.000321602               0.000879065               0.000557462               0.000000000               0.000000000               0.000000000               0.000000000              -0.000056188               0.001478843              -0.000000000              -0.000205925               0.000561584               0.000355659               0.000000000               0.000000000               0.000000000               0.000000000              -0.000097627               0.000837290              -0.000000000              -0.000141271               0.000326184               0.000184913               0.000000000               0.000000000               0.000000000               0.000000000               0.002266540               0.023274714              -0.001565772              -0.002059382               0.008444621               0.006385239               0.000000000               0.000000000               0.000000000               0.000000000               0.002020509               0.017936521              -0.000694708              -0.001484371               0.006473571               0.004989200               0.000000000               0.000000000               0.000000000               0.000000000               0.002451547               0.013653982               0.000162100              -0.000787416               0.004813754               0.004026338               0.000000000               0.000000000               0.000000000               0.000000000               0.002164367               0.011233373               0.000511813              -0.000592533               0.003941931               0.003349398               0.000000000               0.000000000               0.000000000               0.000000000               0.001710736               0.009692916               0.000648723              -0.000570087               0.003420969               0.002850882               0.000000000               0.000000000               0.000000000               0.000000000               0.001266837               0.008603979               0.000690355              -0.000600432               0.003068108               0.002467676               0.000000000               0.000000000               0.000000000               0.000000000               0.000888697               0.007752652               0.000684446              -0.000635819               0.002796131               0.002160312               0.000000000               0.000000000               0.000000000               0.000000000               0.000588969               0.007030008               0.000656181              -0.000657886               0.002562608               0.001904722               0.000000000               0.000000000               0.000000000               0.000000000               0.000359970               0.006368604               0.000618690              -0.000661085               0.002343208               0.001682123               0.000000000               0.000000000               0.000000000               0.000000000               0.000187913               0.005736442               0.000577955              -0.000646586               0.002127657               0.001481070               0.000000000               0.000000000               0.000000000               0.000000000               0.000064873               0.005113624               0.000541452              -0.000614874               0.001909482               0.001294608               0.000000000               0.000000000               0.000000000               0.000000000              -0.000018128               0.004494686               0.000507083              -0.000568632               0.001687758               0.001119125               0.000000000               0.000000000               0.000000000               0.000000000              -0.000077210               0.003868546               0.000465146              -0.000512521               0.001460343               0.000947822               0.000000000               0.000000000               0.000000000               0.000000000              -0.000112709               0.003217277               0.000403265              -0.000444424               0.001220556               0.000776132               0.000000000               0.000000000               0.000000000               0.000000000              -0.000112173               0.002522849               0.000311875              -0.000357420               0.000960081               0.000602661               0.000000000               0.000000000               0.000000000               0.000000000              -0.000069538               0.001768277               0.000180117              -0.000247111               0.000671790               0.000424679               0.000000000               0.000000000               0.000000000               0.000000000              -0.000096471               0.001208682               0.000112381              -0.000187261               0.000465311               0.000278049               0.000000000               0.000000000               0.000000000               0.000000000               0.002411101               0.021810742              -0.002891538              -0.001822177               0.007877567               0.006055390               0.000000000               0.000000000               0.000000000               0.000000000               0.001805432               0.017021547              -0.001274886              -0.001450653               0.006157343               0.004706690               0.000000000               0.000000000               0.000000000               0.000000000               0.001857565               0.013300033               0.000299462              -0.000965915               0.004755272               0.003789357               0.000000000               0.000000000               0.000000000               0.000000000               0.001447023               0.011162459               0.000917469              -0.000852672               0.004005006               0.003152335               0.000000000               0.000000000               0.000000000               0.000000000               0.000989884               0.009760493               0.001145826              -0.000848853               0.003536416               0.002687563               0.000000000               0.000000000               0.000000000               0.000000000               0.000595061               0.008732865               0.001203386              -0.000868458               0.003200412               0.002331954               0.000000000               0.000000000               0.000000000               0.000000000               0.000287260               0.007909606               0.001183307              -0.000880977               0.002930168               0.002049191               0.000000000               0.000000000               0.000000000               0.000000000               0.000062295               0.007200784               0.001125685              -0.000876736               0.002692482               0.001815747               0.000000000               0.000000000               0.000000000               0.000000000              -0.000094930               0.006554463               0.001051352              -0.000854905               0.002469767               0.001614862               0.000000000               0.000000000               0.000000000               0.000000000              -0.000199232               0.005939497               0.000971845              -0.000817147               0.002252195               0.001435047               0.000000000               0.000000000               0.000000000               0.000000000              -0.000256858               0.005342672               0.000897522              -0.000764154               0.002035591               0.001271437               0.000000000               0.000000000               0.000000000               0.000000000              -0.000275691               0.004761819               0.000830779              -0.000698610               0.001820127               0.001121517               0.000000000               0.000000000               0.000000000               0.000000000              -0.000269638               0.004190790               0.000750837              -0.000624962               0.001605237               0.000980275               0.000000000               0.000000000               0.000000000               0.000000000              -0.000238620               0.003621447               0.000637063              -0.000542162               0.001387857               0.000845695               0.000000000               0.000000000               0.000000000               0.000000000              -0.000177556               0.003053989               0.000478871              -0.000448331               0.001167430               0.000719099               0.000000000               0.000000000               0.000000000               0.000000000              -0.000095210               0.002493905               0.000268892              -0.000347441               0.000947107               0.000599666               0.000000000               0.000000000               0.000000000               0.000000000              -0.000088917               0.002113342               0.000163246              -0.000297511               0.000803611               0.000506100               0.000000000               0.000000000               0.000000000               0.000000000               0.002521983               0.019592020              -0.003796057              -0.001503258               0.007031693               0.005528436               0.000000000               0.000000000               0.000000000               0.000000000               0.001418585               0.015651747              -0.001668573              -0.001424496               0.005692029               0.004267532               0.000000000               0.000000000               0.000000000               0.000000000               0.000951666               0.012776023               0.000371219              -0.001240125               0.004672007               0.003431882               0.000000000               0.000000000               0.000000000               0.000000000               0.000403455               0.011032497               0.001123478              -0.001227764               0.004086717               0.002858953               0.000000000               0.000000000               0.000000000               0.000000000              -0.000029138               0.009813441               0.001377202              -0.001237604               0.003683649               0.002446045               0.000000000               0.000000000               0.000000000               0.000000000              -0.000329297               0.008868546               0.001426783              -0.001232052               0.003366836               0.002134784               0.000000000               0.000000000               0.000000000               0.000000000              -0.000517375               0.008084629               0.001385171              -0.001204592               0.003096380               0.001891788               0.000000000               0.000000000               0.000000000               0.000000000              -0.000622144               0.007395737               0.001302036              -0.001157769               0.002851144               0.001693375               0.000000000               0.000000000               0.000000000               0.000000000              -0.000666957               0.006765866               0.001200370              -0.001095840               0.002620546               0.001524706               0.000000000               0.000000000               0.000000000               0.000000000              -0.000666846               0.006171345               0.001094631              -0.001021483               0.002397589               0.001376105               0.000000000               0.000000000               0.000000000               0.000000000              -0.000628343               0.005612760               0.000998828              -0.000937222               0.002183308               0.001246087               0.000000000               0.000000000               0.000000000               0.000000000              -0.000564939               0.005086796               0.000910528              -0.000847700               0.001978148               0.001130448               0.000000000               0.000000000               0.000000000               0.000000000              -0.000478818               0.004590619               0.000806487              -0.000753382               0.001781318               0.001027936               0.000000000               0.000000000               0.000000000               0.000000000              -0.000371477               0.004128211               0.000665986              -0.000655329               0.001594499               0.000939170               0.000000000               0.000000000               0.000000000               0.000000000              -0.000250664               0.003711681               0.000485659              -0.000557958               0.001423201               0.000865243               0.000000000               0.000000000               0.000000000               0.000000000              -0.000125929               0.003362160               0.000264838              -0.000467492               0.001276540               0.000809047               0.000000000               0.000000000               0.000000000               0.000000000              -0.000083224               0.003160209               0.000153080              -0.000426234               0.001195471               0.000769236               0.000000000               0.000000000               0.000000000               0.000000000               0.002440050               0.016885433              -0.004199408              -0.001195661               0.006026974               0.004831313               0.000000000               0.000000000               0.000000000               0.000000000               0.000831748               0.014018167              -0.001861957              -0.001440363               0.005152796               0.003712433               0.000000000               0.000000000               0.000000000               0.000000000              -0.000163775               0.012143561               0.000338602              -0.001579357               0.004574265               0.002994909               0.000000000               0.000000000               0.000000000               0.000000000              -0.000786942               0.010828013               0.001087394              -0.001648601               0.004158835               0.002510234               0.000000000               0.000000000               0.000000000               0.000000000              -0.001128885               0.009801575               0.001314017              -0.001648525               0.003816667               0.002168142               0.000000000               0.000000000               0.000000000               0.000000000              -0.001282462               0.008946056               0.001339862              -0.001599177               0.003515048               0.001915871               0.000000000               0.000000000               0.000000000               0.000000000              -0.001314866               0.008201085               0.001283643              -0.001518207               0.003239737               0.001721529               0.000000000               0.000000000               0.000000000               0.000000000              -0.001268566               0.007530911               0.001189825              -0.001417073               0.002982636               0.001565563               0.000000000               0.000000000               0.000000000               0.000000000              -0.001171068               0.006911950               0.001080439              -0.001303141               0.002738341               0.001435199               0.000000000               0.000000000               0.000000000               0.000000000              -0.001047424               0.006341295               0.000971847              -0.001185443               0.002508891               0.001323448               0.000000000               0.000000000               0.000000000               0.000000000              -0.000911289               0.005824513               0.000873385              -0.001069795               0.002298083               0.001228288               0.000000000               0.000000000               0.000000000               0.000000000              -0.000760286               0.005358547               0.000781897              -0.000954923               0.002104472               0.001149549               0.000000000               0.000000000               0.000000000               0.000000000              -0.000597132               0.004945367               0.000676222              -0.000842093               0.001929137               0.001087043               0.000000000               0.000000000               0.000000000               0.000000000              -0.000427809               0.004591071               0.000538250              -0.000734310               0.001775112               0.001040801               0.000000000               0.000000000               0.000000000               0.000000000              -0.000263841               0.004308236               0.000375030              -0.000637468               0.001648554               0.001011085               0.000000000               0.000000000               0.000000000               0.000000000              -0.000123602               0.004116649               0.000196193              -0.000560930               0.001559179               0.000998249               0.000000000               0.000000000               0.000000000               0.000000000              -0.000066715               0.004036456               0.000106568              -0.000529574               0.001521996               0.000992423               0.000000000               0.000000000               0.000000000               0.000000000               0.002051410               0.013979141              -0.004117290              -0.000978115               0.004985704               0.004007589               0.000000000               0.000000000               0.000000000               0.000000000               0.000060151               0.012301637              -0.001889179              -0.001515146               0.004605553               0.003090407               0.000000000               0.000000000               0.000000000               0.000000000              -0.001353378               0.011453538               0.000176069              -0.001939204               0.004464209               0.002525005               0.000000000               0.000000000               0.000000000               0.000000000              -0.001940314               0.010538897               0.000821216              -0.002044975               0.004194589               0.002149614               0.000000000               0.000000000               0.000000000               0.000000000              -0.002118504               0.009683393               0.000997073              -0.002004858               0.003896051               0.001891193               0.000000000               0.000000000               0.000000000               0.000000000              -0.002082801               0.008907364               0.001006675              -0.001894466               0.003600580               0.001706114               0.000000000               0.000000000               0.000000000               0.000000000              -0.001936407               0.008198016               0.000953343              -0.001750900               0.003316278               0.001565378               0.000000000               0.000000000               0.000000000               0.000000000              -0.001730182               0.007543701               0.000870028              -0.001591777               0.003045134               0.001453357               0.000000000               0.000000000               0.000000000               0.000000000              -0.001491264               0.006943272               0.000776318              -0.001427129               0.002790111               0.001362981               0.000000000               0.000000000               0.000000000               0.000000000              -0.001251231               0.006405144               0.000689411              -0.001269852               0.002558311               0.001288459               0.000000000               0.000000000               0.000000000               0.000000000              -0.001023331               0.005936687               0.000611412              -0.001125832               0.002354153               0.001228321               0.000000000               0.000000000               0.000000000               0.000000000              -0.000798623               0.005533400               0.000537214              -0.000991156               0.002174834               0.001183677               0.000000000               0.000000000               0.000000000               0.000000000              -0.000585513               0.005193002               0.000451303              -0.000868691               0.002020547               0.001151856               0.000000000               0.000000000               0.000000000               0.000000000              -0.000392645               0.004919656               0.000338220              -0.000762197               0.001893935               0.001131737               0.000000000               0.000000000               0.000000000               0.000000000              -0.000225627               0.004723771               0.000216133              -0.000675080               0.001799601               0.001124521               0.000000000               0.000000000               0.000000000               0.000000000              -0.000098197               0.004615399               0.000104936              -0.000613747               0.001743033               0.001129286               0.000000000               0.000000000               0.000000000               0.000000000              -0.000047172               0.004584398               0.000053856              -0.000590738               0.001725030               0.001134292               0.000000000               0.000000000               0.000000000               0.000000000               0.001284841               0.011126732              -0.003639057              -0.000909027               0.004011882               0.003102855               0.000000000               0.000000000               0.000000000               0.000000000              -0.000858403               0.010637376              -0.001809973              -0.001651570               0.004096279               0.002444709               0.000000000               0.000000000               0.000000000               0.000000000              -0.002483781               0.010728272              -0.000122026              -0.002272446               0.004333537               0.002061091               0.000000000               0.000000000               0.000000000               0.000000000              -0.002909390               0.010146629               0.000372727              -0.002359344               0.004168624               0.001809280               0.000000000               0.000000000               0.000000000               0.000000000              -0.002864518               0.009432352               0.000511199              -0.002253233               0.003895163               0.001641931               0.000000000               0.000000000               0.000000000               0.000000000              -0.002621246               0.008724592               0.000530540              -0.002073536               0.003599347               0.001525811               0.000000000               0.000000000               0.000000000               0.000000000              -0.002298496               0.008050352               0.000504092              -0.001868225               0.003306166               0.001437940               0.000000000               0.000000000               0.000000000               0.000000000              -0.001945063               0.007423566               0.000455647              -0.001657340               0.003026944               0.001369604               0.000000000               0.000000000               0.000000000               0.000000000              -0.001586939               0.006856397               0.000400446              -0.001452148               0.002769492               0.001317344               0.000000000               0.000000000               0.000000000               0.000000000              -0.001254242               0.006364418               0.000354833              -0.001265890               0.002543415               0.001277525               0.000000000               0.000000000               0.000000000               0.000000000              -0.000957562               0.005948359               0.000314792              -0.001102628               0.002350309               0.001247681               0.000000000               0.000000000               0.000000000               0.000000000              -0.000691588               0.005600038               0.000271033              -0.000959348               0.002186443               0.001227095               0.000000000               0.000000000               0.000000000               0.000000000              -0.000466589               0.005309847               0.000217023              -0.000838700               0.002049498               0.001210798               0.000000000               0.000000000               0.000000000               0.000000000              -0.000287932               0.005084000               0.000144905              -0.000743473               0.001942474               0.001199001               0.000000000               0.000000000               0.000000000               0.000000000              -0.000150399               0.004934035               0.000076463              -0.000673152               0.001869046               0.001195894               0.000000000               0.000000000               0.000000000               0.000000000              -0.000057184               0.004856206               0.000031828              -0.000628468               0.001828208               0.001199740               0.000000000               0.000000000               0.000000000               0.000000000              -0.000025914               0.004831305               0.000016938              -0.000613629               0.001814962               0.001201333               0.000000000               0.000000000               0.000000000               0.000000000               0.000185226               0.008501000              -0.002884054              -0.000993165               0.003164693               0.002171527               0.000000000               0.000000000               0.000000000               0.000000000              -0.001867746               0.009118867              -0.001680511              -0.001840259               0.003653011               0.001812752               0.000000000               0.000000000               0.000000000               0.000000000              -0.003448077               0.009970564              -0.000538683              -0.002539343               0.004169936               0.001630593               0.000000000               0.000000000               0.000000000               0.000000000              -0.003606659               0.009647129              -0.000176285              -0.002558382               0.004068471               0.001510090               0.000000000               0.000000000               0.000000000               0.000000000              -0.003314940               0.009061884              -0.000039147              -0.002375832               0.003812542               0.001436710               0.000000000               0.000000000               0.000000000               0.000000000              -0.002874313               0.008423161               0.000015120              -0.002130757               0.003517945               0.001387187               0.000000000               0.000000000               0.000000000               0.000000000              -0.002392003               0.007792731               0.000037705              -0.001871088               0.003221247               0.001350159               0.000000000               0.000000000               0.000000000               0.000000000              -0.001916472               0.007202275               0.000044607              -0.001618957               0.002940387               0.001321429               0.000000000               0.000000000               0.000000000               0.000000000              -0.001476986               0.006681022               0.000043103              -0.001388994               0.002689983               0.001300989               0.000000000               0.000000000               0.000000000               0.000000000              -0.001087335               0.006242498               0.000046581              -0.001188060               0.002476832               0.001288772               0.000000000               0.000000000               0.000000000               0.000000000              -0.000758920               0.005869850               0.000050389              -0.001018324               0.002296039               0.001277715               0.000000000               0.000000000               0.000000000               0.000000000              -0.000492576               0.005553221               0.000044083              -0.000878867               0.002144011               0.001265144               0.000000000               0.000000000               0.000000000               0.000000000              -0.000291849               0.005293464               0.000029224              -0.000771124               0.002021512               0.001250387               0.000000000               0.000000000               0.000000000               0.000000000              -0.000154171               0.005101658               0.000008131              -0.000695520               0.001932375               0.001236856               0.000000000               0.000000000               0.000000000               0.000000000              -0.000062515               0.004989885              -0.000005149              -0.000647177               0.001879004               0.001231827               0.000000000               0.000000000               0.000000000               0.000000000              -0.000015750               0.004937581              -0.000003093              -0.000623102               0.001853545               0.001230442               0.000000000               0.000000000               0.000000000               0.000000000              -0.000008831               0.004919186               0.000001985              -0.000618208               0.001845782               0.001227573               0.000000000               0.000000000               0.000000000               0.000000000              -0.001102942               0.006294599              -0.001974233              -0.001200426               0.002498320               0.001297894               0.000000000               0.000000000               0.000000000               0.000000000              -0.002850762               0.007764412              -0.001542832              -0.002039583               0.003267972               0.001228389               0.000000000               0.000000000               0.000000000               0.000000000              -0.004202361               0.009208679              -0.001036547              -0.002726963               0.003978517               0.001251553               0.000000000               0.000000000               0.000000000               0.000000000              -0.004083103               0.009154919              -0.000752363              -0.002675522               0.003943450               0.001267928               0.000000000               0.000000000               0.000000000               0.000000000              -0.003586727               0.008721115              -0.000587102              -0.002435156               0.003718728               0.001283572               0.000000000               0.000000000               0.000000000               0.000000000              -0.002989725               0.008174386              -0.000482792              -0.002142940               0.003439081               0.001296141               0.000000000               0.000000000               0.000000000               0.000000000              -0.002383106               0.007607113              -0.000402384              -0.001844549               0.003150529               0.001305980               0.000000000               0.000000000               0.000000000               0.000000000              -0.001816059               0.007069152              -0.000333315              -0.001564662               0.002877914               0.001313252               0.000000000               0.000000000               0.000000000               0.000000000              -0.001318823               0.006596719              -0.000276366              -0.001319145               0.002638600               0.001319454               0.000000000               0.000000000               0.000000000               0.000000000              -0.000896290               0.006195500              -0.000226123              -0.001110544               0.002435327               0.001324784               0.000000000               0.000000000               0.000000000               0.000000000              -0.000557034               0.005838494              -0.000181256              -0.000938697               0.002259044               0.001320347               0.000000000               0.000000000               0.000000000               0.000000000              -0.000300592               0.005525761              -0.000145075              -0.000803440               0.002109715               0.001306275               0.000000000               0.000000000               0.000000000               0.000000000              -0.000120044               0.005274876              -0.000110239              -0.000704374               0.001993066               0.001288691               0.000000000               0.000000000               0.000000000               0.000000000              -0.000017563               0.005100594              -0.000071411              -0.000644159               0.001914901               0.001270742               0.000000000               0.000000000               0.000000000               0.000000000               0.000021860               0.005011288              -0.000034128              -0.000618212               0.001876483               0.001258271               0.000000000               0.000000000               0.000000000               0.000000000               0.000020349               0.004977793              -0.000008096              -0.000614592               0.001864112               0.001249520               0.000000000               0.000000000               0.000000000               0.000000000               0.000007570               0.004966309               0.000002548              -0.000617948               0.001861402               0.001243454               0.000000000               0.000000000               0.000000000               0.000000000              -0.002597716               0.004258304              -0.001024315              -0.001506428               0.001921563               0.000415135               0.000000000               0.000000000               0.000000000               0.000000000              -0.003677062               0.006191107              -0.001393403              -0.002152782               0.002781275               0.000628494               0.000000000               0.000000000               0.000000000               0.000000000              -0.004653410               0.008063640              -0.001556793              -0.002752977               0.003605512               0.000852535               0.000000000               0.000000000               0.000000000               0.000000000              -0.004383615               0.008412163              -0.001360794              -0.002695369               0.003702482               0.001007113               0.000000000               0.000000000               0.000000000               0.000000000              -0.003804236               0.008257512              -0.001163351              -0.002458771               0.003572067               0.001113295               0.000000000               0.000000000               0.000000000               0.000000000              -0.003156912               0.007915884              -0.001002431              -0.002173322               0.003363042               0.001189720               0.000000000               0.000000000               0.000000000               0.000000000              -0.002514346               0.007506691              -0.000864321              -0.001881212               0.003129276               0.001248064               0.000000000               0.000000000               0.000000000               0.000000000              -0.001915090               0.007085685              -0.000737221              -0.001603865               0.002896493               0.001292628               0.000000000               0.000000000               0.000000000               0.000000000              -0.001384303               0.006686635              -0.000627603              -0.001354940               0.002680503               0.001325563               0.000000000               0.000000000               0.000000000               0.000000000              -0.000933208               0.006322659              -0.000530993              -0.001140283               0.002487626               0.001347343               0.000000000               0.000000000               0.000000000               0.000000000              -0.000567587               0.005981204              -0.000441688              -0.000960493               0.002313879               0.001353386               0.000000000               0.000000000               0.000000000               0.000000000              -0.000287955               0.005667542              -0.000359139              -0.000816424               0.002161303               0.001344879               0.000000000               0.000000000               0.000000000               0.000000000              -0.000090127               0.005396812              -0.000269634              -0.000708397               0.002035052               0.001326654               0.000000000               0.000000000               0.000000000               0.000000000               0.000029295               0.005190490              -0.000171568              -0.000637824               0.001942754               0.001304930               0.000000000               0.000000000               0.000000000               0.000000000               0.000079246               0.005069526              -0.000085739              -0.000603972               0.001891149               0.001287177               0.000000000               0.000000000               0.000000000               0.000000000               0.000073908               0.005013352              -0.000029180              -0.000598952               0.001870751               0.001271799               0.000000000               0.000000000               0.000000000               0.000000000               0.000050106               0.004988500              -0.000005425              -0.000604771               0.001864407               0.001259636               0.000000000               0.000000000               0.000000000               0.000000000              -0.004484806               0.002416811              -0.000110305              -0.001983900               0.001466894              -0.000517006               0.000000000               0.000000000               0.000000000               0.000000000              -0.004603631               0.004595954              -0.001180311              -0.002300851               0.002298919              -0.000001932               0.000000000               0.000000000               0.000000000               0.000000000              -0.005012141               0.006691253              -0.001975094              -0.002715953               0.003135713               0.000419759               0.000000000               0.000000000               0.000000000               0.000000000              -0.004606048               0.007418751              -0.001939127              -0.002654606               0.003357760               0.000703155               0.000000000               0.000000000               0.000000000               0.000000000              -0.003986217               0.007588195              -0.001743158              -0.002443350               0.003343823               0.000900473               0.000000000               0.000000000               0.000000000               0.000000000              -0.003324878               0.007507131              -0.001540580              -0.002185215               0.003230757               0.001045541               0.000000000               0.000000000               0.000000000               0.000000000              -0.002671483               0.007299157              -0.001354245              -0.001914196               0.003071093               0.001156897               0.000000000               0.000000000               0.000000000               0.000000000              -0.002055853               0.007021015              -0.001182235              -0.001648568               0.002889838               0.001241269               0.000000000               0.000000000               0.000000000               0.000000000              -0.001495659               0.006722570              -0.001030447              -0.001401190               0.002707898               0.001306707               0.000000000               0.000000000               0.000000000               0.000000000              -0.001003326               0.006424493              -0.000894996              -0.001179306               0.002534578               0.001355272               0.000000000               0.000000000               0.000000000               0.000000000              -0.000590034               0.006127267              -0.000766680              -0.000987169               0.002371458               0.001384289               0.000000000               0.000000000               0.000000000               0.000000000              -0.000263919               0.005835792              -0.000641095              -0.000828442               0.002221392               0.001392950               0.000000000               0.000000000               0.000000000               0.000000000              -0.000017742               0.005559204              -0.000507627              -0.000701552               0.002086900               0.001385348               0.000000000               0.000000000               0.000000000               0.000000000               0.000152553               0.005321719              -0.000359536              -0.000608006               0.001976557               0.001368551               0.000000000               0.000000000               0.000000000               0.000000000               0.000239922               0.005152811              -0.000211677              -0.000554129               0.001902296               0.001348167               0.000000000               0.000000000               0.000000000               0.000000000               0.000242513               0.005052155              -0.000089518              -0.000540576               0.001864227               0.001323651               0.000000000               0.000000000               0.000000000               0.000000000               0.000204078               0.005003804              -0.000031271              -0.000548945               0.001850900               0.001301955               0.000000000               0.000000000               0.000000000               0.000000000              -0.006625389               0.000928057               0.000680037              -0.002600525               0.001176186              -0.001424339               0.000000000               0.000000000               0.000000000               0.000000000              -0.005673930               0.003090462              -0.000891816              -0.002514027               0.001868150              -0.000645877               0.000000000               0.000000000               0.000000000               0.000000000              -0.005304769               0.005117966              -0.002181133              -0.002629029               0.002582313              -0.000046715               0.000000000               0.000000000               0.000000000               0.000000000              -0.004680700               0.006108168              -0.002344836              -0.002518778               0.002875627               0.000356850               0.000000000               0.000000000               0.000000000               0.000000000              -0.004002652               0.006582585              -0.002202636              -0.002323812               0.002968776               0.000644964               0.000000000               0.000000000               0.000000000               0.000000000              -0.003332337               0.006773232              -0.001996056              -0.002096276               0.002956479               0.000860204               0.000000000               0.000000000               0.000000000               0.000000000              -0.002684932               0.006786523              -0.001785713              -0.001855161               0.002880538               0.001025377               0.000000000               0.000000000               0.000000000               0.000000000              -0.002068999               0.006688133              -0.001584873              -0.001611888               0.002766651               0.001154763               0.000000000               0.000000000               0.000000000               0.000000000              -0.001497984               0.006527431              -0.001407764              -0.001377670               0.002635012               0.001257342               0.000000000               0.000000000               0.000000000               0.000000000              -0.000978153               0.006333953              -0.001249407              -0.001158549               0.002497479               0.001338930               0.000000000               0.000000000               0.000000000               0.000000000              -0.000519484               0.006119752              -0.001094976              -0.000959774               0.002359821               0.001400048               0.000000000               0.000000000               0.000000000               0.000000000              -0.000133921               0.005885128              -0.000944247              -0.000785860               0.002223643               0.001437783               0.000000000               0.000000000               0.000000000               0.000000000               0.000176547               0.005640674              -0.000784924              -0.000638878               0.002093165               0.001454287               0.000000000               0.000000000               0.000000000               0.000000000               0.000411378               0.005410623              -0.000594873              -0.000522060               0.001977543               0.001455483               0.000000000               0.000000000               0.000000000               0.000000000               0.000559156               0.005220927              -0.000384285              -0.000442932               0.001887935               0.001445004               0.000000000               0.000000000               0.000000000               0.000000000               0.000605117               0.005086763              -0.000183109              -0.000408926               0.001831879               0.001422954               0.000000000               0.000000000               0.000000000               0.000000000               0.000579721               0.005020760              -0.000081714              -0.000410199               0.001810303               0.001400104               0.000000000               0.000000000               0.000000000               0.000000000              -0.008875011              -0.000127460               0.001229399              -0.003312194               0.001061570              -0.002250623               0.000000000               0.000000000               0.000000000               0.000000000              -0.006825842               0.001761542              -0.000577996              -0.002779880               0.001513797              -0.001266083               0.000000000               0.000000000               0.000000000               0.000000000              -0.005562174               0.003489308              -0.002143913              -0.002521974               0.002003747              -0.000518228               0.000000000               0.000000000               0.000000000               0.000000000              -0.004633984               0.004606120              -0.002481920              -0.002313504               0.002306525              -0.000006980               0.000000000               0.000000000               0.000000000               0.000000000              -0.003859741               0.005313995              -0.002427348              -0.002111648               0.002475196               0.000363548               0.000000000               0.000000000               0.000000000               0.000000000              -0.003171573               0.005747590              -0.002253738              -0.001907785               0.002551772               0.000643987               0.000000000               0.000000000               0.000000000               0.000000000              -0.002537495               0.005986029              -0.002049727              -0.001699811               0.002561926               0.000862115               0.000000000               0.000000000               0.000000000               0.000000000              -0.001935955               0.006087021              -0.001845079              -0.001486858               0.002524605               0.001037748               0.000000000               0.000000000               0.000000000               0.000000000              -0.001367791               0.006092913              -0.001660908              -0.001274533               0.002455795               0.001181261               0.000000000               0.000000000               0.000000000               0.000000000              -0.000833539               0.006035333              -0.001497387              -0.001066992               0.002367421               0.001300429               0.000000000               0.000000000               0.000000000               0.000000000              -0.000335051               0.005931837              -0.001340134              -0.000867122               0.002266300               0.001399177               0.000000000               0.000000000               0.000000000               0.000000000               0.000113679               0.005783273              -0.001183438              -0.000680278               0.002154498               0.001474219               0.000000000               0.000000000               0.000000000               0.000000000               0.000499370               0.005607659              -0.001012100              -0.000513693               0.002040432               0.001526739               0.000000000               0.000000000               0.000000000               0.000000000               0.000822059               0.005419836              -0.000805538              -0.000369207               0.001929663               0.001560456               0.000000000               0.000000000               0.000000000               0.000000000               0.001077345               0.005243867              -0.000559730              -0.000251479               0.001831764               0.001580286               0.000000000               0.000000000               0.000000000               0.000000000               0.001237623               0.005106144              -0.000288944              -0.000174159               0.001760084               0.001585925               0.000000000               0.000000000               0.000000000               0.000000000               0.001284982               0.005043604              -0.000149477              -0.000148582               0.001730712               0.001582130               0.000000000               0.000000000               0.000000000               0.000000000              -0.011026931              -0.000775818               0.001431697              -0.004038119               0.001087426              -0.002950693               0.000000000               0.000000000               0.000000000               0.000000000              -0.007960723               0.000691163              -0.000300465              -0.003071663               0.001254267              -0.001817397               0.000000000               0.000000000               0.000000000               0.000000000              -0.005795528               0.001973684              -0.001859461              -0.002420030               0.001464561              -0.000955469               0.000000000               0.000000000               0.000000000               0.000000000              -0.004508406               0.003082109              -0.002289910              -0.002075912               0.001719328              -0.000356585               0.000000000               0.000000000               0.000000000               0.000000000              -0.003598664               0.003932444              -0.002316416              -0.001841051               0.001924484               0.000083433               0.000000000               0.000000000               0.000000000               0.000000000              -0.002875277               0.004555344              -0.002196872              -0.001647644               0.002067646               0.000420003               0.000000000               0.000000000               0.000000000               0.000000000              -0.002247658               0.004994078              -0.002028270              -0.001467129               0.002153718               0.000686590               0.000000000               0.000000000               0.000000000               0.000000000              -0.001665791               0.005285198              -0.001846942              -0.001285319               0.002190154               0.000904835               0.000000000               0.000000000               0.000000000               0.000000000              -0.001108330               0.005462340              -0.001679350              -0.001098414               0.002186899               0.001088485               0.000000000               0.000000000               0.000000000               0.000000000              -0.000568908               0.005553294              -0.001533426              -0.000907501               0.002153579               0.001246079               0.000000000               0.000000000               0.000000000               0.000000000              -0.000044745               0.005572705              -0.001393702              -0.000713367               0.002095339               0.001381972               0.000000000               0.000000000               0.000000000               0.000000000               0.000454276               0.005532955              -0.001247882              -0.000521265               0.002018055               0.001496790               0.000000000               0.000000000               0.000000000               0.000000000               0.000921375               0.005453944              -0.001087235              -0.000336227               0.001930039               0.001593812               0.000000000               0.000000000               0.000000000               0.000000000               0.001357534               0.005347475              -0.000895681              -0.000159359               0.001835593               0.001676234               0.000000000               0.000000000               0.000000000               0.000000000               0.001763268               0.005229000              -0.000655176               0.000007600               0.001740449               0.001748049               0.000000000               0.000000000               0.000000000               0.000000000               0.002117562               0.005113763              -0.000355126               0.000154864               0.001652949               0.001807813               0.000000000               0.000000000               0.000000000               0.000000000               0.002321104               0.005074833              -0.000199019               0.000236057               0.001612908               0.001848966               0.000000000               0.000000000               0.000000000               0.000000000              -0.012829371              -0.001102542               0.001244570              -0.004673193               0.001190209              -0.003482985               0.000000000               0.000000000               0.000000000               0.000000000              -0.008940009              -0.000078885              -0.000109925              -0.003342640               0.001087911              -0.002254729               0.000000000               0.000000000               0.000000000               0.000000000              -0.005990261               0.000735089              -0.001361839              -0.002338232               0.001024433              -0.001313799               0.000000000               0.000000000               0.000000000               0.000000000              -0.004354659               0.001752215              -0.001758647              -0.001852021               0.001201403              -0.000650618               0.000000000               0.000000000               0.000000000               0.000000000              -0.003300128               0.002665849              -0.001825375              -0.001570776               0.001412198              -0.000158578               0.000000000               0.000000000               0.000000000               0.000000000              -0.002525828               0.003414170              -0.001760171              -0.001373954               0.001596029               0.000222075               0.000000000               0.000000000               0.000000000               0.000000000              -0.001894537               0.004000452              -0.001644422              -0.001210506               0.001736972               0.000526466               0.000000000               0.000000000               0.000000000               0.000000000              -0.001328995               0.004440736              -0.001511930              -0.001053463               0.001831385               0.000777921               0.000000000               0.000000000               0.000000000               0.000000000              -0.000784577               0.004767336              -0.001385921              -0.000890132               0.001885806               0.000995675               0.000000000               0.000000000               0.000000000               0.000000000              -0.000246930               0.004999691              -0.001274851              -0.000717559               0.001905733               0.001188174               0.000000000               0.000000000               0.000000000               0.000000000               0.000281876               0.005143866              -0.001166971              -0.000537279               0.001893697               0.001356418               0.000000000               0.000000000               0.000000000               0.000000000               0.000813013               0.005220861              -0.001053742              -0.000347727               0.001856179               0.001508451               0.000000000               0.000000000               0.000000000               0.000000000               0.001353862               0.005242951              -0.000929569              -0.000147671               0.001796856               0.001649185               0.000000000               0.000000000               0.000000000               0.000000000               0.001907757               0.005226350              -0.000782666               0.000062114               0.001721395               0.001783509               0.000000000               0.000000000               0.000000000               0.000000000               0.002481769               0.005183658              -0.000592354               0.000282703               0.001633634               0.001916337               0.000000000               0.000000000               0.000000000               0.000000000               0.003073064               0.005106529              -0.000332979               0.000514078               0.001530800               0.002044878               0.000000000               0.000000000               0.000000000               0.000000000               0.003489181               0.005102092              -0.000198930               0.000670675               0.001477122               0.002147797               0.000000000               0.000000000               0.000000000               0.000000000              -0.014029063              -0.001236304               0.000719652              -0.005106357               0.001290009              -0.003816348               0.000000000               0.000000000               0.000000000               0.000000000              -0.009603948              -0.000541870              -0.000020393              -0.003533744               0.000997285              -0.002536460               0.000000000               0.000000000               0.000000000               0.000000000              -0.006121919              -0.000076940              -0.000715881              -0.002286100               0.000736382              -0.001549719               0.000000000               0.000000000               0.000000000               0.000000000              -0.004231445               0.000841665              -0.000953445              -0.001691998               0.000844548              -0.000847450               0.000000000               0.000000000               0.000000000               0.000000000              -0.003062728               0.001772286              -0.001005531              -0.001370056               0.001047440              -0.000322616               0.000000000               0.000000000               0.000000000               0.000000000              -0.002244674               0.002588399              -0.000979693              -0.001165300               0.001251224               0.000085924               0.000000000               0.000000000               0.000000000               0.000000000              -0.001601861               0.003261678              -0.000921899              -0.001008405               0.001423350               0.000414945               0.000000000               0.000000000               0.000000000               0.000000000              -0.001042553               0.003796644              -0.000853192              -0.000865536               0.001554047               0.000688511               0.000000000               0.000000000               0.000000000               0.000000000              -0.000512764               0.004221132              -0.000789653              -0.000719927               0.001647005               0.000927079               0.000000000               0.000000000               0.000000000               0.000000000               0.000009575               0.004549698              -0.000729455              -0.000565120               0.001704924               0.001139804               0.000000000               0.000000000               0.000000000               0.000000000               0.000537761               0.004790824              -0.000666350              -0.000397192               0.001729323               0.001332131               0.000000000               0.000000000               0.000000000               0.000000000               0.001091110               0.004961023              -0.000604441              -0.000210961               0.001723978               0.001513017               0.000000000               0.000000000               0.000000000               0.000000000               0.001682782               0.005066042              -0.000537698              -0.000002213               0.001689401               0.001687189               0.000000000               0.000000000               0.000000000               0.000000000               0.002325841               0.005121838              -0.000457959               0.000231958               0.001629943               0.001861901               0.000000000               0.000000000               0.000000000               0.000000000               0.003033397               0.005133196              -0.000352147               0.000495869               0.001545759               0.002041628               0.000000000               0.000000000               0.000000000               0.000000000               0.003822135               0.005087769              -0.000200328               0.000797321               0.001430132               0.002227454               0.000000000               0.000000000               0.000000000               0.000000000               0.004421985               0.005115369              -0.000122979               0.001018813               0.001365502               0.002384315               0.000000000               0.000000000               0.000000000               0.000000000               0.000000000               0.000000000               0.000000000               0.000000000               0.000000000               0.000000000               0.000000000               0.000000000               0.000000000               0.000000000               0.000000000               0.000000000               0.000000000               0.000000000               0.000000000               0.000000000               0.000000000               0.000000000               0.000000000               0.000000000               0.000000000               0.000000000               0.000000000               0.000000000               0.000000000               0.000000000               0.000000000               0.000000000               0.000000000               0.000000000               0.000000000               0.000000000               0.000000000               0.000000000               0.000000000               0.000000000               0.000000000               0.000000000               0.000000000               0.000000000               0.000000000               0.000000000               0.000000000               0.000000000               0.000000000               0.000000000               0.000000000               0.000000000               0.000000000               0.000000000               0.000000000               0.000000000               0.000000000               0.000000000               0.000000000               0.000000000               0.000000000               0.000000000               0.000000000               0.000000000               0.000000000               0.000000000               0.000000000               0.000000000               0.000000000               0.000000000               0.000000000               0.000000000               0.000000000               0.000000000               0.000000000               0.000000000               0.000000000               0.000000000               0.000000000               0.000000000               0.000000000               0.000000000               0.000000000               0.000000000               0.000000000               0.000000000               0.000000000               0.000000000               0.000000000               0.000000000               0.000000000               0.000000000               0.000000000               0.000000000               0.000000000               0.000000000               0.000000000               0.000000000               0.000000000               0.000000000               0.000000000               0.000000000               0.000000000               0.000000000               0.000000000               0.000000000               0.000000000               0.000000000               0.000000000               0.000000000               0.000000000               0.000000000               0.000000000               0.000000000               0.000000000               0.000000000               0.000000000               0.000000000               0.000000000               0.000000000               0.000000000               0.000000000               0.000000000               0.000000000               0.000000000               0.000000000               0.000000000               0.000000000               0.000000000               0.000000000               0.000000000               0.000000000               0.000000000               0.000000000               0.000000000               0.000000000               0.000000000               0.000000000               0.000000000               0.000000000               0.000000000               0.000000000               0.000000000               0.000000000               0.000000000               0.000000000               0.000000000               0.000000000               0.000000000               0.000000000               0.000000000               0.000000000               0.000000000               0.000000000               0.000000000               0.000000000               0.000000000               0.000000000               0.000000000               0.000000000               0.000000000               0.000000000               0.000000000               0.000000000               0.000000000               0.000000000               0.000000000               0.000000000               0.000000000               0.000000000               0.000000000               0.000000000               0.000000000               0.000000000               0.000000000               0.000000000               0.000000000               0.000000000               0.000000000               0.000000000               0.000000000               0.000000000               0.000000000               0.000000000               0.000000000               0.000000000               0.000000000               0.000000000               0.000000000               0.000000000               0.000000000               0.000000000               0.000000000               0.000000000               0.000000000               0.000000000               0.000000000               0.000000000               0.000000000               0.000000000               0.000000000               0.000000000               0.000000000               0.000000000               0.000000000               0.000000000               0.000000000               0.000000000               0.000000000               0.000000000               0.000000000               0.000000000               0.000000000               0.000000000               0.000000000               0.000000000               0.000000000               0.000000000               0.000000000               0.000000000               0.000000000               0.000000000               0.000000000               0.000000000               0.000000000               0.000000000               0.000000000               0.000000000               0.000000000               0.000000000               0.000000000               0.000000000               0.000000000               0.000000000               0.000000000               0.000000000               0.000000000               0.000000000               0.000000000               0.000000000               0.000000000               0.000000000               0.000000000               0.000000000               0.000000000               0.000000000               0.000000000               0.000000000               0.000000000               0.000000000               0.000000000               0.000000000               0.000000000               0.000000000               0.000000000               0.000000000               0.000000000               0.000000000               0.000000000               0.000000000               0.000000000               0.000000000               0.000000000               0.000000000               0.000000000               0.000000000               0.000000000               0.000000000               0.000000000               0.000000000               0.000000000               0.000000000               0.000000000               0.000000000               0.000000000               0.000000000               0.000000000               0.000000000               0.000000000               0.000000000               0.000000000               0.000000000               0.000000000               0.000000000               0.000000000               0.000000000               0.000000000               0.000000000               0.000000000               0.000000000               0.000000000               0.000000000               0.000000000               0.000000000               0.000000000               0.000000000               0.000000000               0.000000000               0.000000000               0.000000000               0.000000000               0.000000000               0.000000000               0.000000000               0.000000000               0.000000000               0.000000000               0.000000000               0.000000000               0.000000000               0.000000000               0.000000000               0.000000000               0.000000000               0.000000000               0.000000000               0.000000000               0.000000000               0.000000000               0.000000000               0.000000000               0.000000000               0.000000000               0.000000000               0.000000000               0.000000000               0.000000000               0.000000000               0.000000000               0.000000000               0.000000000               0.000000000               0.000000000               0.000000000               0.000000000               0.000000000               0.000000000               0.000000000               0.000000000               0.000000000               0.000000000               0.000000000               0.000000000               0.000000000               0.002266540               0.023274714               0.001565772              -0.002059382               0.008444621               0.006385239               0.000000000               0.000000000               0.000000000               0.000000000               0.002020509               0.017936521               0.000694708              -0.001484371               0.006473571               0.004989200               0.000000000               0.000000000               0.000000000               0.000000000               0.002451547               0.013653982              -0.000162100              -0.000787416               0.004813754               0.004026338               0.000000000               0.000000000               0.000000000               0.000000000               0.002164367               0.011233373              -0.000511813              -0.000592533               0.003941931               0.003349398               0.000000000               0.000000000               0.000000000               0.000000000               0.001710736               0.009692916              -0.000648723              -0.000570087               0.003420969               0.002850882               0.000000000               0.000000000               0.000000000               0.000000000               0.001266837               0.008603979              -0.000690355              -0.000600432               0.003068108               0.002467676               0.000000000               0.000000000               0.000000000               0.000000000               0.000888697               0.007752652              -0.000684446              -0.000635819               0.002796131               0.002160312               0.000000000               0.000000000               0.000000000               0.000000000               0.000588969               0.007030008              -0.000656181              -0.000657886               0.002562608               0.001904722               0.000000000               0.000000000               0.000000000               0.000000000               0.000359970               0.006368604              -0.000618690              -0.000661085               0.002343208               0.001682123               0.000000000               0.000000000               0.000000000               0.000000000               0.000187913               0.005736442              -0.000577955              -0.000646586               0.002127657               0.001481070               0.000000000               0.000000000               0.000000000               0.000000000               0.000064873               0.005113624              -0.000541452              -0.000614874               0.001909482               0.001294608               0.000000000               0.000000000               0.000000000               0.000000000              -0.000018128               0.004494686              -0.000507083              -0.000568632               0.001687758               0.001119125               0.000000000               0.000000000               0.000000000               0.000000000              -0.000077210               0.003868546              -0.000465146              -0.000512521               0.001460343               0.000947822               0.000000000               0.000000000               0.000000000               0.000000000              -0.000112709               0.003217277              -0.000403265              -0.000444424               0.001220556               0.000776132               0.000000000               0.000000000               0.000000000               0.000000000              -0.000112173               0.002522849              -0.000311875              -0.000357420               0.000960081               0.000602661               0.000000000               0.000000000               0.000000000               0.000000000              -0.000069538               0.001768277              -0.000180117              -0.000247111               0.000671790               0.000424679               0.000000000               0.000000000               0.000000000               0.000000000              -0.000096471               0.001208682              -0.000112381              -0.000187261               0.000465311               0.000278049               0.000000000               0.000000000               0.000000000               0.000000000               0.002411101               0.021810742               0.002891538              -0.001822177               0.007877567               0.006055390               0.000000000               0.000000000               0.000000000               0.000000000               0.001805432               0.017021547               0.001274886              -0.001450653               0.006157343               0.004706690               0.000000000               0.000000000               0.000000000               0.000000000               0.001857565               0.013300033              -0.000299462              -0.000965915               0.004755272               0.003789357               0.000000000               0.000000000               0.000000000               0.000000000               0.001447023               0.011162459              -0.000917469              -0.000852672               0.004005006               0.003152335               0.000000000               0.000000000               0.000000000               0.000000000               0.000989884               0.009760493              -0.001145826              -0.000848853               0.003536416               0.002687563               0.000000000               0.000000000               0.000000000               0.000000000               0.000595061               0.008732865              -0.001203386              -0.000868458               0.003200412               0.002331954               0.000000000               0.000000000               0.000000000               0.000000000               0.000287260               0.007909606              -0.001183307              -0.000880977               0.002930168               0.002049191               0.000000000               0.000000000               0.000000000               0.000000000               0.000062295               0.007200784              -0.001125685              -0.000876736               0.002692482               0.001815747               0.000000000               0.000000000               0.000000000               0.000000000              -0.000094930               0.006554463              -0.001051352              -0.000854905               0.002469767               0.001614862               0.000000000               0.000000000               0.000000000               0.000000000              -0.000199232               0.005939497              -0.000971845              -0.000817147               0.002252195               0.001435047               0.000000000               0.000000000               0.000000000               0.000000000              -0.000256858               0.005342672              -0.000897522              -0.000764154               0.002035591               0.001271437               0.000000000               0.000000000               0.000000000               0.000000000              -0.000275691               0.004761819              -0.000830779              -0.000698610               0.001820127               0.001121517               0.000000000               0.000000000               0.000000000               0.000000000              -0.000269638               0.004190790              -0.000750837              -0.000624962               0.001605237               0.000980275               0.000000000               0.000000000               0.000000000               0.000000000              -0.000238620               0.003621447              -0.000637063              -0.000542162               0.001387857               0.000845695               0.000000000               0.000000000               0.000000000               0.000000000              -0.000177556               0.003053989              -0.000478871              -0.000448331               0.001167430               0.000719099               0.000000000               0.000000000               0.000000000               0.000000000              -0.000095210               0.002493905              -0.000268892              -0.000347441               0.000947107               0.000599666               0.000000000               0.000000000               0.000000000               0.000000000              -0.000088917               0.002113342              -0.000163246              -0.000297511               0.000803611               0.000506100               0.000000000               0.000000000               0.000000000               0.000000000               0.002521983               0.019592020               0.003796057              -0.001503258               0.007031693               0.005528436               0.000000000               0.000000000               0.000000000               0.000000000               0.001418585               0.015651747               0.001668573              -0.001424496               0.005692029               0.004267532               0.000000000               0.000000000               0.000000000               0.000000000               0.000951666               0.012776023              -0.000371219              -0.001240125               0.004672007               0.003431882               0.000000000               0.000000000               0.000000000               0.000000000               0.000403455               0.011032497              -0.001123478              -0.001227764               0.004086717               0.002858953               0.000000000               0.000000000               0.000000000               0.000000000              -0.000029138               0.009813441              -0.001377202              -0.001237604               0.003683649               0.002446045               0.000000000               0.000000000               0.000000000               0.000000000              -0.000329297               0.008868546              -0.001426783              -0.001232052               0.003366836               0.002134784               0.000000000               0.000000000               0.000000000               0.000000000              -0.000517375               0.008084629              -0.001385171              -0.001204592               0.003096380               0.001891788               0.000000000               0.000000000               0.000000000               0.000000000              -0.000622144               0.007395737              -0.001302036              -0.001157769               0.002851144               0.001693375               0.000000000               0.000000000               0.000000000               0.000000000              -0.000666957               0.006765866              -0.001200370              -0.001095840               0.002620546               0.001524706               0.000000000               0.000000000               0.000000000               0.000000000              -0.000666846               0.006171345              -0.001094631              -0.001021483               0.002397589               0.001376105               0.000000000               0.000000000               0.000000000               0.000000000              -0.000628343               0.005612760              -0.000998828              -0.000937222               0.002183308               0.001246087               0.000000000               0.000000000               0.000000000               0.000000000              -0.000564939               0.005086796              -0.000910528              -0.000847700               0.001978148               0.001130448               0.000000000               0.000000000               0.000000000               0.000000000              -0.000478818               0.004590619              -0.000806487              -0.000753382               0.001781318               0.001027936               0.000000000               0.000000000               0.000000000               0.000000000              -0.000371477               0.004128211              -0.000665986              -0.000655329               0.001594499               0.000939170               0.000000000               0.000000000               0.000000000               0.000000000              -0.000250664               0.003711681              -0.000485659              -0.000557958               0.001423201               0.000865243               0.000000000               0.000000000               0.000000000               0.000000000              -0.000125929               0.003362160              -0.000264838              -0.000467492               0.001276540               0.000809047               0.000000000               0.000000000               0.000000000               0.000000000              -0.000083224               0.003160209              -0.000153080              -0.000426234               0.001195471               0.000769236               0.000000000               0.000000000               0.000000000               0.000000000               0.002440050               0.016885433               0.004199408              -0.001195661               0.006026974               0.004831313               0.000000000               0.000000000               0.000000000               0.000000000               0.000831748               0.014018167               0.001861957              -0.001440363               0.005152796               0.003712433               0.000000000               0.000000000               0.000000000               0.000000000              -0.000163775               0.012143561              -0.000338602              -0.001579357               0.004574265               0.002994909               0.000000000               0.000000000               0.000000000               0.000000000              -0.000786942               0.010828013              -0.001087394              -0.001648601               0.004158835               0.002510234               0.000000000               0.000000000               0.000000000               0.000000000              -0.001128885               0.009801575              -0.001314017              -0.001648525               0.003816667               0.002168142               0.000000000               0.000000000               0.000000000               0.000000000              -0.001282462               0.008946056              -0.001339862              -0.001599177               0.003515048               0.001915871               0.000000000               0.000000000               0.000000000               0.000000000              -0.001314866               0.008201085              -0.001283643              -0.001518207               0.003239737               0.001721529               0.000000000               0.000000000               0.000000000               0.000000000              -0.001268566               0.007530911              -0.001189825              -0.001417073               0.002982636               0.001565563               0.000000000               0.000000000               0.000000000               0.000000000              -0.001171068               0.006911950              -0.001080439              -0.001303141               0.002738341               0.001435199               0.000000000               0.000000000               0.000000000               0.000000000              -0.001047424               0.006341295              -0.000971847              -0.001185443               0.002508891               0.001323448               0.000000000               0.000000000               0.000000000               0.000000000              -0.000911289               0.005824513              -0.000873385              -0.001069795               0.002298083               0.001228288               0.000000000               0.000000000               0.000000000               0.000000000              -0.000760286               0.005358547              -0.000781897              -0.000954923               0.002104472               0.001149549               0.000000000               0.000000000               0.000000000               0.000000000              -0.000597132               0.004945367              -0.000676222              -0.000842093               0.001929137               0.001087043               0.000000000               0.000000000               0.000000000               0.000000000              -0.000427809               0.004591071              -0.000538250              -0.000734310               0.001775112               0.001040801               0.000000000               0.000000000               0.000000000               0.000000000              -0.000263841               0.004308236              -0.000375030              -0.000637468               0.001648554               0.001011085               0.000000000               0.000000000               0.000000000               0.000000000              -0.000123602               0.004116649              -0.000196193              -0.000560930               0.001559179               0.000998249               0.000000000               0.000000000               0.000000000               0.000000000              -0.000066715               0.004036456              -0.000106568              -0.000529574               0.001521996               0.000992423               0.000000000               0.000000000               0.000000000               0.000000000               0.002051410               0.013979141               0.004117290              -0.000978115               0.004985704               0.004007589               0.000000000               0.000000000               0.000000000               0.000000000               0.000060151               0.012301637               0.001889179              -0.001515146               0.004605553               0.003090407               0.000000000               0.000000000               0.000000000               0.000000000              -0.001353378               0.011453538              -0.000176069              -0.001939204               0.004464209               0.002525005               0.000000000               0.000000000               0.000000000               0.000000000              -0.001940314               0.010538897              -0.000821216              -0.002044975               0.004194589               0.002149614               0.000000000               0.000000000               0.000000000               0.000000000              -0.002118504               0.009683393              -0.000997073              -0.002004858               0.003896051               0.001891193               0.000000000               0.000000000               0.000000000               0.000000000              -0.002082801               0.008907364              -0.001006675              -0.001894466               0.003600580               0.001706114               0.000000000               0.000000000               0.000000000               0.000000000              -0.001936407               0.008198016              -0.000953343              -0.001750900               0.003316278               0.001565378               0.000000000               0.000000000               0.000000000               0.000000000              -0.001730182               0.007543701              -0.000870028              -0.001591777               0.003045134               0.001453357               0.000000000               0.000000000               0.000000000               0.000000000              -0.001491264               0.006943272              -0.000776318              -0.001427129               0.002790111               0.001362981               0.000000000               0.000000000               0.000000000               0.000000000              -0.001251231               0.006405144              -0.000689411              -0.001269852               0.002558311               0.001288459               0.000000000               0.000000000               0.000000000               0.000000000              -0.001023331               0.005936687              -0.000611412              -0.001125832               0.002354153               0.001228321               0.000000000               0.000000000               0.000000000               0.000000000              -0.000798623               0.005533400              -0.000537214              -0.000991156               0.002174834               0.001183677               0.000000000               0.000000000               0.000000000               0.000000000              -0.000585513               0.005193002              -0.000451303              -0.000868691               0.002020547               0.001151856               0.000000000               0.000000000               0.000000000               0.000000000              -0.000392645               0.004919656              -0.000338220              -0.000762197               0.001893935               0.001131737               0.000000000               0.000000000               0.000000000               0.000000000              -0.000225627               0.004723771              -0.000216133              -0.000675080               0.001799601               0.001124521               0.000000000               0.000000000               0.000000000               0.000000000              -0.000098197               0.004615399              -0.000104936              -0.000613747               0.001743033               0.001129286               0.000000000               0.000000000               0.000000000               0.000000000              -0.000047172               0.004584398              -0.000053856              -0.000590738               0.001725030               0.001134292               0.000000000               0.000000000               0.000000000               0.000000000               0.001284841               0.011126732               0.003639057              -0.000909027               0.004011882               0.003102855               0.000000000               0.000000000               0.000000000               0.000000000              -0.000858403               0.010637376               0.001809973              -0.001651570               0.004096279               0.002444709               0.000000000               0.000000000               0.000000000               0.000000000              -0.002483781               0.010728272               0.000122026              -0.002272446               0.004333537               0.002061091               0.000000000               0.000000000               0.000000000               0.000000000              -0.002909390               0.010146629              -0.000372727              -0.002359344               0.004168624               0.001809280               0.000000000               0.000000000               0.000000000               0.000000000              -0.002864518               0.009432352              -0.000511199              -0.002253233               0.003895163               0.001641931               0.000000000               0.000000000               0.000000000               0.000000000              -0.002621246               0.008724592              -0.000530540              -0.002073536               0.003599347               0.001525811               0.000000000               0.000000000               0.000000000               0.000000000              -0.002298496               0.008050352              -0.000504092              -0.001868225               0.003306166               0.001437940               0.000000000               0.000000000               0.000000000               0.000000000              -0.001945063               0.007423566              -0.000455647              -0.001657340               0.003026944               0.001369604               0.000000000               0.000000000               0.000000000               0.000000000              -0.001586939               0.006856397              -0.000400446              -0.001452148               0.002769492               0.001317344               0.000000000               0.000000000               0.000000000               0.000000000              -0.001254242               0.006364418              -0.000354833              -0.001265890               0.002543415               0.001277525               0.000000000               0.000000000               0.000000000               0.000000000              -0.000957562               0.005948359              -0.000314792              -0.001102628               0.002350309               0.001247681               0.000000000               0.000000000               0.000000000               0.000000000              -0.000691588               0.005600038              -0.000271033              -0.000959348               0.002186443               0.001227095               0.000000000               0.000000000               0.000000000               0.000000000              -0.000466589               0.005309847              -0.000217023              -0.000838700               0.002049498               0.001210798               0.000000000               0.000000000               0.000000000               0.000000000              -0.000287932               0.005084000              -0.000144905              -0.000743473               0.001942474               0.001199001               0.000000000               0.000000000               0.000000000               0.000000000              -0.000150399               0.004934035              -0.000076463              -0.000673152               0.001869046               0.001195894               0.000000000               0.000000000               0.000000000               0.000000000              -0.000057184               0.004856206              -0.000031828              -0.000628468               0.001828208               0.001199740               0.000000000               0.000000000               0.000000000               0.000000000              -0.000025914               0.004831305              -0.000016938              -0.000613629               0.001814962               0.001201333               0.000000000               0.000000000               0.000000000               0.000000000               0.000185226               0.008501000               0.002884054              -0.000993165               0.003164693               0.002171527               0.000000000               0.000000000               0.000000000               0.000000000              -0.001867746               0.009118867               0.001680511              -0.001840259               0.003653011               0.001812752               0.000000000               0.000000000               0.000000000               0.000000000              -0.003448077               0.009970564               0.000538683              -0.002539343               0.004169936               0.001630593               0.000000000               0.000000000               0.000000000               0.000000000              -0.003606659               0.009647129               0.000176285              -0.002558382               0.004068471               0.001510090               0.000000000               0.000000000               0.000000000               0.000000000              -0.003314940               0.009061884               0.000039147              -0.002375832               0.003812542               0.001436710               0.000000000               0.000000000               0.000000000               0.000000000              -0.002874313               0.008423161              -0.000015120              -0.002130757               0.003517945               0.001387187               0.000000000               0.000000000               0.000000000               0.000000000              -0.002392003               0.007792731              -0.000037705              -0.001871088               0.003221247               0.001350159               0.000000000               0.000000000               0.000000000               0.000000000              -0.001916472               0.007202275              -0.000044607              -0.001618957               0.002940387               0.001321429               0.000000000               0.000000000               0.000000000               0.000000000              -0.001476986               0.006681022              -0.000043103              -0.001388994               0.002689983               0.001300989               0.000000000               0.000000000               0.000000000               0.000000000              -0.001087335               0.006242498              -0.000046581              -0.001188060               0.002476832               0.001288772               0.000000000               0.000000000               0.000000000               0.000000000              -0.000758920               0.005869850              -0.000050389              -0.001018324               0.002296039               0.001277715               0.000000000               0.000000000               0.000000000               0.000000000              -0.000492576               0.005553221              -0.000044083              -0.000878867               0.002144011               0.001265144               0.000000000               0.000000000               0.000000000               0.000000000              -0.000291849               0.005293464              -0.000029224              -0.000771124               0.002021512               0.001250387               0.000000000               0.000000000               0.000000000               0.000000000              -0.000154171               0.005101658              -0.000008131              -0.000695520               0.001932375               0.001236856               0.000000000               0.000000000               0.000000000               0.000000000              -0.000062515               0.004989885               0.000005149              -0.000647177               0.001879004               0.001231827               0.000000000               0.000000000               0.000000000               0.000000000              -0.000015750               0.004937581               0.000003093              -0.000623102               0.001853545               0.001230442               0.000000000               0.000000000               0.000000000               0.000000000              -0.000008831               0.004919186              -0.000001985              -0.000618208               0.001845782               0.001227573               0.000000000               0.000000000               0.000000000               0.000000000              -0.001102942               0.006294599               0.001974233              -0.001200426               0.002498320               0.001297894               0.000000000               0.000000000               0.000000000               0.000000000              -0.002850762               0.007764412               0.001542832              -0.002039583               0.003267972               0.001228389               0.000000000               0.000000000               0.000000000               0.000000000              -0.004202361               0.009208679               0.001036547              -0.002726963               0.003978517               0.001251553               0.000000000               0.000000000               0.000000000               0.000000000              -0.004083103               0.009154919               0.000752363              -0.002675522               0.003943450               0.001267928               0.000000000               0.000000000               0.000000000               0.000000000              -0.003586727               0.008721115               0.000587102              -0.002435156               0.003718728               0.001283572               0.000000000               0.000000000               0.000000000               0.000000000              -0.002989725               0.008174386               0.000482792              -0.002142940               0.003439081               0.001296141               0.000000000               0.000000000               0.000000000               0.000000000              -0.002383106               0.007607113               0.000402384              -0.001844549               0.003150529               0.001305980               0.000000000               0.000000000               0.000000000               0.000000000              -0.001816059               0.007069152               0.000333315              -0.001564662               0.002877914               0.001313252               0.000000000               0.000000000               0.000000000               0.000000000              -0.001318823               0.006596719               0.000276366              -0.001319145               0.002638600               0.001319454               0.000000000               0.000000000               0.000000000               0.000000000              -0.000896290               0.006195500               0.000226123              -0.001110544               0.002435327               0.001324784               0.000000000               0.000000000               0.000000000               0.000000000              -0.000557034               0.005838494               0.000181256              -0.000938697               0.002259044               0.001320347               0.000000000               0.000000000               0.000000000               0.000000000              -0.000300592               0.005525761               0.000145075              -0.000803440               0.002109715               0.001306275               0.000000000               0.000000000               0.000000000               0.000000000              -0.000120044               0.005274876               0.000110239              -0.000704374               0.001993066               0.001288691               0.000000000               0.000000000               0.000000000               0.000000000              -0.000017563               0.005100594               0.000071411              -0.000644159               0.001914901               0.001270742               0.000000000               0.000000000               0.000000000               0.000000000               0.000021860               0.005011288               0.000034128              -0.000618212               0.001876483               0.001258271               0.000000000               0.000000000               0.000000000               0.000000000               0.000020349               0.004977793               0.000008096              -0.000614592               0.001864112               0.001249520               0.000000000               0.000000000               0.000000000               0.000000000               0.000007570               0.004966309              -0.000002548              -0.000617948               0.001861402               0.001243454               0.000000000               0.000000000               0.000000000               0.000000000              -0.002597716               0.004258304               0.001024315              -0.001506428               0.001921563               0.000415135               0.000000000               0.000000000               0.000000000               0.000000000              -0.003677062               0.006191107               0.001393403              -0.002152782               0.002781275               0.000628494               0.000000000               0.000000000               0.000000000               0.000000000              -0.004653410               0.008063640               0.001556793              -0.002752977               0.003605512               0.000852535               0.000000000               0.000000000               0.000000000               0.000000000              -0.004383615               0.008412163               0.001360794              -0.002695369               0.003702482               0.001007113               0.000000000               0.000000000               0.000000000               0.000000000              -0.003804236               0.008257512               0.001163351              -0.002458771               0.003572067               0.001113295               0.000000000               0.000000000               0.000000000               0.000000000              -0.003156912               0.007915884               0.001002431              -0.002173322               0.003363042               0.001189720               0.000000000               0.000000000               0.000000000               0.000000000              -0.002514346               0.007506691               0.000864321              -0.001881212               0.003129276               0.001248064               0.000000000               0.000000000               0.000000000               0.000000000              -0.001915090               0.007085685               0.000737221              -0.001603865               0.002896493               0.001292628               0.000000000               0.000000000               0.000000000               0.000000000              -0.001384303               0.006686635               0.000627603              -0.001354940               0.002680503               0.001325563               0.000000000               0.000000000               0.000000000               0.000000000              -0.000933208               0.006322659               0.000530993              -0.001140283               0.002487626               0.001347343               0.000000000               0.000000000               0.000000000               0.000000000              -0.000567587               0.005981204               0.000441688              -0.000960493               0.002313879               0.001353386               0.000000000               0.000000000               0.000000000               0.000000000              -0.000287955               0.005667542               0.000359139              -0.000816424               0.002161303               0.001344879               0.000000000               0.000000000               0.000000000               0.000000000              -0.000090127               0.005396812               0.000269634              -0.000708397               0.002035052               0.001326654               0.000000000               0.000000000               0.000000000               0.000000000               0.000029295               0.005190490               0.000171568              -0.000637824               0.001942754               0.001304930               0.000000000               0.000000000               0.000000000               0.000000000               0.000079246               0.005069526               0.000085739              -0.000603972               0.001891149               0.001287177               0.000000000               0.000000000               0.000000000               0.000000000               0.000073908               0.005013352               0.000029180              -0.000598952               0.001870751               0.001271799               0.000000000               0.000000000               0.000000000               0.000000000               0.000050106               0.004988500               0.000005425              -0.000604771               0.001864407               0.001259636               0.000000000               0.000000000               0.000000000               0.000000000              -0.004484806               0.002416811               0.000110305              -0.001983900               0.001466894              -0.000517006               0.000000000               0.000000000               0.000000000               0.000000000              -0.004603631               0.004595954               0.001180311              -0.002300851               0.002298919              -0.000001932               0.000000000               0.000000000               0.000000000               0.000000000              -0.005012141               0.006691253               0.001975094              -0.002715953               0.003135713               0.000419759               0.000000000               0.000000000               0.000000000               0.000000000              -0.004606048               0.007418751               0.001939127              -0.002654606               0.003357760               0.000703155               0.000000000               0.000000000               0.000000000               0.000000000              -0.003986217               0.007588195               0.001743158              -0.002443350               0.003343823               0.000900473               0.000000000               0.000000000               0.000000000               0.000000000              -0.003324878               0.007507131               0.001540580              -0.002185215               0.003230757               0.001045541               0.000000000               0.000000000               0.000000000               0.000000000              -0.002671483               0.007299157               0.001354245              -0.001914196               0.003071093               0.001156897               0.000000000               0.000000000               0.000000000               0.000000000              -0.002055853               0.007021015               0.001182235              -0.001648568               0.002889838               0.001241269               0.000000000               0.000000000               0.000000000               0.000000000              -0.001495659               0.006722570               0.001030447              -0.001401190               0.002707898               0.001306707               0.000000000               0.000000000               0.000000000               0.000000000              -0.001003326               0.006424493               0.000894996              -0.001179306               0.002534578               0.001355272               0.000000000               0.000000000               0.000000000               0.000000000              -0.000590034               0.006127267               0.000766680              -0.000987169               0.002371458               0.001384289               0.000000000               0.000000000               0.000000000               0.000000000              -0.000263919               0.005835792               0.000641095              -0.000828442               0.002221392               0.001392950               0.000000000               0.000000000               0.000000000               0.000000000              -0.000017742               0.005559204               0.000507627              -0.000701552               0.002086900               0.001385348               0.000000000               0.000000000               0.000000000               0.000000000               0.000152553               0.005321719               0.000359536              -0.000608006               0.001976557               0.001368551               0.000000000               0.000000000               0.000000000               0.000000000               0.000239922               0.005152811               0.000211677              -0.000554129               0.001902296               0.001348167               0.000000000               0.000000000               0.000000000               0.000000000               0.000242513               0.005052155               0.000089518              -0.000540576               0.001864227               0.001323651               0.000000000               0.000000000               0.000000000               0.000000000               0.000204078               0.005003804               0.000031271              -0.000548945               0.001850900               0.001301955               0.000000000               0.000000000               0.000000000               0.000000000              -0.006625389               0.000928057              -0.000680037              -0.002600525               0.001176186              -0.001424339               0.000000000               0.000000000               0.000000000               0.000000000              -0.005673930               0.003090462               0.000891816              -0.002514027               0.001868150              -0.000645877               0.000000000               0.000000000               0.000000000               0.000000000              -0.005304769               0.005117966               0.002181133              -0.002629029               0.002582313              -0.000046715               0.000000000               0.000000000               0.000000000               0.000000000              -0.004680700               0.006108168               0.002344836              -0.002518778               0.002875627               0.000356850               0.000000000               0.000000000               0.000000000               0.000000000              -0.004002652               0.006582585               0.002202636              -0.002323812               0.002968776               0.000644964               0.000000000               0.000000000               0.000000000               0.000000000              -0.003332337               0.006773232               0.001996056              -0.002096276               0.002956479               0.000860204               0.000000000               0.000000000               0.000000000               0.000000000              -0.002684932               0.006786523               0.001785713              -0.001855161               0.002880538               0.001025377               0.000000000               0.000000000               0.000000000               0.000000000              -0.002068999               0.006688133               0.001584873              -0.001611888               0.002766651               0.001154763               0.000000000               0.000000000               0.000000000               0.000000000              -0.001497984               0.006527431               0.001407764              -0.001377670               0.002635012               0.001257342               0.000000000               0.000000000               0.000000000               0.000000000              -0.000978153               0.006333953               0.001249407              -0.001158549               0.002497479               0.001338930               0.000000000               0.000000000               0.000000000               0.000000000              -0.000519484               0.006119752               0.001094976              -0.000959774               0.002359821               0.001400048               0.000000000               0.000000000               0.000000000               0.000000000              -0.000133921               0.005885128               0.000944247              -0.000785860               0.002223643               0.001437783               0.000000000               0.000000000               0.000000000               0.000000000               0.000176547               0.005640674               0.000784924              -0.000638878               0.002093165               0.001454287               0.000000000               0.000000000               0.000000000               0.000000000               0.000411378               0.005410623               0.000594873              -0.000522060               0.001977543               0.001455483               0.000000000               0.000000000               0.000000000               0.000000000               0.000559156               0.005220927               0.000384285              -0.000442932               0.001887935               0.001445004               0.000000000               0.000000000               0.000000000               0.000000000               0.000605117               0.005086763               0.000183109              -0.000408926               0.001831879               0.001422954               0.000000000               0.000000000               0.000000000               0.000000000               0.000579721               0.005020760               0.000081714              -0.000410199               0.001810303               0.001400104               0.000000000               0.000000000               0.000000000               0.000000000              -0.008875011              -0.000127460              -0.001229399              -0.003312194               0.001061570              -0.002250623               0.000000000               0.000000000               0.000000000               0.000000000              -0.006825842               0.001761542               0.000577996              -0.002779880               0.001513797              -0.001266083               0.000000000               0.000000000               0.000000000               0.000000000              -0.005562174               0.003489308               0.002143913              -0.002521974               0.002003747              -0.000518228               0.000000000               0.000000000               0.000000000               0.000000000              -0.004633984               0.004606120               0.002481920              -0.002313504               0.002306525              -0.000006980               0.000000000               0.000000000               0.000000000               0.000000000              -0.003859741               0.005313995               0.002427348              -0.002111648               0.002475196               0.000363548               0.000000000               0.000000000               0.000000000               0.000000000              -0.003171573               0.005747590               0.002253738              -0.001907785               0.002551772               0.000643987               0.000000000               0.000000000               0.000000000               0.000000000              -0.002537495               0.005986029               0.002049727              -0.001699811               0.002561926               0.000862115               0.000000000               0.000000000               0.000000000               0.000000000              -0.001935955               0.006087021               0.001845079              -0.001486858               0.002524605               0.001037748               0.000000000               0.000000000               0.000000000               0.000000000              -0.001367791               0.006092913               0.001660908              -0.001274533               0.002455795               0.001181261               0.000000000               0.000000000               0.000000000               0.000000000              -0.000833539               0.006035333               0.001497387              -0.001066992               0.002367421               0.001300429               0.000000000               0.000000000               0.000000000               0.000000000              -0.000335051               0.005931837               0.001340134              -0.000867122               0.002266300               0.001399177               0.000000000               0.000000000               0.000000000               0.000000000               0.000113679               0.005783273               0.001183438              -0.000680278               0.002154498               0.001474219               0.000000000               0.000000000               0.000000000               0.000000000               0.000499370               0.005607659               0.001012100              -0.000513693               0.002040432               0.001526739               0.000000000               0.000000000               0.000000000               0.000000000               0.000822059               0.005419836               0.000805538              -0.000369207               0.001929663               0.001560456               0.000000000               0.000000000               0.000000000               0.000000000               0.001077345               0.005243867               0.000559730              -0.000251479               0.001831764               0.001580286               0.000000000               0.000000000               0.000000000               0.000000000               0.001237623               0.005106144               0.000288944              -0.000174159               0.001760084               0.001585925               0.000000000               0.000000000               0.000000000               0.000000000               0.001284982               0.005043604               0.000149477              -0.000148582               0.001730712               0.001582130               0.000000000               0.000000000               0.000000000               0.000000000              -0.011026931              -0.000775818              -0.001431697              -0.004038119               0.001087426              -0.002950693               0.000000000               0.000000000               0.000000000               0.000000000              -0.007960723               0.000691163               0.000300465              -0.003071663               0.001254267              -0.001817397               0.000000000               0.000000000               0.000000000               0.000000000              -0.005795528               0.001973684               0.001859461              -0.002420030               0.001464561              -0.000955469               0.000000000               0.000000000               0.000000000               0.000000000              -0.004508406               0.003082109               0.002289910              -0.002075912               0.001719328              -0.000356585               0.000000000               0.000000000               0.000000000               0.000000000              -0.003598664               0.003932444               0.002316416              -0.001841051               0.001924484               0.000083433               0.000000000               0.000000000               0.000000000               0.000000000              -0.002875277               0.004555344               0.002196872              -0.001647644               0.002067646               0.000420003               0.000000000               0.000000000               0.000000000               0.000000000              -0.002247658               0.004994078               0.002028270              -0.001467129               0.002153718               0.000686590               0.000000000               0.000000000               0.000000000               0.000000000              -0.001665791               0.005285198               0.001846942              -0.001285319               0.002190154               0.000904835               0.000000000               0.000000000               0.000000000               0.000000000              -0.001108330               0.005462340               0.001679350              -0.001098414               0.002186899               0.001088485               0.000000000               0.000000000               0.000000000               0.000000000              -0.000568908               0.005553294               0.001533426              -0.000907501               0.002153579               0.001246079               0.000000000               0.000000000               0.000000000               0.000000000              -0.000044745               0.005572705               0.001393702              -0.000713367               0.002095339               0.001381972               0.000000000               0.000000000               0.000000000               0.000000000               0.000454276               0.005532955               0.001247882              -0.000521265               0.002018055               0.001496790               0.000000000               0.000000000               0.000000000               0.000000000               0.000921375               0.005453944               0.001087235              -0.000336227               0.001930039               0.001593812               0.000000000               0.000000000               0.000000000               0.000000000               0.001357534               0.005347475               0.000895681              -0.000159359               0.001835593               0.001676234               0.000000000               0.000000000               0.000000000               0.000000000               0.001763268               0.005229000               0.000655176               0.000007600               0.001740449               0.001748049               0.000000000               0.000000000               0.000000000               0.000000000               0.002117562               0.005113763               0.000355126               0.000154864               0.001652949               0.001807813               0.000000000               0.000000000               0.000000000               0.000000000               0.002321104               0.005074833               0.000199019               0.000236057               0.001612908               0.001848966               0.000000000               0.000000000               0.000000000               0.000000000              -0.012829371              -0.001102542              -0.001244570              -0.004673193               0.001190209              -0.003482985               0.000000000               0.000000000               0.000000000               0.000000000              -0.008940009              -0.000078885               0.000109925              -0.003342640               0.001087911              -0.002254729               0.000000000               0.000000000               0.000000000               0.000000000              -0.005990261               0.000735089               0.001361839              -0.002338232               0.001024433              -0.001313799               0.000000000               0.000000000               0.000000000               0.000000000              -0.004354659               0.001752215               0.001758647              -0.001852021               0.001201403              -0.000650618               0.000000000               0.000000000               0.000000000               0.000000000              -0.003300128               0.002665849               0.001825375              -0.001570776               0.001412198              -0.000158578               0.000000000               0.000000000               0.000000000               0.000000000              -0.002525828               0.003414170               0.001760171              -0.001373954               0.001596029               0.000222075               0.000000000               0.000000000               0.000000000               0.000000000              -0.001894537               0.004000452               0.001644422              -0.001210506               0.001736972               0.000526466               0.000000000               0.000000000               0.000000000               0.000000000              -0.001328995               0.004440736               0.001511930              -0.001053463               0.001831385               0.000777921               0.000000000               0.000000000               0.000000000               0.000000000              -0.000784577               0.004767336               0.001385921              -0.000890132               0.001885806               0.000995675               0.000000000               0.000000000               0.000000000               0.000000000              -0.000246930               0.004999691               0.001274851              -0.000717559               0.001905733               0.001188174               0.000000000               0.000000000               0.000000000               0.000000000               0.000281876               0.005143866               0.001166971              -0.000537279               0.001893697               0.001356418               0.000000000               0.000000000               0.000000000               0.000000000               0.000813013               0.005220861               0.001053742              -0.000347727               0.001856179               0.001508451               0.000000000               0.000000000               0.000000000               0.000000000               0.001353862               0.005242951               0.000929569              -0.000147671               0.001796856               0.001649185               0.000000000               0.000000000               0.000000000               0.000000000               0.001907757               0.005226350               0.000782666               0.000062114               0.001721395               0.001783509               0.000000000               0.000000000               0.000000000               0.000000000               0.002481769               0.005183658               0.000592354               0.000282703               0.001633634               0.001916337               0.000000000               0.000000000               0.000000000               0.000000000               0.003073064               0.005106529               0.000332979               0.000514078               0.001530800               0.002044878               0.000000000               0.000000000               0.000000000               0.000000000               0.003489181               0.005102092               0.000198930               0.000670675               0.001477122               0.002147797               0.000000000               0.000000000               0.000000000               0.000000000              -0.014029063              -0.001236304              -0.000719652              -0.005106357               0.001290009              -0.003816348               0.000000000               0.000000000               0.000000000               0.000000000              -0.009603948              -0.000541870               0.000020393              -0.003533744               0.000997285              -0.002536460               0.000000000               0.000000000               0.000000000               0.000000000              -0.006121919              -0.000076940               0.000715881              -0.002286100               0.000736382              -0.001549719               0.000000000               0.000000000               0.000000000               0.000000000              -0.004231445               0.000841665               0.000953445              -0.001691998               0.000844548              -0.000847450               0.000000000               0.000000000               0.000000000               0.000000000              -0.003062728               0.001772286               0.001005531              -0.001370056               0.001047440              -0.000322616               0.000000000               0.000000000               0.000000000               0.000000000              -0.002244674               0.002588399               0.000979693              -0.001165300               0.001251224               0.000085924               0.000000000               0.000000000               0.000000000               0.000000000              -0.001601861               0.003261678               0.000921899              -0.001008405               0.001423350               0.000414945               0.000000000               0.000000000               0.000000000               0.000000000              -0.001042553               0.003796644               0.000853192              -0.000865536               0.001554047               0.000688511               0.000000000               0.000000000               0.000000000               0.000000000              -0.000512764               0.004221132               0.000789653              -0.000719927               0.001647005               0.000927079               0.000000000               0.000000000               0.000000000               0.000000000               0.000009575               0.004549698               0.000729455              -0.000565120               0.001704924               0.001139804               0.000000000               0.000000000               0.000000000               0.000000000               0.000537761               0.004790824               0.000666350              -0.000397192               0.001729323               0.001332131               0.000000000               0.000000000               0.000000000               0.000000000               0.001091110               0.004961023               0.000604441              -0.000210961               0.001723978               0.001513017               0.000000000               0.000000000               0.000000000               0.000000000               0.001682782               0.005066042               0.000537698              -0.000002213               0.001689401               0.001687189               0.000000000               0.000000000               0.000000000               0.000000000               0.002325841               0.005121838               0.000457959               0.000231958               0.001629943               0.001861901               0.000000000               0.000000000               0.000000000               0.000000000               0.003033397               0.005133196               0.000352147               0.000495869               0.001545759               0.002041628               0.000000000               0.000000000               0.000000000               0.000000000               0.003822135               0.005087769               0.000200328               0.000797321               0.001430132               0.002227454               0.000000000               0.000000000               0.000000000               0.000000000               0.004421985               0.005115369               0.000122979               0.001018813               0.001365502               0.002384315               0.000000000               0.000000000               0.000000000               0.000000000               0.000000000               0.000000000               0.000000000               0.000000000               0.000000000               0.000000000               0.000000000               0.000000000               0.000000000               0.000000000               0.000000000               0.000000000               0.000000000               0.000000000               0.000000000               0.000000000               0.000000000               0.000000000               0.000000000               0.000000000               0.000000000               0.000000000               0.000000000               0.000000000               0.000000000               0.000000000               0.000000000               0.000000000               0.000000000               0.000000000               0.000000000               0.000000000               0.000000000               0.000000000               0.000000000               0.000000000               0.000000000               0.000000000               0.000000000               0.000000000               0.000000000               0.000000000               0.000000000               0.000000000               0.000000000               0.000000000               0.000000000               0.000000000               0.000000000               0.000000000               0.000000000               0.000000000               0.000000000               0.000000000               0.000000000               0.000000000               0.000000000               0.000000000               0.000000000               0.000000000               0.000000000               0.000000000               0.000000000               0.000000000               0.000000000               0.000000000               0.000000000               0.000000000               0.000000000               0.000000000               0.000000000               0.000000000               0.000000000               0.000000000               0.000000000               0.000000000               0.000000000               0.000000000               0.000000000               0.000000000               0.000000000               0.000000000               0.000000000               0.000000000               0.000000000               0.000000000               0.000000000               0.000000000               0.000000000               0.000000000               0.000000000               0.000000000               0.000000000               0.000000000               0.000000000               0.000000000               0.000000000               0.000000000               0.000000000               0.000000000               0.000000000               0.000000000               0.000000000               0.000000000               0.000000000               0.000000000               0.000000000               0.000000000               0.000000000               0.000000000               0.000000000               0.000000000               0.000000000               0.000000000               0.000000000               0.000000000               0.000000000               0.000000000               0.000000000               0.000000000               0.000000000               0.000000000               0.000000000               0.000000000               0.000000000               0.000000000               0.000000000               0.000000000               0.000000000               0.000000000               0.000000000               0.000000000               0.000000000               0.000000000               0.000000000               0.000000000               0.000000000               0.000000000               0.000000000               0.000000000               0.000000000               0.000000000               0.000000000               0.000000000               0.000000000               0.000000000               0.000000000               0.000000000               0.000000000               0.000000000               0.000000000               0.000000000               0.000000000               0.000000000               0.000000000               0.000000000               0.000000000               0.000000000               0.000000000               0.000000000               0.000000000               0.000000000               0.000000000               0.000000000               0.000000000               0.000000000               0.000000000               0.000000000               0.000000000               0.000000000 </DataArray>
</PointData>
</Piece>
</UnstructuredGrid> </VTKFile>
