<?xml version="1.0"?>
<VTKFile type="UnstructuredGrid" version="0.1">
<UnstructuredGrid>
<Piece NumberOfPoints="      1156" NumberOfCells="      1024">
<Points>
<DataArray type="Float64"                                    Name="coordinates"                                                      NumberOfComponents=" 3" format="ascii">
              0.133000000               0.000000000               0.000000000               0.155937500               0.000000000               0.000000000               0.178875000               0.000000000               0.000000000               0.201812500               0.000000000               0.000000000               0.224750000               0.000000000               0.000000000               0.247687500               0.000000000               0.000000000               0.270625000               0.000000000               0.000000000               0.293562500               0.000000000               0.000000000               0.316500000               0.000000000               0.000000000               0.339437500               0.000000000               0.000000000               0.362375000               0.000000000               0.000000000               0.385312500               0.000000000               0.000000000               0.408250000               0.000000000               0.000000000               0.431187500               0.000000000               0.000000000               0.454125000               0.000000000               0.000000000               0.477062500               0.000000000               0.000000000               0.500000000               0.000000000               0.000000000               0.132359569               0.013036280               0.000000000               0.155337096               0.016127762               0.000000000               0.178314623               0.019219245               0.000000000               0.201292150               0.022310727               0.000000000               0.224269676               0.025402210               0.000000000               0.247247203               0.028493692               0.000000000               0.270224730               0.031585175               0.000000000               0.293202257               0.034676657               0.000000000               0.316179784               0.037768140               0.000000000               0.339157311               0.040859622               0.000000000               0.362134838               0.043951105               0.000000000               0.385112365               0.047042587               0.000000000               0.408089892               0.050134070               0.000000000               0.431067419               0.053225552               0.000000000               0.454044946               0.056317035               0.000000000               0.477022473               0.059408517               0.000000000               0.500000000               0.062500000               0.000000000               0.130444442               0.025947013               0.000000000               0.153541665               0.032137825               0.000000000               0.176638887               0.038328636               0.000000000               0.199736109               0.044519448               0.000000000               0.222833332               0.050710260               0.000000000               0.245930554               0.056901071               0.000000000               0.269027776               0.063091883               0.000000000               0.292124999               0.069282695               0.000000000               0.315222221               0.075473506               0.000000000               0.338319444               0.081664318               0.000000000               0.361416666               0.087855130               0.000000000               0.384513888               0.094045942               0.000000000               0.407611111               0.100236753               0.000000000               0.430708333               0.106427565               0.000000000               0.453805555               0.112618377               0.000000000               0.476902778               0.118809188               0.000000000               0.500000000               0.125000000               0.000000000               0.127273065               0.038607862               0.000000000               0.150568498               0.047913621               0.000000000               0.173863932               0.057219379               0.000000000               0.197159365               0.066525138               0.000000000               0.220454798               0.075830897               0.000000000               0.243750232               0.085136655               0.000000000               0.267045665               0.094442414               0.000000000               0.290341099               0.103748172               0.000000000               0.313636532               0.113053931               0.000000000               0.336931966               0.122359690               0.000000000               0.360227399               0.131665448               0.000000000               0.383522833               0.140971207               0.000000000               0.406818266               0.150276966               0.000000000               0.430113700               0.159582724               0.000000000               0.453409133               0.168888483               0.000000000               0.476704567               0.178194241               0.000000000               0.500000000               0.187500000               0.000000000               0.122875978               0.050896897               0.000000000               0.146446229               0.063340840               0.000000000               0.170016481               0.075784784               0.000000000               0.193586732               0.088228728               0.000000000               0.217156983               0.100672672               0.000000000               0.240727235               0.113116616               0.000000000               0.264297486               0.125560560               0.000000000               0.287867738               0.138004504               0.000000000               0.311437989               0.150448448               0.000000000               0.335008240               0.162892392               0.000000000               0.358578492               0.175336336               0.000000000               0.382148743               0.187780280               0.000000000               0.405718994               0.200224224               0.000000000               0.429289246               0.212668168               0.000000000               0.452859497               0.225112112               0.000000000               0.476429749               0.237556056               0.000000000               0.500000000               0.250000000               0.000000000               0.117295528               0.062695766               0.000000000               0.141214558               0.078308531               0.000000000               0.165133587               0.093921295               0.000000000               0.189052617               0.109534060               0.000000000               0.212971646               0.125146824               0.000000000               0.236890676               0.140759589               0.000000000               0.260809705               0.156372354               0.000000000               0.284728735               0.171985118               0.000000000               0.308647764               0.187597883               0.000000000               0.332566794               0.203210648               0.000000000               0.356485823               0.218823412               0.000000000               0.380404853               0.234436177               0.000000000               0.404323882               0.250048941               0.000000000               0.428242912               0.265661706               0.000000000               0.452161941               0.281274471               0.000000000               0.476080971               0.296887235               0.000000000               0.500000000               0.312500000               0.000000000               0.110585458               0.073890841               0.000000000               0.134923867               0.092710163               0.000000000               0.159262276               0.111529486               0.000000000               0.183600685               0.130348808               0.000000000               0.207939094               0.149168131               0.000000000               0.232277503               0.167987453               0.000000000               0.256615912               0.186806776               0.000000000               0.280954320               0.205626098               0.000000000               0.305292729               0.224445420               0.000000000               0.329631138               0.243264743               0.000000000               0.353969547               0.262084065               0.000000000               0.378307956               0.280903388               0.000000000               0.402646365               0.299722710               0.000000000               0.426984773               0.318542033               0.000000000               0.451323182               0.337361355               0.000000000               0.475661591               0.356180678               0.000000000               0.500000000               0.375000000               0.000000000               0.102810390               0.084374307               0.000000000               0.127634741               0.106444663               0.000000000               0.152459092               0.128515018               0.000000000               0.177283442               0.150585374               0.000000000               0.202107793               0.172655730               0.000000000               0.226932143               0.194726086               0.000000000               0.251756494               0.216796442               0.000000000               0.276580845               0.238866798               0.000000000               0.301405195               0.260937153               0.000000000               0.326229546               0.283007509               0.000000000               0.351053896               0.305077865               0.000000000               0.375878247               0.327148221               0.000000000               0.400702598               0.349218577               0.000000000               0.425526948               0.371288933               0.000000000               0.450351299               0.393359288               0.000000000               0.475175649               0.415429644               0.000000000               0.500000000               0.437500000               0.000000000               0.094045202               0.094045202               0.000000000               0.119417377               0.119417377               0.000000000               0.144789552               0.144789552               0.000000000               0.170161727               0.170161727               0.000000000               0.195533901               0.195533901               0.000000000               0.220906076               0.220906076               0.000000000               0.246278251               0.246278251               0.000000000               0.271650426               0.271650426               0.000000000               0.297022601               0.297022601               0.000000000               0.322394776               0.322394776               0.000000000               0.347766951               0.347766951               0.000000000               0.373139126               0.373139126               0.000000000               0.398511300               0.398511300               0.000000000               0.423883475               0.423883475               0.000000000               0.449255650               0.449255650               0.000000000               0.474627825               0.474627825               0.000000000               0.500000000               0.500000000               0.000000000               0.084374307               0.102810390               0.000000000               0.106444663               0.127634741               0.000000000               0.128515018               0.152459092               0.000000000               0.150585374               0.177283442               0.000000000               0.172655730               0.202107793               0.000000000               0.194726086               0.226932143               0.000000000               0.216796442               0.251756494               0.000000000               0.238866798               0.276580845               0.000000000               0.260937153               0.301405195               0.000000000               0.283007509               0.326229546               0.000000000               0.305077865               0.351053896               0.000000000               0.327148221               0.375878247               0.000000000               0.349218577               0.400702598               0.000000000               0.371288933               0.425526948               0.000000000               0.393359288               0.450351299               0.000000000               0.415429644               0.475175649               0.000000000               0.437500000               0.500000000               0.000000000               0.073890841               0.110585458               0.000000000               0.092710163               0.134923867               0.000000000               0.111529486               0.159262276               0.000000000               0.130348808               0.183600685               0.000000000               0.149168131               0.207939094               0.000000000               0.167987453               0.232277503               0.000000000               0.186806776               0.256615912               0.000000000               0.205626098               0.280954320               0.000000000               0.224445420               0.305292729               0.000000000               0.243264743               0.329631138               0.000000000               0.262084065               0.353969547               0.000000000               0.280903388               0.378307956               0.000000000               0.299722710               0.402646365               0.000000000               0.318542033               0.426984773               0.000000000               0.337361355               0.451323182               0.000000000               0.356180678               0.475661591               0.000000000               0.375000000               0.500000000               0.000000000               0.062695766               0.117295528               0.000000000               0.078308531               0.141214558               0.000000000               0.093921295               0.165133587               0.000000000               0.109534060               0.189052617               0.000000000               0.125146824               0.212971646               0.000000000               0.140759589               0.236890676               0.000000000               0.156372354               0.260809705               0.000000000               0.171985118               0.284728735               0.000000000               0.187597883               0.308647764               0.000000000               0.203210648               0.332566794               0.000000000               0.218823412               0.356485823               0.000000000               0.234436177               0.380404853               0.000000000               0.250048941               0.404323882               0.000000000               0.265661706               0.428242912               0.000000000               0.281274471               0.452161941               0.000000000               0.296887235               0.476080971               0.000000000               0.312500000               0.500000000               0.000000000               0.050896897               0.122875978               0.000000000               0.063340840               0.146446229               0.000000000               0.075784784               0.170016481               0.000000000               0.088228728               0.193586732               0.000000000               0.100672672               0.217156983               0.000000000               0.113116616               0.240727235               0.000000000               0.125560560               0.264297486               0.000000000               0.138004504               0.287867738               0.000000000               0.150448448               0.311437989               0.000000000               0.162892392               0.335008240               0.000000000               0.175336336               0.358578492               0.000000000               0.187780280               0.382148743               0.000000000               0.200224224               0.405718994               0.000000000               0.212668168               0.429289246               0.000000000               0.225112112               0.452859497               0.000000000               0.237556056               0.476429749               0.000000000               0.250000000               0.500000000               0.000000000               0.038607862               0.127273065               0.000000000               0.047913621               0.150568498               0.000000000               0.057219379               0.173863932               0.000000000               0.066525138               0.197159365               0.000000000               0.075830897               0.220454798               0.000000000               0.085136655               0.243750232               0.000000000               0.094442414               0.267045665               0.000000000               0.103748172               0.290341099               0.000000000               0.113053931               0.313636532               0.000000000               0.122359690               0.336931966               0.000000000               0.131665448               0.360227399               0.000000000               0.140971207               0.383522833               0.000000000               0.150276966               0.406818266               0.000000000               0.159582724               0.430113700               0.000000000               0.168888483               0.453409133               0.000000000               0.178194241               0.476704567               0.000000000               0.187500000               0.500000000               0.000000000               0.025947013               0.130444442               0.000000000               0.032137825               0.153541665               0.000000000               0.038328636               0.176638887               0.000000000               0.044519448               0.199736109               0.000000000               0.050710260               0.222833332               0.000000000               0.056901071               0.245930554               0.000000000               0.063091883               0.269027776               0.000000000               0.069282695               0.292124999               0.000000000               0.075473506               0.315222221               0.000000000               0.081664318               0.338319444               0.000000000               0.087855130               0.361416666               0.000000000               0.094045942               0.384513888               0.000000000               0.100236753               0.407611111               0.000000000               0.106427565               0.430708333               0.000000000               0.112618377               0.453805555               0.000000000               0.118809188               0.476902778               0.000000000               0.125000000               0.500000000               0.000000000               0.013036280               0.132359569               0.000000000               0.016127762               0.155337096               0.000000000               0.019219245               0.178314623               0.000000000               0.022310727               0.201292150               0.000000000               0.025402210               0.224269676               0.000000000               0.028493692               0.247247203               0.000000000               0.031585175               0.270224730               0.000000000               0.034676657               0.293202257               0.000000000               0.037768140               0.316179784               0.000000000               0.040859622               0.339157311               0.000000000               0.043951105               0.362134838               0.000000000               0.047042587               0.385112365               0.000000000               0.050134070               0.408089892               0.000000000               0.053225552               0.431067419               0.000000000               0.056317035               0.454044946               0.000000000               0.059408517               0.477022473               0.000000000               0.062500000               0.500000000               0.000000000               0.000000000               0.133000000               0.000000000               0.000000000               0.155937500               0.000000000               0.000000000               0.178875000               0.000000000               0.000000000               0.201812500               0.000000000               0.000000000               0.224750000               0.000000000               0.000000000               0.247687500               0.000000000               0.000000000               0.270625000               0.000000000               0.000000000               0.293562500               0.000000000               0.000000000               0.316500000               0.000000000               0.000000000               0.339437500               0.000000000               0.000000000               0.362375000               0.000000000               0.000000000               0.385312500               0.000000000               0.000000000               0.408250000               0.000000000               0.000000000               0.431187500               0.000000000               0.000000000               0.454125000               0.000000000               0.000000000               0.477062500               0.000000000               0.000000000               0.500000000               0.000000000               0.133000000               0.000000000               0.000000000               0.155937500               0.000000000               0.000000000               0.178875000               0.000000000               0.000000000               0.201812500               0.000000000               0.000000000               0.224750000               0.000000000               0.000000000               0.247687500               0.000000000               0.000000000               0.270625000               0.000000000               0.000000000               0.293562500               0.000000000               0.000000000               0.316500000               0.000000000               0.000000000               0.339437500               0.000000000               0.000000000               0.362375000               0.000000000               0.000000000               0.385312500               0.000000000               0.000000000               0.408250000               0.000000000               0.000000000               0.431187500               0.000000000               0.000000000               0.454125000               0.000000000               0.000000000               0.477062500               0.000000000               0.000000000               0.500000000               0.000000000               0.000000000               0.132359569              -0.013036280               0.000000000               0.155337096              -0.016127762               0.000000000               0.178314623              -0.019219245               0.000000000               0.201292150              -0.022310727               0.000000000               0.224269676              -0.025402210               0.000000000               0.247247203              -0.028493692               0.000000000               0.270224730              -0.031585175               0.000000000               0.293202257              -0.034676657               0.000000000               0.316179784              -0.037768140               0.000000000               0.339157311              -0.040859622               0.000000000               0.362134838              -0.043951105               0.000000000               0.385112365              -0.047042587               0.000000000               0.408089892              -0.050134070               0.000000000               0.431067419              -0.053225552               0.000000000               0.454044946              -0.056317035               0.000000000               0.477022473              -0.059408517               0.000000000               0.500000000              -0.062500000               0.000000000               0.130444442              -0.025947013               0.000000000               0.153541665              -0.032137825               0.000000000               0.176638887              -0.038328636               0.000000000               0.199736109              -0.044519448               0.000000000               0.222833332              -0.050710260               0.000000000               0.245930554              -0.056901071               0.000000000               0.269027776              -0.063091883               0.000000000               0.292124999              -0.069282695               0.000000000               0.315222221              -0.075473506               0.000000000               0.338319444              -0.081664318               0.000000000               0.361416666              -0.087855130               0.000000000               0.384513888              -0.094045942               0.000000000               0.407611111              -0.100236753               0.000000000               0.430708333              -0.106427565               0.000000000               0.453805555              -0.112618377               0.000000000               0.476902778              -0.118809188               0.000000000               0.500000000              -0.125000000               0.000000000               0.127273065              -0.038607862               0.000000000               0.150568498              -0.047913621               0.000000000               0.173863932              -0.057219379               0.000000000               0.197159365              -0.066525138               0.000000000               0.220454798              -0.075830897               0.000000000               0.243750232              -0.085136655               0.000000000               0.267045665              -0.094442414               0.000000000               0.290341099              -0.103748172               0.000000000               0.313636532              -0.113053931               0.000000000               0.336931966              -0.122359690               0.000000000               0.360227399              -0.131665448               0.000000000               0.383522833              -0.140971207               0.000000000               0.406818266              -0.150276966               0.000000000               0.430113700              -0.159582724               0.000000000               0.453409133              -0.168888483               0.000000000               0.476704567              -0.178194241               0.000000000               0.500000000              -0.187500000               0.000000000               0.122875978              -0.050896897               0.000000000               0.146446229              -0.063340840               0.000000000               0.170016481              -0.075784784               0.000000000               0.193586732              -0.088228728               0.000000000               0.217156983              -0.100672672               0.000000000               0.240727235              -0.113116616               0.000000000               0.264297486              -0.125560560               0.000000000               0.287867738              -0.138004504               0.000000000               0.311437989              -0.150448448               0.000000000               0.335008240              -0.162892392               0.000000000               0.358578492              -0.175336336               0.000000000               0.382148743              -0.187780280               0.000000000               0.405718994              -0.200224224               0.000000000               0.429289246              -0.212668168               0.000000000               0.452859497              -0.225112112               0.000000000               0.476429749              -0.237556056               0.000000000               0.500000000              -0.250000000               0.000000000               0.117295528              -0.062695766               0.000000000               0.141214558              -0.078308531               0.000000000               0.165133587              -0.093921295               0.000000000               0.189052617              -0.109534060               0.000000000               0.212971646              -0.125146824               0.000000000               0.236890676              -0.140759589               0.000000000               0.260809705              -0.156372354               0.000000000               0.284728735              -0.171985118               0.000000000               0.308647764              -0.187597883               0.000000000               0.332566794              -0.203210648               0.000000000               0.356485823              -0.218823412               0.000000000               0.380404853              -0.234436177               0.000000000               0.404323882              -0.250048941               0.000000000               0.428242912              -0.265661706               0.000000000               0.452161941              -0.281274471               0.000000000               0.476080971              -0.296887235               0.000000000               0.500000000              -0.312500000               0.000000000               0.110585458              -0.073890841               0.000000000               0.134923867              -0.092710163               0.000000000               0.159262276              -0.111529486               0.000000000               0.183600685              -0.130348808               0.000000000               0.207939094              -0.149168131               0.000000000               0.232277503              -0.167987453               0.000000000               0.256615912              -0.186806776               0.000000000               0.280954320              -0.205626098               0.000000000               0.305292729              -0.224445420               0.000000000               0.329631138              -0.243264743               0.000000000               0.353969547              -0.262084065               0.000000000               0.378307956              -0.280903388               0.000000000               0.402646365              -0.299722710               0.000000000               0.426984773              -0.318542033               0.000000000               0.451323182              -0.337361355               0.000000000               0.475661591              -0.356180678               0.000000000               0.500000000              -0.375000000               0.000000000               0.102810390              -0.084374307               0.000000000               0.127634741              -0.106444663               0.000000000               0.152459092              -0.128515018               0.000000000               0.177283442              -0.150585374               0.000000000               0.202107793              -0.172655730               0.000000000               0.226932143              -0.194726086               0.000000000               0.251756494              -0.216796442               0.000000000               0.276580845              -0.238866798               0.000000000               0.301405195              -0.260937153               0.000000000               0.326229546              -0.283007509               0.000000000               0.351053896              -0.305077865               0.000000000               0.375878247              -0.327148221               0.000000000               0.400702598              -0.349218577               0.000000000               0.425526948              -0.371288933               0.000000000               0.450351299              -0.393359288               0.000000000               0.475175649              -0.415429644               0.000000000               0.500000000              -0.437500000               0.000000000               0.094045202              -0.094045202               0.000000000               0.119417377              -0.119417377               0.000000000               0.144789552              -0.144789552               0.000000000               0.170161727              -0.170161727               0.000000000               0.195533901              -0.195533901               0.000000000               0.220906076              -0.220906076               0.000000000               0.246278251              -0.246278251               0.000000000               0.271650426              -0.271650426               0.000000000               0.297022601              -0.297022601               0.000000000               0.322394776              -0.322394776               0.000000000               0.347766951              -0.347766951               0.000000000               0.373139126              -0.373139126               0.000000000               0.398511300              -0.398511300               0.000000000               0.423883475              -0.423883475               0.000000000               0.449255650              -0.449255650               0.000000000               0.474627825              -0.474627825               0.000000000               0.500000000              -0.500000000               0.000000000               0.084374307              -0.102810390               0.000000000               0.106444663              -0.127634741               0.000000000               0.128515018              -0.152459092               0.000000000               0.150585374              -0.177283442               0.000000000               0.172655730              -0.202107793               0.000000000               0.194726086              -0.226932143               0.000000000               0.216796442              -0.251756494               0.000000000               0.238866798              -0.276580845               0.000000000               0.260937153              -0.301405195               0.000000000               0.283007509              -0.326229546               0.000000000               0.305077865              -0.351053896               0.000000000               0.327148221              -0.375878247               0.000000000               0.349218577              -0.400702598               0.000000000               0.371288933              -0.425526948               0.000000000               0.393359288              -0.450351299               0.000000000               0.415429644              -0.475175649               0.000000000               0.437500000              -0.500000000               0.000000000               0.073890841              -0.110585458               0.000000000               0.092710163              -0.134923867               0.000000000               0.111529486              -0.159262276               0.000000000               0.130348808              -0.183600685               0.000000000               0.149168131              -0.207939094               0.000000000               0.167987453              -0.232277503               0.000000000               0.186806776              -0.256615912               0.000000000               0.205626098              -0.280954320               0.000000000               0.224445420              -0.305292729               0.000000000               0.243264743              -0.329631138               0.000000000               0.262084065              -0.353969547               0.000000000               0.280903388              -0.378307956               0.000000000               0.299722710              -0.402646365               0.000000000               0.318542033              -0.426984773               0.000000000               0.337361355              -0.451323182               0.000000000               0.356180678              -0.475661591               0.000000000               0.375000000              -0.500000000               0.000000000               0.062695766              -0.117295528               0.000000000               0.078308531              -0.141214558               0.000000000               0.093921295              -0.165133587               0.000000000               0.109534060              -0.189052617               0.000000000               0.125146824              -0.212971646               0.000000000               0.140759589              -0.236890676               0.000000000               0.156372354              -0.260809705               0.000000000               0.171985118              -0.284728735               0.000000000               0.187597883              -0.308647764               0.000000000               0.203210648              -0.332566794               0.000000000               0.218823412              -0.356485823               0.000000000               0.234436177              -0.380404853               0.000000000               0.250048941              -0.404323882               0.000000000               0.265661706              -0.428242912               0.000000000               0.281274471              -0.452161941               0.000000000               0.296887235              -0.476080971               0.000000000               0.312500000              -0.500000000               0.000000000               0.050896897              -0.122875978               0.000000000               0.063340840              -0.146446229               0.000000000               0.075784784              -0.170016481               0.000000000               0.088228728              -0.193586732               0.000000000               0.100672672              -0.217156983               0.000000000               0.113116616              -0.240727235               0.000000000               0.125560560              -0.264297486               0.000000000               0.138004504              -0.287867738               0.000000000               0.150448448              -0.311437989               0.000000000               0.162892392              -0.335008240               0.000000000               0.175336336              -0.358578492               0.000000000               0.187780280              -0.382148743               0.000000000               0.200224224              -0.405718994               0.000000000               0.212668168              -0.429289246               0.000000000               0.225112112              -0.452859497               0.000000000               0.237556056              -0.476429749               0.000000000               0.250000000              -0.500000000               0.000000000               0.038607862              -0.127273065               0.000000000               0.047913621              -0.150568498               0.000000000               0.057219379              -0.173863932               0.000000000               0.066525138              -0.197159365               0.000000000               0.075830897              -0.220454798               0.000000000               0.085136655              -0.243750232               0.000000000               0.094442414              -0.267045665               0.000000000               0.103748172              -0.290341099               0.000000000               0.113053931              -0.313636532               0.000000000               0.122359690              -0.336931966               0.000000000               0.131665448              -0.360227399               0.000000000               0.140971207              -0.383522833               0.000000000               0.150276966              -0.406818266               0.000000000               0.159582724              -0.430113700               0.000000000               0.168888483              -0.453409133               0.000000000               0.178194241              -0.476704567               0.000000000               0.187500000              -0.500000000               0.000000000               0.025947013              -0.130444442               0.000000000               0.032137825              -0.153541665               0.000000000               0.038328636              -0.176638887               0.000000000               0.044519448              -0.199736109               0.000000000               0.050710260              -0.222833332               0.000000000               0.056901071              -0.245930554               0.000000000               0.063091883              -0.269027776               0.000000000               0.069282695              -0.292124999               0.000000000               0.075473506              -0.315222221               0.000000000               0.081664318              -0.338319444               0.000000000               0.087855130              -0.361416666               0.000000000               0.094045942              -0.384513888               0.000000000               0.100236753              -0.407611111               0.000000000               0.106427565              -0.430708333               0.000000000               0.112618377              -0.453805555               0.000000000               0.118809188              -0.476902778               0.000000000               0.125000000              -0.500000000               0.000000000               0.013036280              -0.132359569               0.000000000               0.016127762              -0.155337096               0.000000000               0.019219245              -0.178314623               0.000000000               0.022310727              -0.201292150               0.000000000               0.025402210              -0.224269676               0.000000000               0.028493692              -0.247247203               0.000000000               0.031585175              -0.270224730               0.000000000               0.034676657              -0.293202257               0.000000000               0.037768140              -0.316179784               0.000000000               0.040859622              -0.339157311               0.000000000               0.043951105              -0.362134838               0.000000000               0.047042587              -0.385112365               0.000000000               0.050134070              -0.408089892               0.000000000               0.053225552              -0.431067419               0.000000000               0.056317035              -0.454044946               0.000000000               0.059408517              -0.477022473               0.000000000               0.062500000              -0.500000000               0.000000000               0.000000000              -0.133000000               0.000000000               0.000000000              -0.155937500               0.000000000               0.000000000              -0.178875000               0.000000000               0.000000000              -0.201812500               0.000000000               0.000000000              -0.224750000               0.000000000               0.000000000              -0.247687500               0.000000000               0.000000000              -0.270625000               0.000000000               0.000000000              -0.293562500               0.000000000               0.000000000              -0.316500000               0.000000000               0.000000000              -0.339437500               0.000000000               0.000000000              -0.362375000               0.000000000               0.000000000              -0.385312500               0.000000000               0.000000000              -0.408250000               0.000000000               0.000000000              -0.431187500               0.000000000               0.000000000              -0.454125000               0.000000000               0.000000000              -0.477062500               0.000000000               0.000000000              -0.500000000               0.000000000              -0.133000000               0.000000000               0.000000000              -0.155937500               0.000000000               0.000000000              -0.178875000               0.000000000               0.000000000              -0.201812500               0.000000000               0.000000000              -0.224750000               0.000000000               0.000000000              -0.247687500               0.000000000               0.000000000              -0.270625000               0.000000000               0.000000000              -0.293562500               0.000000000               0.000000000              -0.316500000               0.000000000               0.000000000              -0.339437500               0.000000000               0.000000000              -0.362375000               0.000000000               0.000000000              -0.385312500               0.000000000               0.000000000              -0.408250000               0.000000000               0.000000000              -0.431187500               0.000000000               0.000000000              -0.454125000               0.000000000               0.000000000              -0.477062500               0.000000000               0.000000000              -0.500000000               0.000000000               0.000000000              -0.132359569              -0.013036280               0.000000000              -0.155337096              -0.016127762               0.000000000              -0.178314623              -0.019219245               0.000000000              -0.201292150              -0.022310727               0.000000000              -0.224269676              -0.025402210               0.000000000              -0.247247203              -0.028493692               0.000000000              -0.270224730              -0.031585175               0.000000000              -0.293202257              -0.034676657               0.000000000              -0.316179784              -0.037768140               0.000000000              -0.339157311              -0.040859622               0.000000000              -0.362134838              -0.043951105               0.000000000              -0.385112365              -0.047042587               0.000000000              -0.408089892              -0.050134070               0.000000000              -0.431067419              -0.053225552               0.000000000              -0.454044946              -0.056317035               0.000000000              -0.477022473              -0.059408517               0.000000000              -0.500000000              -0.062500000               0.000000000              -0.130444442              -0.025947013               0.000000000              -0.153541665              -0.032137825               0.000000000              -0.176638887              -0.038328636               0.000000000              -0.199736109              -0.044519448               0.000000000              -0.222833332              -0.050710260               0.000000000              -0.245930554              -0.056901071               0.000000000              -0.269027776              -0.063091883               0.000000000              -0.292124999              -0.069282695               0.000000000              -0.315222221              -0.075473506               0.000000000              -0.338319444              -0.081664318               0.000000000              -0.361416666              -0.087855130               0.000000000              -0.384513888              -0.094045942               0.000000000              -0.407611111              -0.100236753               0.000000000              -0.430708333              -0.106427565               0.000000000              -0.453805555              -0.112618377               0.000000000              -0.476902778              -0.118809188               0.000000000              -0.500000000              -0.125000000               0.000000000              -0.127273065              -0.038607862               0.000000000              -0.150568498              -0.047913621               0.000000000              -0.173863932              -0.057219379               0.000000000              -0.197159365              -0.066525138               0.000000000              -0.220454798              -0.075830897               0.000000000              -0.243750232              -0.085136655               0.000000000              -0.267045665              -0.094442414               0.000000000              -0.290341099              -0.103748172               0.000000000              -0.313636532              -0.113053931               0.000000000              -0.336931966              -0.122359690               0.000000000              -0.360227399              -0.131665448               0.000000000              -0.383522833              -0.140971207               0.000000000              -0.406818266              -0.150276966               0.000000000              -0.430113700              -0.159582724               0.000000000              -0.453409133              -0.168888483               0.000000000              -0.476704567              -0.178194241               0.000000000              -0.500000000              -0.187500000               0.000000000              -0.122875978              -0.050896897               0.000000000              -0.146446229              -0.063340840               0.000000000              -0.170016481              -0.075784784               0.000000000              -0.193586732              -0.088228728               0.000000000              -0.217156983              -0.100672672               0.000000000              -0.240727235              -0.113116616               0.000000000              -0.264297486              -0.125560560               0.000000000              -0.287867738              -0.138004504               0.000000000              -0.311437989              -0.150448448               0.000000000              -0.335008240              -0.162892392               0.000000000              -0.358578492              -0.175336336               0.000000000              -0.382148743              -0.187780280               0.000000000              -0.405718994              -0.200224224               0.000000000              -0.429289246              -0.212668168               0.000000000              -0.452859497              -0.225112112               0.000000000              -0.476429749              -0.237556056               0.000000000              -0.500000000              -0.250000000               0.000000000              -0.117295528              -0.062695766               0.000000000              -0.141214558              -0.078308531               0.000000000              -0.165133587              -0.093921295               0.000000000              -0.189052617              -0.109534060               0.000000000              -0.212971646              -0.125146824               0.000000000              -0.236890676              -0.140759589               0.000000000              -0.260809705              -0.156372354               0.000000000              -0.284728735              -0.171985118               0.000000000              -0.308647764              -0.187597883               0.000000000              -0.332566794              -0.203210648               0.000000000              -0.356485823              -0.218823412               0.000000000              -0.380404853              -0.234436177               0.000000000              -0.404323882              -0.250048941               0.000000000              -0.428242912              -0.265661706               0.000000000              -0.452161941              -0.281274471               0.000000000              -0.476080971              -0.296887235               0.000000000              -0.500000000              -0.312500000               0.000000000              -0.110585458              -0.073890841               0.000000000              -0.134923867              -0.092710163               0.000000000              -0.159262276              -0.111529486               0.000000000              -0.183600685              -0.130348808               0.000000000              -0.207939094              -0.149168131               0.000000000              -0.232277503              -0.167987453               0.000000000              -0.256615912              -0.186806776               0.000000000              -0.280954320              -0.205626098               0.000000000              -0.305292729              -0.224445420               0.000000000              -0.329631138              -0.243264743               0.000000000              -0.353969547              -0.262084065               0.000000000              -0.378307956              -0.280903388               0.000000000              -0.402646365              -0.299722710               0.000000000              -0.426984773              -0.318542033               0.000000000              -0.451323182              -0.337361355               0.000000000              -0.475661591              -0.356180678               0.000000000              -0.500000000              -0.375000000               0.000000000              -0.102810390              -0.084374307               0.000000000              -0.127634741              -0.106444663               0.000000000              -0.152459092              -0.128515018               0.000000000              -0.177283442              -0.150585374               0.000000000              -0.202107793              -0.172655730               0.000000000              -0.226932143              -0.194726086               0.000000000              -0.251756494              -0.216796442               0.000000000              -0.276580845              -0.238866798               0.000000000              -0.301405195              -0.260937153               0.000000000              -0.326229546              -0.283007509               0.000000000              -0.351053896              -0.305077865               0.000000000              -0.375878247              -0.327148221               0.000000000              -0.400702598              -0.349218577               0.000000000              -0.425526948              -0.371288933               0.000000000              -0.450351299              -0.393359288               0.000000000              -0.475175649              -0.415429644               0.000000000              -0.500000000              -0.437500000               0.000000000              -0.094045202              -0.094045202               0.000000000              -0.119417377              -0.119417377               0.000000000              -0.144789552              -0.144789552               0.000000000              -0.170161727              -0.170161727               0.000000000              -0.195533901              -0.195533901               0.000000000              -0.220906076              -0.220906076               0.000000000              -0.246278251              -0.246278251               0.000000000              -0.271650426              -0.271650426               0.000000000              -0.297022601              -0.297022601               0.000000000              -0.322394776              -0.322394776               0.000000000              -0.347766951              -0.347766951               0.000000000              -0.373139126              -0.373139126               0.000000000              -0.398511300              -0.398511300               0.000000000              -0.423883475              -0.423883475               0.000000000              -0.449255650              -0.449255650               0.000000000              -0.474627825              -0.474627825               0.000000000              -0.500000000              -0.500000000               0.000000000              -0.084374307              -0.102810390               0.000000000              -0.106444663              -0.127634741               0.000000000              -0.128515018              -0.152459092               0.000000000              -0.150585374              -0.177283442               0.000000000              -0.172655730              -0.202107793               0.000000000              -0.194726086              -0.226932143               0.000000000              -0.216796442              -0.251756494               0.000000000              -0.238866798              -0.276580845               0.000000000              -0.260937153              -0.301405195               0.000000000              -0.283007509              -0.326229546               0.000000000              -0.305077865              -0.351053896               0.000000000              -0.327148221              -0.375878247               0.000000000              -0.349218577              -0.400702598               0.000000000              -0.371288933              -0.425526948               0.000000000              -0.393359288              -0.450351299               0.000000000              -0.415429644              -0.475175649               0.000000000              -0.437500000              -0.500000000               0.000000000              -0.073890841              -0.110585458               0.000000000              -0.092710163              -0.134923867               0.000000000              -0.111529486              -0.159262276               0.000000000              -0.130348808              -0.183600685               0.000000000              -0.149168131              -0.207939094               0.000000000              -0.167987453              -0.232277503               0.000000000              -0.186806776              -0.256615912               0.000000000              -0.205626098              -0.280954320               0.000000000              -0.224445420              -0.305292729               0.000000000              -0.243264743              -0.329631138               0.000000000              -0.262084065              -0.353969547               0.000000000              -0.280903388              -0.378307956               0.000000000              -0.299722710              -0.402646365               0.000000000              -0.318542033              -0.426984773               0.000000000              -0.337361355              -0.451323182               0.000000000              -0.356180678              -0.475661591               0.000000000              -0.375000000              -0.500000000               0.000000000              -0.062695766              -0.117295528               0.000000000              -0.078308531              -0.141214558               0.000000000              -0.093921295              -0.165133587               0.000000000              -0.109534060              -0.189052617               0.000000000              -0.125146824              -0.212971646               0.000000000              -0.140759589              -0.236890676               0.000000000              -0.156372354              -0.260809705               0.000000000              -0.171985118              -0.284728735               0.000000000              -0.187597883              -0.308647764               0.000000000              -0.203210648              -0.332566794               0.000000000              -0.218823412              -0.356485823               0.000000000              -0.234436177              -0.380404853               0.000000000              -0.250048941              -0.404323882               0.000000000              -0.265661706              -0.428242912               0.000000000              -0.281274471              -0.452161941               0.000000000              -0.296887235              -0.476080971               0.000000000              -0.312500000              -0.500000000               0.000000000              -0.050896897              -0.122875978               0.000000000              -0.063340840              -0.146446229               0.000000000              -0.075784784              -0.170016481               0.000000000              -0.088228728              -0.193586732               0.000000000              -0.100672672              -0.217156983               0.000000000              -0.113116616              -0.240727235               0.000000000              -0.125560560              -0.264297486               0.000000000              -0.138004504              -0.287867738               0.000000000              -0.150448448              -0.311437989               0.000000000              -0.162892392              -0.335008240               0.000000000              -0.175336336              -0.358578492               0.000000000              -0.187780280              -0.382148743               0.000000000              -0.200224224              -0.405718994               0.000000000              -0.212668168              -0.429289246               0.000000000              -0.225112112              -0.452859497               0.000000000              -0.237556056              -0.476429749               0.000000000              -0.250000000              -0.500000000               0.000000000              -0.038607862              -0.127273065               0.000000000              -0.047913621              -0.150568498               0.000000000              -0.057219379              -0.173863932               0.000000000              -0.066525138              -0.197159365               0.000000000              -0.075830897              -0.220454798               0.000000000              -0.085136655              -0.243750232               0.000000000              -0.094442414              -0.267045665               0.000000000              -0.103748172              -0.290341099               0.000000000              -0.113053931              -0.313636532               0.000000000              -0.122359690              -0.336931966               0.000000000              -0.131665448              -0.360227399               0.000000000              -0.140971207              -0.383522833               0.000000000              -0.150276966              -0.406818266               0.000000000              -0.159582724              -0.430113700               0.000000000              -0.168888483              -0.453409133               0.000000000              -0.178194241              -0.476704567               0.000000000              -0.187500000              -0.500000000               0.000000000              -0.025947013              -0.130444442               0.000000000              -0.032137825              -0.153541665               0.000000000              -0.038328636              -0.176638887               0.000000000              -0.044519448              -0.199736109               0.000000000              -0.050710260              -0.222833332               0.000000000              -0.056901071              -0.245930554               0.000000000              -0.063091883              -0.269027776               0.000000000              -0.069282695              -0.292124999               0.000000000              -0.075473506              -0.315222221               0.000000000              -0.081664318              -0.338319444               0.000000000              -0.087855130              -0.361416666               0.000000000              -0.094045942              -0.384513888               0.000000000              -0.100236753              -0.407611111               0.000000000              -0.106427565              -0.430708333               0.000000000              -0.112618377              -0.453805555               0.000000000              -0.118809188              -0.476902778               0.000000000              -0.125000000              -0.500000000               0.000000000              -0.013036280              -0.132359569               0.000000000              -0.016127762              -0.155337096               0.000000000              -0.019219245              -0.178314623               0.000000000              -0.022310727              -0.201292150               0.000000000              -0.025402210              -0.224269676               0.000000000              -0.028493692              -0.247247203               0.000000000              -0.031585175              -0.270224730               0.000000000              -0.034676657              -0.293202257               0.000000000              -0.037768140              -0.316179784               0.000000000              -0.040859622              -0.339157311               0.000000000              -0.043951105              -0.362134838               0.000000000              -0.047042587              -0.385112365               0.000000000              -0.050134070              -0.408089892               0.000000000              -0.053225552              -0.431067419               0.000000000              -0.056317035              -0.454044946               0.000000000              -0.059408517              -0.477022473               0.000000000              -0.062500000              -0.500000000               0.000000000               0.000000000              -0.133000000               0.000000000               0.000000000              -0.155937500               0.000000000               0.000000000              -0.178875000               0.000000000               0.000000000              -0.201812500               0.000000000               0.000000000              -0.224750000               0.000000000               0.000000000              -0.247687500               0.000000000               0.000000000              -0.270625000               0.000000000               0.000000000              -0.293562500               0.000000000               0.000000000              -0.316500000               0.000000000               0.000000000              -0.339437500               0.000000000               0.000000000              -0.362375000               0.000000000               0.000000000              -0.385312500               0.000000000               0.000000000              -0.408250000               0.000000000               0.000000000              -0.431187500               0.000000000               0.000000000              -0.454125000               0.000000000               0.000000000              -0.477062500               0.000000000               0.000000000              -0.500000000               0.000000000              -0.133000000               0.000000000               0.000000000              -0.155937500               0.000000000               0.000000000              -0.178875000               0.000000000               0.000000000              -0.201812500               0.000000000               0.000000000              -0.224750000               0.000000000               0.000000000              -0.247687500               0.000000000               0.000000000              -0.270625000               0.000000000               0.000000000              -0.293562500               0.000000000               0.000000000              -0.316500000               0.000000000               0.000000000              -0.339437500               0.000000000               0.000000000              -0.362375000               0.000000000               0.000000000              -0.385312500               0.000000000               0.000000000              -0.408250000               0.000000000               0.000000000              -0.431187500               0.000000000               0.000000000              -0.454125000               0.000000000               0.000000000              -0.477062500               0.000000000               0.000000000              -0.500000000               0.000000000               0.000000000              -0.132359569               0.013036280               0.000000000              -0.155337096               0.016127762               0.000000000              -0.178314623               0.019219245               0.000000000              -0.201292150               0.022310727               0.000000000              -0.224269676               0.025402210               0.000000000              -0.247247203               0.028493692               0.000000000              -0.270224730               0.031585175               0.000000000              -0.293202257               0.034676657               0.000000000              -0.316179784               0.037768140               0.000000000              -0.339157311               0.040859622               0.000000000              -0.362134838               0.043951105               0.000000000              -0.385112365               0.047042587               0.000000000              -0.408089892               0.050134070               0.000000000              -0.431067419               0.053225552               0.000000000              -0.454044946               0.056317035               0.000000000              -0.477022473               0.059408517               0.000000000              -0.500000000               0.062500000               0.000000000              -0.130444442               0.025947013               0.000000000              -0.153541665               0.032137825               0.000000000              -0.176638887               0.038328636               0.000000000              -0.199736109               0.044519448               0.000000000              -0.222833332               0.050710260               0.000000000              -0.245930554               0.056901071               0.000000000              -0.269027776               0.063091883               0.000000000              -0.292124999               0.069282695               0.000000000              -0.315222221               0.075473506               0.000000000              -0.338319444               0.081664318               0.000000000              -0.361416666               0.087855130               0.000000000              -0.384513888               0.094045942               0.000000000              -0.407611111               0.100236753               0.000000000              -0.430708333               0.106427565               0.000000000              -0.453805555               0.112618377               0.000000000              -0.476902778               0.118809188               0.000000000              -0.500000000               0.125000000               0.000000000              -0.127273065               0.038607862               0.000000000              -0.150568498               0.047913621               0.000000000              -0.173863932               0.057219379               0.000000000              -0.197159365               0.066525138               0.000000000              -0.220454798               0.075830897               0.000000000              -0.243750232               0.085136655               0.000000000              -0.267045665               0.094442414               0.000000000              -0.290341099               0.103748172               0.000000000              -0.313636532               0.113053931               0.000000000              -0.336931966               0.122359690               0.000000000              -0.360227399               0.131665448               0.000000000              -0.383522833               0.140971207               0.000000000              -0.406818266               0.150276966               0.000000000              -0.430113700               0.159582724               0.000000000              -0.453409133               0.168888483               0.000000000              -0.476704567               0.178194241               0.000000000              -0.500000000               0.187500000               0.000000000              -0.122875978               0.050896897               0.000000000              -0.146446229               0.063340840               0.000000000              -0.170016481               0.075784784               0.000000000              -0.193586732               0.088228728               0.000000000              -0.217156983               0.100672672               0.000000000              -0.240727235               0.113116616               0.000000000              -0.264297486               0.125560560               0.000000000              -0.287867738               0.138004504               0.000000000              -0.311437989               0.150448448               0.000000000              -0.335008240               0.162892392               0.000000000              -0.358578492               0.175336336               0.000000000              -0.382148743               0.187780280               0.000000000              -0.405718994               0.200224224               0.000000000              -0.429289246               0.212668168               0.000000000              -0.452859497               0.225112112               0.000000000              -0.476429749               0.237556056               0.000000000              -0.500000000               0.250000000               0.000000000              -0.117295528               0.062695766               0.000000000              -0.141214558               0.078308531               0.000000000              -0.165133587               0.093921295               0.000000000              -0.189052617               0.109534060               0.000000000              -0.212971646               0.125146824               0.000000000              -0.236890676               0.140759589               0.000000000              -0.260809705               0.156372354               0.000000000              -0.284728735               0.171985118               0.000000000              -0.308647764               0.187597883               0.000000000              -0.332566794               0.203210648               0.000000000              -0.356485823               0.218823412               0.000000000              -0.380404853               0.234436177               0.000000000              -0.404323882               0.250048941               0.000000000              -0.428242912               0.265661706               0.000000000              -0.452161941               0.281274471               0.000000000              -0.476080971               0.296887235               0.000000000              -0.500000000               0.312500000               0.000000000              -0.110585458               0.073890841               0.000000000              -0.134923867               0.092710163               0.000000000              -0.159262276               0.111529486               0.000000000              -0.183600685               0.130348808               0.000000000              -0.207939094               0.149168131               0.000000000              -0.232277503               0.167987453               0.000000000              -0.256615912               0.186806776               0.000000000              -0.280954320               0.205626098               0.000000000              -0.305292729               0.224445420               0.000000000              -0.329631138               0.243264743               0.000000000              -0.353969547               0.262084065               0.000000000              -0.378307956               0.280903388               0.000000000              -0.402646365               0.299722710               0.000000000              -0.426984773               0.318542033               0.000000000              -0.451323182               0.337361355               0.000000000              -0.475661591               0.356180678               0.000000000              -0.500000000               0.375000000               0.000000000              -0.102810390               0.084374307               0.000000000              -0.127634741               0.106444663               0.000000000              -0.152459092               0.128515018               0.000000000              -0.177283442               0.150585374               0.000000000              -0.202107793               0.172655730               0.000000000              -0.226932143               0.194726086               0.000000000              -0.251756494               0.216796442               0.000000000              -0.276580845               0.238866798               0.000000000              -0.301405195               0.260937153               0.000000000              -0.326229546               0.283007509               0.000000000              -0.351053896               0.305077865               0.000000000              -0.375878247               0.327148221               0.000000000              -0.400702598               0.349218577               0.000000000              -0.425526948               0.371288933               0.000000000              -0.450351299               0.393359288               0.000000000              -0.475175649               0.415429644               0.000000000              -0.500000000               0.437500000               0.000000000              -0.094045202               0.094045202               0.000000000              -0.119417377               0.119417377               0.000000000              -0.144789552               0.144789552               0.000000000              -0.170161727               0.170161727               0.000000000              -0.195533901               0.195533901               0.000000000              -0.220906076               0.220906076               0.000000000              -0.246278251               0.246278251               0.000000000              -0.271650426               0.271650426               0.000000000              -0.297022601               0.297022601               0.000000000              -0.322394776               0.322394776               0.000000000              -0.347766951               0.347766951               0.000000000              -0.373139126               0.373139126               0.000000000              -0.398511300               0.398511300               0.000000000              -0.423883475               0.423883475               0.000000000              -0.449255650               0.449255650               0.000000000              -0.474627825               0.474627825               0.000000000              -0.500000000               0.500000000               0.000000000              -0.084374307               0.102810390               0.000000000              -0.106444663               0.127634741               0.000000000              -0.128515018               0.152459092               0.000000000              -0.150585374               0.177283442               0.000000000              -0.172655730               0.202107793               0.000000000              -0.194726086               0.226932143               0.000000000              -0.216796442               0.251756494               0.000000000              -0.238866798               0.276580845               0.000000000              -0.260937153               0.301405195               0.000000000              -0.283007509               0.326229546               0.000000000              -0.305077865               0.351053896               0.000000000              -0.327148221               0.375878247               0.000000000              -0.349218577               0.400702598               0.000000000              -0.371288933               0.425526948               0.000000000              -0.393359288               0.450351299               0.000000000              -0.415429644               0.475175649               0.000000000              -0.437500000               0.500000000               0.000000000              -0.073890841               0.110585458               0.000000000              -0.092710163               0.134923867               0.000000000              -0.111529486               0.159262276               0.000000000              -0.130348808               0.183600685               0.000000000              -0.149168131               0.207939094               0.000000000              -0.167987453               0.232277503               0.000000000              -0.186806776               0.256615912               0.000000000              -0.205626098               0.280954320               0.000000000              -0.224445420               0.305292729               0.000000000              -0.243264743               0.329631138               0.000000000              -0.262084065               0.353969547               0.000000000              -0.280903388               0.378307956               0.000000000              -0.299722710               0.402646365               0.000000000              -0.318542033               0.426984773               0.000000000              -0.337361355               0.451323182               0.000000000              -0.356180678               0.475661591               0.000000000              -0.375000000               0.500000000               0.000000000              -0.062695766               0.117295528               0.000000000              -0.078308531               0.141214558               0.000000000              -0.093921295               0.165133587               0.000000000              -0.109534060               0.189052617               0.000000000              -0.125146824               0.212971646               0.000000000              -0.140759589               0.236890676               0.000000000              -0.156372354               0.260809705               0.000000000              -0.171985118               0.284728735               0.000000000              -0.187597883               0.308647764               0.000000000              -0.203210648               0.332566794               0.000000000              -0.218823412               0.356485823               0.000000000              -0.234436177               0.380404853               0.000000000              -0.250048941               0.404323882               0.000000000              -0.265661706               0.428242912               0.000000000              -0.281274471               0.452161941               0.000000000              -0.296887235               0.476080971               0.000000000              -0.312500000               0.500000000               0.000000000              -0.050896897               0.122875978               0.000000000              -0.063340840               0.146446229               0.000000000              -0.075784784               0.170016481               0.000000000              -0.088228728               0.193586732               0.000000000              -0.100672672               0.217156983               0.000000000              -0.113116616               0.240727235               0.000000000              -0.125560560               0.264297486               0.000000000              -0.138004504               0.287867738               0.000000000              -0.150448448               0.311437989               0.000000000              -0.162892392               0.335008240               0.000000000              -0.175336336               0.358578492               0.000000000              -0.187780280               0.382148743               0.000000000              -0.200224224               0.405718994               0.000000000              -0.212668168               0.429289246               0.000000000              -0.225112112               0.452859497               0.000000000              -0.237556056               0.476429749               0.000000000              -0.250000000               0.500000000               0.000000000              -0.038607862               0.127273065               0.000000000              -0.047913621               0.150568498               0.000000000              -0.057219379               0.173863932               0.000000000              -0.066525138               0.197159365               0.000000000              -0.075830897               0.220454798               0.000000000              -0.085136655               0.243750232               0.000000000              -0.094442414               0.267045665               0.000000000              -0.103748172               0.290341099               0.000000000              -0.113053931               0.313636532               0.000000000              -0.122359690               0.336931966               0.000000000              -0.131665448               0.360227399               0.000000000              -0.140971207               0.383522833               0.000000000              -0.150276966               0.406818266               0.000000000              -0.159582724               0.430113700               0.000000000              -0.168888483               0.453409133               0.000000000              -0.178194241               0.476704567               0.000000000              -0.187500000               0.500000000               0.000000000              -0.025947013               0.130444442               0.000000000              -0.032137825               0.153541665               0.000000000              -0.038328636               0.176638887               0.000000000              -0.044519448               0.199736109               0.000000000              -0.050710260               0.222833332               0.000000000              -0.056901071               0.245930554               0.000000000              -0.063091883               0.269027776               0.000000000              -0.069282695               0.292124999               0.000000000              -0.075473506               0.315222221               0.000000000              -0.081664318               0.338319444               0.000000000              -0.087855130               0.361416666               0.000000000              -0.094045942               0.384513888               0.000000000              -0.100236753               0.407611111               0.000000000              -0.106427565               0.430708333               0.000000000              -0.112618377               0.453805555               0.000000000              -0.118809188               0.476902778               0.000000000              -0.125000000               0.500000000               0.000000000              -0.013036280               0.132359569               0.000000000              -0.016127762               0.155337096               0.000000000              -0.019219245               0.178314623               0.000000000              -0.022310727               0.201292150               0.000000000              -0.025402210               0.224269676               0.000000000              -0.028493692               0.247247203               0.000000000              -0.031585175               0.270224730               0.000000000              -0.034676657               0.293202257               0.000000000              -0.037768140               0.316179784               0.000000000              -0.040859622               0.339157311               0.000000000              -0.043951105               0.362134838               0.000000000              -0.047042587               0.385112365               0.000000000              -0.050134070               0.408089892               0.000000000              -0.053225552               0.431067419               0.000000000              -0.056317035               0.454044946               0.000000000              -0.059408517               0.477022473               0.000000000              -0.062500000               0.500000000               0.000000000               0.000000000               0.133000000               0.000000000               0.000000000               0.155937500               0.000000000               0.000000000               0.178875000               0.000000000               0.000000000               0.201812500               0.000000000               0.000000000               0.224750000               0.000000000               0.000000000               0.247687500               0.000000000               0.000000000               0.270625000               0.000000000               0.000000000               0.293562500               0.000000000               0.000000000               0.316500000               0.000000000               0.000000000               0.339437500               0.000000000               0.000000000               0.362375000               0.000000000               0.000000000               0.385312500               0.000000000               0.000000000               0.408250000               0.000000000               0.000000000               0.431187500               0.000000000               0.000000000               0.454125000               0.000000000               0.000000000               0.477062500               0.000000000               0.000000000               0.500000000               0.000000000 </DataArray>
</Points>
<Cells>
<DataArray type="Int32"                                    Name="connectivity"                                                      NumberOfComponents=" 1" format="ascii">
         0          1         18         17          1          2         19         18          2          3         20         19          3          4         21         20          4          5         22         21          5          6         23         22          6          7         24         23          7          8         25         24          8          9         26         25          9         10         27         26         10         11         28         27         11         12         29         28         12         13         30         29         13         14         31         30         14         15         32         31         15         16         33         32         17         18         35         34         18         19         36         35         19         20         37         36         20         21         38         37         21         22         39         38         22         23         40         39         23         24         41         40         24         25         42         41         25         26         43         42         26         27         44         43         27         28         45         44         28         29         46         45         29         30         47         46         30         31         48         47         31         32         49         48         32         33         50         49         34         35         52         51         35         36         53         52         36         37         54         53         37         38         55         54         38         39         56         55         39         40         57         56         40         41         58         57         41         42         59         58         42         43         60         59         43         44         61         60         44         45         62         61         45         46         63         62         46         47         64         63         47         48         65         64         48         49         66         65         49         50         67         66         51         52         69         68         52         53         70         69         53         54         71         70         54         55         72         71         55         56         73         72         56         57         74         73         57         58         75         74         58         59         76         75         59         60         77         76         60         61         78         77         61         62         79         78         62         63         80         79         63         64         81         80         64         65         82         81         65         66         83         82         66         67         84         83         68         69         86         85         69         70         87         86         70         71         88         87         71         72         89         88         72         73         90         89         73         74         91         90         74         75         92         91         75         76         93         92         76         77         94         93         77         78         95         94         78         79         96         95         79         80         97         96         80         81         98         97         81         82         99         98         82         83        100         99         83         84        101        100         85         86        103        102         86         87        104        103         87         88        105        104         88         89        106        105         89         90        107        106         90         91        108        107         91         92        109        108         92         93        110        109         93         94        111        110         94         95        112        111         95         96        113        112         96         97        114        113         97         98        115        114         98         99        116        115         99        100        117        116        100        101        118        117        102        103        120        119        103        104        121        120        104        105        122        121        105        106        123        122        106        107        124        123        107        108        125        124        108        109        126        125        109        110        127        126        110        111        128        127        111        112        129        128        112        113        130        129        113        114        131        130        114        115        132        131        115        116        133        132        116        117        134        133        117        118        135        134        119        120        137        136        120        121        138        137        121        122        139        138        122        123        140        139        123        124        141        140        124        125        142        141        125        126        143        142        126        127        144        143        127        128        145        144        128        129        146        145        129        130        147        146        130        131        148        147        131        132        149        148        132        133        150        149        133        134        151        150        134        135        152        151        136        137        154        153        137        138        155        154        138        139        156        155        139        140        157        156        140        141        158        157        141        142        159        158        142        143        160        159        143        144        161        160        144        145        162        161        145        146        163        162        146        147        164        163        147        148        165        164        148        149        166        165        149        150        167        166        150        151        168        167        151        152        169        168        153        154        171        170        154        155        172        171        155        156        173        172        156        157        174        173        157        158        175        174        158        159        176        175        159        160        177        176        160        161        178        177        161        162        179        178        162        163        180        179        163        164        181        180        164        165        182        181        165        166        183        182        166        167        184        183        167        168        185        184        168        169        186        185        170        171        188        187        171        172        189        188        172        173        190        189        173        174        191        190        174        175        192        191        175        176        193        192        176        177        194        193        177        178        195        194        178        179        196        195        179        180        197        196        180        181        198        197        181        182        199        198        182        183        200        199        183        184        201        200        184        185        202        201        185        186        203        202        187        188        205        204        188        189        206        205        189        190        207        206        190        191        208        207        191        192        209        208        192        193        210        209        193        194        211        210        194        195        212        211        195        196        213        212        196        197        214        213        197        198        215        214        198        199        216        215        199        200        217        216        200        201        218        217        201        202        219        218        202        203        220        219        204        205        222        221        205        206        223        222        206        207        224        223        207        208        225        224        208        209        226        225        209        210        227        226        210        211        228        227        211        212        229        228        212        213        230        229        213        214        231        230        214        215        232        231        215        216        233        232        216        217        234        233        217        218        235        234        218        219        236        235        219        220        237        236        221        222        239        238        222        223        240        239        223        224        241        240        224        225        242        241        225        226        243        242        226        227        244        243        227        228        245        244        228        229        246        245        229        230        247        246        230        231        248        247        231        232        249        248        232        233        250        249        233        234        251        250        234        235        252        251        235        236        253        252        236        237        254        253        238        239        256        255        239        240        257        256        240        241        258        257        241        242        259        258        242        243        260        259        243        244        261        260        244        245        262        261        245        246        263        262        246        247        264        263        247        248        265        264        248        249        266        265        249        250        267        266        250        251        268        267        251        252        269        268        252        253        270        269        253        254        271        270        255        256        273        272        256        257        274        273        257        258        275        274        258        259        276        275        259        260        277        276        260        261        278        277        261        262        279        278        262        263        280        279        263        264        281        280        264        265        282        281        265        266        283        282        266        267        284        283        267        268        285        284        268        269        286        285        269        270        287        286        270        271        288        287        306        307          1          0        307        308          2          1        308        309          3          2        309        310          4          3        310        311          5          4        311        312          6          5        312        313          7          6        313        314          8          7        314        315          9          8        315        316         10          9        316        317         11         10        317        318         12         11        318        319         13         12        319        320         14         13        320        321         15         14        321        322         16         15        323        324        307        306        324        325        308        307        325        326        309        308        326        327        310        309        327        328        311        310        328        329        312        311        329        330        313        312        330        331        314        313        331        332        315        314        332        333        316        315        333        334        317        316        334        335        318        317        335        336        319        318        336        337        320        319        337        338        321        320        338        339        322        321        340        341        324        323        341        342        325        324        342        343        326        325        343        344        327        326        344        345        328        327        345        346        329        328        346        347        330        329        347        348        331        330        348        349        332        331        349        350        333        332        350        351        334        333        351        352        335        334        352        353        336        335        353        354        337        336        354        355        338        337        355        356        339        338        357        358        341        340        358        359        342        341        359        360        343        342        360        361        344        343        361        362        345        344        362        363        346        345        363        364        347        346        364        365        348        347        365        366        349        348        366        367        350        349        367        368        351        350        368        369        352        351        369        370        353        352        370        371        354        353        371        372        355        354        372        373        356        355        374        375        358        357        375        376        359        358        376        377        360        359        377        378        361        360        378        379        362        361        379        380        363        362        380        381        364        363        381        382        365        364        382        383        366        365        383        384        367        366        384        385        368        367        385        386        369        368        386        387        370        369        387        388        371        370        388        389        372        371        389        390        373        372        391        392        375        374        392        393        376        375        393        394        377        376        394        395        378        377        395        396        379        378        396        397        380        379        397        398        381        380        398        399        382        381        399        400        383        382        400        401        384        383        401        402        385        384        402        403        386        385        403        404        387        386        404        405        388        387        405        406        389        388        406        407        390        389        408        409        392        391        409        410        393        392        410        411        394        393        411        412        395        394        412        413        396        395        413        414        397        396        414        415        398        397        415        416        399        398        416        417        400        399        417        418        401        400        418        419        402        401        419        420        403        402        420        421        404        403        421        422        405        404        422        423        406        405        423        424        407        406        425        426        409        408        426        427        410        409        427        428        411        410        428        429        412        411        429        430        413        412        430        431        414        413        431        432        415        414        432        433        416        415        433        434        417        416        434        435        418        417        435        436        419        418        436        437        420        419        437        438        421        420        438        439        422        421        439        440        423        422        440        441        424        423        442        443        426        425        443        444        427        426        444        445        428        427        445        446        429        428        446        447        430        429        447        448        431        430        448        449        432        431        449        450        433        432        450        451        434        433        451        452        435        434        452        453        436        435        453        454        437        436        454        455        438        437        455        456        439        438        456        457        440        439        457        458        441        440        459        460        443        442        460        461        444        443        461        462        445        444        462        463        446        445        463        464        447        446        464        465        448        447        465        466        449        448        466        467        450        449        467        468        451        450        468        469        452        451        469        470        453        452        470        471        454        453        471        472        455        454        472        473        456        455        473        474        457        456        474        475        458        457        476        477        460        459        477        478        461        460        478        479        462        461        479        480        463        462        480        481        464        463        481        482        465        464        482        483        466        465        483        484        467        466        484        485        468        467        485        486        469        468        486        487        470        469        487        488        471        470        488        489        472        471        489        490        473        472        490        491        474        473        491        492        475        474        493        494        477        476        494        495        478        477        495        496        479        478        496        497        480        479        497        498        481        480        498        499        482        481        499        500        483        482        500        501        484        483        501        502        485        484        502        503        486        485        503        504        487        486        504        505        488        487        505        506        489        488        506        507        490        489        507        508        491        490        508        509        492        491        510        511        494        493        511        512        495        494        512        513        496        495        513        514        497        496        514        515        498        497        515        516        499        498        516        517        500        499        517        518        501        500        518        519        502        501        519        520        503        502        520        521        504        503        521        522        505        504        522        523        506        505        523        524        507        506        524        525        508        507        525        526        509        508        527        528        511        510        528        529        512        511        529        530        513        512        530        531        514        513        531        532        515        514        532        533        516        515        533        534        517        516        534        535        518        517        535        536        519        518        536        537        520        519        537        538        521        520        538        539        522        521        539        540        523        522        540        541        524        523        541        542        525        524        542        543        526        525        544        545        528        527        545        546        529        528        546        547        530        529        547        548        531        530        548        549        532        531        549        550        533        532        550        551        534        533        551        552        535        534        552        553        536        535        553        554        537        536        554        555        538        537        555        556        539        538        556        557        540        539        557        558        541        540        558        559        542        541        559        560        543        542        561        562        545        544        562        563        546        545        563        564        547        546        564        565        548        547        565        566        549        548        566        567        550        549        567        568        551        550        568        569        552        551        569        570        553        552        570        571        554        553        571        572        555        554        572        573        556        555        573        574        557        556        574        575        558        557        575        576        559        558        576        577        560        559        578        579        596        595        579        580        597        596        580        581        598        597        581        582        599        598        582        583        600        599        583        584        601        600        584        585        602        601        585        586        603        602        586        587        604        603        587        588        605        604        588        589        606        605        589        590        607        606        590        591        608        607        591        592        609        608        592        593        610        609        593        594        611        610        595        596        613        612        596        597        614        613        597        598        615        614        598        599        616        615        599        600        617        616        600        601        618        617        601        602        619        618        602        603        620        619        603        604        621        620        604        605        622        621        605        606        623        622        606        607        624        623        607        608        625        624        608        609        626        625        609        610        627        626        610        611        628        627        612        613        630        629        613        614        631        630        614        615        632        631        615        616        633        632        616        617        634        633        617        618        635        634        618        619        636        635        619        620        637        636        620        621        638        637        621        622        639        638        622        623        640        639        623        624        641        640        624        625        642        641        625        626        643        642        626        627        644        643        627        628        645        644        629        630        647        646        630        631        648        647        631        632        649        648        632        633        650        649        633        634        651        650        634        635        652        651        635        636        653        652        636        637        654        653        637        638        655        654        638        639        656        655        639        640        657        656        640        641        658        657        641        642        659        658        642        643        660        659        643        644        661        660        644        645        662        661        646        647        664        663        647        648        665        664        648        649        666        665        649        650        667        666        650        651        668        667        651        652        669        668        652        653        670        669        653        654        671        670        654        655        672        671        655        656        673        672        656        657        674        673        657        658        675        674        658        659        676        675        659        660        677        676        660        661        678        677        661        662        679        678        663        664        681        680        664        665        682        681        665        666        683        682        666        667        684        683        667        668        685        684        668        669        686        685        669        670        687        686        670        671        688        687        671        672        689        688        672        673        690        689        673        674        691        690        674        675        692        691        675        676        693        692        676        677        694        693        677        678        695        694        678        679        696        695        680        681        698        697        681        682        699        698        682        683        700        699        683        684        701        700        684        685        702        701        685        686        703        702        686        687        704        703        687        688        705        704        688        689        706        705        689        690        707        706        690        691        708        707        691        692        709        708        692        693        710        709        693        694        711        710        694        695        712        711        695        696        713        712        697        698        715        714        698        699        716        715        699        700        717        716        700        701        718        717        701        702        719        718        702        703        720        719        703        704        721        720        704        705        722        721        705        706        723        722        706        707        724        723        707        708        725        724        708        709        726        725        709        710        727        726        710        711        728        727        711        712        729        728        712        713        730        729        714        715        732        731        715        716        733        732        716        717        734        733        717        718        735        734        718        719        736        735        719        720        737        736        720        721        738        737        721        722        739        738        722        723        740        739        723        724        741        740        724        725        742        741        725        726        743        742        726        727        744        743        727        728        745        744        728        729        746        745        729        730        747        746        731        732        749        748        732        733        750        749        733        734        751        750        734        735        752        751        735        736        753        752        736        737        754        753        737        738        755        754        738        739        756        755        739        740        757        756        740        741        758        757        741        742        759        758        742        743        760        759        743        744        761        760        744        745        762        761        745        746        763        762        746        747        764        763        748        749        766        765        749        750        767        766        750        751        768        767        751        752        769        768        752        753        770        769        753        754        771        770        754        755        772        771        755        756        773        772        756        757        774        773        757        758        775        774        758        759        776        775        759        760        777        776        760        761        778        777        761        762        779        778        762        763        780        779        763        764        781        780        765        766        783        782        766        767        784        783        767        768        785        784        768        769        786        785        769        770        787        786        770        771        788        787        771        772        789        788        772        773        790        789        773        774        791        790        774        775        792        791        775        776        793        792        776        777        794        793        777        778        795        794        778        779        796        795        779        780        797        796        780        781        798        797        782        783        800        799        783        784        801        800        784        785        802        801        785        786        803        802        786        787        804        803        787        788        805        804        788        789        806        805        789        790        807        806        790        791        808        807        791        792        809        808        792        793        810        809        793        794        811        810        794        795        812        811        795        796        813        812        796        797        814        813        797        798        815        814        799        800        817        816        800        801        818        817        801        802        819        818        802        803        820        819        803        804        821        820        804        805        822        821        805        806        823        822        806        807        824        823        807        808        825        824        808        809        826        825        809        810        827        826        810        811        828        827        811        812        829        828        812        813        830        829        813        814        831        830        814        815        832        831        816        817        834        833        817        818        835        834        818        819        836        835        819        820        837        836        820        821        838        837        821        822        839        838        822        823        840        839        823        824        841        840        824        825        842        841        825        826        843        842        826        827        844        843        827        828        845        844        828        829        846        845        829        830        847        846        830        831        848        847        831        832        849        848        833        834        562        561        834        835        563        562        835        836        564        563        836        837        565        564        837        838        566        565        838        839        567        566        839        840        568        567        840        841        569        568        841        842        570        569        842        843        571        570        843        844        572        571        844        845        573        572        845        846        574        573        846        847        575        574        847        848        576        575        848        849        577        576        884        885        579        578        885        886        580        579        886        887        581        580        887        888        582        581        888        889        583        582        889        890        584        583        890        891        585        584        891        892        586        585        892        893        587        586        893        894        588        587        894        895        589        588        895        896        590        589        896        897        591        590        897        898        592        591        898        899        593        592        899        900        594        593        901        902        885        884        902        903        886        885        903        904        887        886        904        905        888        887        905        906        889        888        906        907        890        889        907        908        891        890        908        909        892        891        909        910        893        892        910        911        894        893        911        912        895        894        912        913        896        895        913        914        897        896        914        915        898        897        915        916        899        898        916        917        900        899        918        919        902        901        919        920        903        902        920        921        904        903        921        922        905        904        922        923        906        905        923        924        907        906        924        925        908        907        925        926        909        908        926        927        910        909        927        928        911        910        928        929        912        911        929        930        913        912        930        931        914        913        931        932        915        914        932        933        916        915        933        934        917        916        935        936        919        918        936        937        920        919        937        938        921        920        938        939        922        921        939        940        923        922        940        941        924        923        941        942        925        924        942        943        926        925        943        944        927        926        944        945        928        927        945        946        929        928        946        947        930        929        947        948        931        930        948        949        932        931        949        950        933        932        950        951        934        933        952        953        936        935        953        954        937        936        954        955        938        937        955        956        939        938        956        957        940        939        957        958        941        940        958        959        942        941        959        960        943        942        960        961        944        943        961        962        945        944        962        963        946        945        963        964        947        946        964        965        948        947        965        966        949        948        966        967        950        949        967        968        951        950        969        970        953        952        970        971        954        953        971        972        955        954        972        973        956        955        973        974        957        956        974        975        958        957        975        976        959        958        976        977        960        959        977        978        961        960        978        979        962        961        979        980        963        962        980        981        964        963        981        982        965        964        982        983        966        965        983        984        967        966        984        985        968        967        986        987        970        969        987        988        971        970        988        989        972        971        989        990        973        972        990        991        974        973        991        992        975        974        992        993        976        975        993        994        977        976        994        995        978        977        995        996        979        978        996        997        980        979        997        998        981        980        998        999        982        981        999       1000        983        982       1000       1001        984        983       1001       1002        985        984       1003       1004        987        986       1004       1005        988        987       1005       1006        989        988       1006       1007        990        989       1007       1008        991        990       1008       1009        992        991       1009       1010        993        992       1010       1011        994        993       1011       1012        995        994       1012       1013        996        995       1013       1014        997        996       1014       1015        998        997       1015       1016        999        998       1016       1017       1000        999       1017       1018       1001       1000       1018       1019       1002       1001       1020       1021       1004       1003       1021       1022       1005       1004       1022       1023       1006       1005       1023       1024       1007       1006       1024       1025       1008       1007       1025       1026       1009       1008       1026       1027       1010       1009       1027       1028       1011       1010       1028       1029       1012       1011       1029       1030       1013       1012       1030       1031       1014       1013       1031       1032       1015       1014       1032       1033       1016       1015       1033       1034       1017       1016       1034       1035       1018       1017       1035       1036       1019       1018       1037       1038       1021       1020       1038       1039       1022       1021       1039       1040       1023       1022       1040       1041       1024       1023       1041       1042       1025       1024       1042       1043       1026       1025       1043       1044       1027       1026       1044       1045       1028       1027       1045       1046       1029       1028       1046       1047       1030       1029       1047       1048       1031       1030       1048       1049       1032       1031       1049       1050       1033       1032       1050       1051       1034       1033       1051       1052       1035       1034       1052       1053       1036       1035       1054       1055       1038       1037       1055       1056       1039       1038       1056       1057       1040       1039       1057       1058       1041       1040       1058       1059       1042       1041       1059       1060       1043       1042       1060       1061       1044       1043       1061       1062       1045       1044       1062       1063       1046       1045       1063       1064       1047       1046       1064       1065       1048       1047       1065       1066       1049       1048       1066       1067       1050       1049       1067       1068       1051       1050       1068       1069       1052       1051       1069       1070       1053       1052       1071       1072       1055       1054       1072       1073       1056       1055       1073       1074       1057       1056       1074       1075       1058       1057       1075       1076       1059       1058       1076       1077       1060       1059       1077       1078       1061       1060       1078       1079       1062       1061       1079       1080       1063       1062       1080       1081       1064       1063       1081       1082       1065       1064       1082       1083       1066       1065       1083       1084       1067       1066       1084       1085       1068       1067       1085       1086       1069       1068       1086       1087       1070       1069       1088       1089       1072       1071       1089       1090       1073       1072       1090       1091       1074       1073       1091       1092       1075       1074       1092       1093       1076       1075       1093       1094       1077       1076       1094       1095       1078       1077       1095       1096       1079       1078       1096       1097       1080       1079       1097       1098       1081       1080       1098       1099       1082       1081       1099       1100       1083       1082       1100       1101       1084       1083       1101       1102       1085       1084       1102       1103       1086       1085       1103       1104       1087       1086       1105       1106       1089       1088       1106       1107       1090       1089       1107       1108       1091       1090       1108       1109       1092       1091       1109       1110       1093       1092       1110       1111       1094       1093       1111       1112       1095       1094       1112       1113       1096       1095       1113       1114       1097       1096       1114       1115       1098       1097       1115       1116       1099       1098       1116       1117       1100       1099       1117       1118       1101       1100       1118       1119       1102       1101       1119       1120       1103       1102       1120       1121       1104       1103       1122       1123       1106       1105       1123       1124       1107       1106       1124       1125       1108       1107       1125       1126       1109       1108       1126       1127       1110       1109       1127       1128       1111       1110       1128       1129       1112       1111       1129       1130       1113       1112       1130       1131       1114       1113       1131       1132       1115       1114       1132       1133       1116       1115       1133       1134       1117       1116       1134       1135       1118       1117       1135       1136       1119       1118       1136       1137       1120       1119       1137       1138       1121       1120        272        273       1123       1122        273        274       1124       1123        274        275       1125       1124        275        276       1126       1125        276        277       1127       1126        277        278       1128       1127        278        279       1129       1128        279        280       1130       1129        280        281       1131       1130        281        282       1132       1131        282        283       1133       1132        283        284       1134       1133        284        285       1135       1134        285        286       1136       1135        286        287       1137       1136        287        288       1138       1137 </DataArray>
<DataArray type="Int32"                                    Name="offsets"                                                      NumberOfComponents=" 1" format="ascii">
         4          8         12         16         20         24         28         32         36         40         44         48         52         56         60         64         68         72         76         80         84         88         92         96        100        104        108        112        116        120        124        128        132        136        140        144        148        152        156        160        164        168        172        176        180        184        188        192        196        200        204        208        212        216        220        224        228        232        236        240        244        248        252        256        260        264        268        272        276        280        284        288        292        296        300        304        308        312        316        320        324        328        332        336        340        344        348        352        356        360        364        368        372        376        380        384        388        392        396        400        404        408        412        416        420        424        428        432        436        440        444        448        452        456        460        464        468        472        476        480        484        488        492        496        500        504        508        512        516        520        524        528        532        536        540        544        548        552        556        560        564        568        572        576        580        584        588        592        596        600        604        608        612        616        620        624        628        632        636        640        644        648        652        656        660        664        668        672        676        680        684        688        692        696        700        704        708        712        716        720        724        728        732        736        740        744        748        752        756        760        764        768        772        776        780        784        788        792        796        800        804        808        812        816        820        824        828        832        836        840        844        848        852        856        860        864        868        872        876        880        884        888        892        896        900        904        908        912        916        920        924        928        932        936        940        944        948        952        956        960        964        968        972        976        980        984        988        992        996       1000       1004       1008       1012       1016       1020       1024       1028       1032       1036       1040       1044       1048       1052       1056       1060       1064       1068       1072       1076       1080       1084       1088       1092       1096       1100       1104       1108       1112       1116       1120       1124       1128       1132       1136       1140       1144       1148       1152       1156       1160       1164       1168       1172       1176       1180       1184       1188       1192       1196       1200       1204       1208       1212       1216       1220       1224       1228       1232       1236       1240       1244       1248       1252       1256       1260       1264       1268       1272       1276       1280       1284       1288       1292       1296       1300       1304       1308       1312       1316       1320       1324       1328       1332       1336       1340       1344       1348       1352       1356       1360       1364       1368       1372       1376       1380       1384       1388       1392       1396       1400       1404       1408       1412       1416       1420       1424       1428       1432       1436       1440       1444       1448       1452       1456       1460       1464       1468       1472       1476       1480       1484       1488       1492       1496       1500       1504       1508       1512       1516       1520       1524       1528       1532       1536       1540       1544       1548       1552       1556       1560       1564       1568       1572       1576       1580       1584       1588       1592       1596       1600       1604       1608       1612       1616       1620       1624       1628       1632       1636       1640       1644       1648       1652       1656       1660       1664       1668       1672       1676       1680       1684       1688       1692       1696       1700       1704       1708       1712       1716       1720       1724       1728       1732       1736       1740       1744       1748       1752       1756       1760       1764       1768       1772       1776       1780       1784       1788       1792       1796       1800       1804       1808       1812       1816       1820       1824       1828       1832       1836       1840       1844       1848       1852       1856       1860       1864       1868       1872       1876       1880       1884       1888       1892       1896       1900       1904       1908       1912       1916       1920       1924       1928       1932       1936       1940       1944       1948       1952       1956       1960       1964       1968       1972       1976       1980       1984       1988       1992       1996       2000       2004       2008       2012       2016       2020       2024       2028       2032       2036       2040       2044       2048       2052       2056       2060       2064       2068       2072       2076       2080       2084       2088       2092       2096       2100       2104       2108       2112       2116       2120       2124       2128       2132       2136       2140       2144       2148       2152       2156       2160       2164       2168       2172       2176       2180       2184       2188       2192       2196       2200       2204       2208       2212       2216       2220       2224       2228       2232       2236       2240       2244       2248       2252       2256       2260       2264       2268       2272       2276       2280       2284       2288       2292       2296       2300       2304       2308       2312       2316       2320       2324       2328       2332       2336       2340       2344       2348       2352       2356       2360       2364       2368       2372       2376       2380       2384       2388       2392       2396       2400       2404       2408       2412       2416       2420       2424       2428       2432       2436       2440       2444       2448       2452       2456       2460       2464       2468       2472       2476       2480       2484       2488       2492       2496       2500       2504       2508       2512       2516       2520       2524       2528       2532       2536       2540       2544       2548       2552       2556       2560       2564       2568       2572       2576       2580       2584       2588       2592       2596       2600       2604       2608       2612       2616       2620       2624       2628       2632       2636       2640       2644       2648       2652       2656       2660       2664       2668       2672       2676       2680       2684       2688       2692       2696       2700       2704       2708       2712       2716       2720       2724       2728       2732       2736       2740       2744       2748       2752       2756       2760       2764       2768       2772       2776       2780       2784       2788       2792       2796       2800       2804       2808       2812       2816       2820       2824       2828       2832       2836       2840       2844       2848       2852       2856       2860       2864       2868       2872       2876       2880       2884       2888       2892       2896       2900       2904       2908       2912       2916       2920       2924       2928       2932       2936       2940       2944       2948       2952       2956       2960       2964       2968       2972       2976       2980       2984       2988       2992       2996       3000       3004       3008       3012       3016       3020       3024       3028       3032       3036       3040       3044       3048       3052       3056       3060       3064       3068       3072       3076       3080       3084       3088       3092       3096       3100       3104       3108       3112       3116       3120       3124       3128       3132       3136       3140       3144       3148       3152       3156       3160       3164       3168       3172       3176       3180       3184       3188       3192       3196       3200       3204       3208       3212       3216       3220       3224       3228       3232       3236       3240       3244       3248       3252       3256       3260       3264       3268       3272       3276       3280       3284       3288       3292       3296       3300       3304       3308       3312       3316       3320       3324       3328       3332       3336       3340       3344       3348       3352       3356       3360       3364       3368       3372       3376       3380       3384       3388       3392       3396       3400       3404       3408       3412       3416       3420       3424       3428       3432       3436       3440       3444       3448       3452       3456       3460       3464       3468       3472       3476       3480       3484       3488       3492       3496       3500       3504       3508       3512       3516       3520       3524       3528       3532       3536       3540       3544       3548       3552       3556       3560       3564       3568       3572       3576       3580       3584       3588       3592       3596       3600       3604       3608       3612       3616       3620       3624       3628       3632       3636       3640       3644       3648       3652       3656       3660       3664       3668       3672       3676       3680       3684       3688       3692       3696       3700       3704       3708       3712       3716       3720       3724       3728       3732       3736       3740       3744       3748       3752       3756       3760       3764       3768       3772       3776       3780       3784       3788       3792       3796       3800       3804       3808       3812       3816       3820       3824       3828       3832       3836       3840       3844       3848       3852       3856       3860       3864       3868       3872       3876       3880       3884       3888       3892       3896       3900       3904       3908       3912       3916       3920       3924       3928       3932       3936       3940       3944       3948       3952       3956       3960       3964       3968       3972       3976       3980       3984       3988       3992       3996       4000       4004       4008       4012       4016       4020       4024       4028       4032       4036       4040       4044       4048       4052       4056       4060       4064       4068       4072       4076       4080       4084       4088       4092       4096 </DataArray>
<DataArray type="UInt8"                                    Name="types"                                                      NumberOfComponents=" 1" format="ascii">
         9          9          9          9          9          9          9          9          9          9          9          9          9          9          9          9          9          9          9          9          9          9          9          9          9          9          9          9          9          9          9          9          9          9          9          9          9          9          9          9          9          9          9          9          9          9          9          9          9          9          9          9          9          9          9          9          9          9          9          9          9          9          9          9          9          9          9          9          9          9          9          9          9          9          9          9          9          9          9          9          9          9          9          9          9          9          9          9          9          9          9          9          9          9          9          9          9          9          9          9          9          9          9          9          9          9          9          9          9          9          9          9          9          9          9          9          9          9          9          9          9          9          9          9          9          9          9          9          9          9          9          9          9          9          9          9          9          9          9          9          9          9          9          9          9          9          9          9          9          9          9          9          9          9          9          9          9          9          9          9          9          9          9          9          9          9          9          9          9          9          9          9          9          9          9          9          9          9          9          9          9          9          9          9          9          9          9          9          9          9          9          9          9          9          9          9          9          9          9          9          9          9          9          9          9          9          9          9          9          9          9          9          9          9          9          9          9          9          9          9          9          9          9          9          9          9          9          9          9          9          9          9          9          9          9          9          9          9          9          9          9          9          9          9          9          9          9          9          9          9          9          9          9          9          9          9          9          9          9          9          9          9          9          9          9          9          9          9          9          9          9          9          9          9          9          9          9          9          9          9          9          9          9          9          9          9          9          9          9          9          9          9          9          9          9          9          9          9          9          9          9          9          9          9          9          9          9          9          9          9          9          9          9          9          9          9          9          9          9          9          9          9          9          9          9          9          9          9          9          9          9          9          9          9          9          9          9          9          9          9          9          9          9          9          9          9          9          9          9          9          9          9          9          9          9          9          9          9          9          9          9          9          9          9          9          9          9          9          9          9          9          9          9          9          9          9          9          9          9          9          9          9          9          9          9          9          9          9          9          9          9          9          9          9          9          9          9          9          9          9          9          9          9          9          9          9          9          9          9          9          9          9          9          9          9          9          9          9          9          9          9          9          9          9          9          9          9          9          9          9          9          9          9          9          9          9          9          9          9          9          9          9          9          9          9          9          9          9          9          9          9          9          9          9          9          9          9          9          9          9          9          9          9          9          9          9          9          9          9          9          9          9          9          9          9          9          9          9          9          9          9          9          9          9          9          9          9          9          9          9          9          9          9          9          9          9          9          9          9          9          9          9          9          9          9          9          9          9          9          9          9          9          9          9          9          9          9          9          9          9          9          9          9          9          9          9          9          9          9          9          9          9          9          9          9          9          9          9          9          9          9          9          9          9          9          9          9          9          9          9          9          9          9          9          9          9          9          9          9          9          9          9          9          9          9          9          9          9          9          9          9          9          9          9          9          9          9          9          9          9          9          9          9          9          9          9          9          9          9          9          9          9          9          9          9          9          9          9          9          9          9          9          9          9          9          9          9          9          9          9          9          9          9          9          9          9          9          9          9          9          9          9          9          9          9          9          9          9          9          9          9          9          9          9          9          9          9          9          9          9          9          9          9          9          9          9          9          9          9          9          9          9          9          9          9          9          9          9          9          9          9          9          9          9          9          9          9          9          9          9          9          9          9          9          9          9          9          9          9          9          9          9          9          9          9          9          9          9          9          9          9          9          9          9          9          9          9          9          9          9          9          9          9          9          9          9          9          9          9          9          9          9          9          9          9          9          9          9          9          9          9          9          9          9          9          9          9          9          9          9          9          9          9          9          9          9          9          9          9          9          9          9          9          9          9          9          9          9          9          9          9          9          9          9          9          9          9          9          9          9          9          9          9          9          9          9          9          9          9          9          9          9          9          9          9          9          9          9          9          9          9          9          9          9          9          9          9          9          9          9          9          9          9          9          9          9          9          9          9          9          9          9          9          9          9          9          9          9          9          9          9          9          9          9          9          9          9          9          9          9          9          9          9          9          9          9          9          9          9          9          9          9          9          9          9          9          9          9          9          9          9          9          9          9          9          9          9          9          9          9          9          9          9          9          9          9          9          9          9          9          9          9          9          9          9          9          9          9          9          9          9          9          9          9          9          9          9          9          9          9          9          9          9          9          9          9          9          9          9          9          9          9          9          9          9          9          9          9          9          9          9          9          9          9          9          9          9          9          9          9          9          9          9          9          9          9          9          9          9          9          9          9          9          9          9          9          9          9          9          9          9          9          9          9          9          9          9          9          9          9          9          9          9          9          9          9          9          9          9          9          9          9          9          9          9          9          9          9          9          9          9          9          9          9          9          9          9          9          9          9          9          9          9          9          9          9          9          9          9          9          9          9          9          9          9          9          9          9          9          9          9          9          9          9          9          9          9          9          9          9          9          9          9          9          9          9          9          9          9          9          9          9          9          9          9          9          9          9          9          9          9          9          9          9 </DataArray>
</Cells>
<CellData>
<DataArray type="Int32"                                    Name="material"                                                      NumberOfComponents=" 1" format="ascii">
         1          1          1          1          1          1          1          1          1          1          1          1          1          1          1          1          1          1          1          1          1          1          1          1          1          1          1          1          1          1          1          1          1          1          1          1          1          1          1          1          1          1          1          1          1          1          1          1          1          1          1          1          1          1          1          1          1          1          1          1          1          1          1          1          1          1          1          1          1          1          1          1          1          1          1          1          1          1          1          1          1          1          1          1          1          1          1          1          1          1          1          1          1          1          1          1          1          1          1          1          1          1          1          1          1          1          1          1          1          1          1          1          1          1          1          1          1          1          1          1          1          1          1          1          1          1          1          1          1          1          1          1          1          1          1          1          1          1          1          1          1          1          1          1          1          1          1          1          1          1          1          1          1          1          1          1          1          1          1          1          1          1          1          1          1          1          1          1          1          1          1          1          1          1          1          1          1          1          1          1          1          1          1          1          1          1          1          1          1          1          1          1          1          1          1          1          1          1          1          1          1          1          1          1          1          1          1          1          1          1          1          1          1          1          1          1          1          1          1          1          1          1          1          1          1          1          1          1          1          1          1          1          1          1          1          1          1          1          1          1          1          1          1          1          1          1          1          1          1          1          1          1          1          1          1          1          1          1          1          1          1          1          1          1          1          1          1          1          1          1          1          1          1          1          1          1          1          1          1          1          1          1          1          1          1          1          1          1          1          1          1          1          1          1          1          1          1          1          1          1          1          1          1          1          1          1          1          1          1          1          1          1          1          1          1          1          1          1          1          1          1          1          1          1          1          1          1          1          1          1          1          1          1          1          1          1          1          1          1          1          1          1          1          1          1          1          1          1          1          1          1          1          1          1          1          1          1          1          1          1          1          1          1          1          1          1          1          1          1          1          1          1          1          1          1          1          1          1          1          1          1          1          1          1          1          1          1          1          1          1          1          1          1          1          1          1          1          1          1          1          1          1          1          1          1          1          1          1          1          1          1          1          1          1          1          1          1          1          1          1          1          1          1          1          1          1          1          1          1          1          1          1          1          1          1          1          1          1          1          1          1          1          1          1          1          1          1          1          1          1          1          1          1          1          1          1          1          1          1          1          1          1          1          1          1          1          1          1          1          1          1          1          1          1          1          1          1          1          1          1          1          1          1          1          1          1          1          1          1          1          1          1          1          1          1          1          1          1          1          1          1          1          1          1          1          1          1          1          1          1          1          1          1          1          1          1          1          1          1          1          1          1          1          1          1          1          1          1          1          1          1          1          1          1          1          1          1          1          1          1          1          1          1          1          1          1          1          1          1          1          1          1          1          1          1          1          1          1          1          1          1          1          1          1          1          1          1          1          1          1          1          1          1          1          1          1          1          1          1          1          1          1          1          1          1          1          1          1          1          1          1          1          1          1          1          1          1          1          1          1          1          1          1          1          1          1          1          1          1          1          1          1          1          1          1          1          1          1          1          1          1          1          1          1          1          1          1          1          1          1          1          1          1          1          1          1          1          1          1          1          1          1          1          1          1          1          1          1          1          1          1          1          1          1          1          1          1          1          1          1          1          1          1          1          1          1          1          1          1          1          1          1          1          1          1          1          1          1          1          1          1          1          1          1          1          1          1          1          1          1          1          1          1          1          1          1          1          1          1          1          1          1          1          1          1          1          1          1          1          1          1          1          1          1          1          1          1          1          1          1          1          1          1          1          1          1          1          1          1          1          1          1          1          1          1          1          1          1          1          1          1          1          1          1          1          1          1          1          1          1          1          1          1          1          1          1          1          1          1          1          1          1          1          1          1          1          1          1          1          1          1          1          1          1          1          1          1          1          1          1          1          1          1          1          1          1          1          1          1          1          1          1          1          1          1          1          1          1          1          1          1          1          1          1          1          1          1          1          1          1          1          1          1          1          1          1          1          1          1          1          1          1          1          1          1          1          1          1          1          1          1          1          1          1          1          1          1          1          1          1          1          1          1          1          1          1          1          1          1          1          1          1          1          1          1          1          1          1          1          1          1          1          1          1          1          1          1          1          1          1          1          1          1          1          1          1          1          1          1          1          1          1          1          1          1          1          1          1          1          1          1          1          1          1          1          1          1          1          1          1          1          1          1          1          1          1          1          1          1          1          1          1          1          1          1          1          1          1          1          1          1          1          1          1          1          1          1          1          1          1          1          1          1          1          1          1          1          1          1          1          1          1          1          1          1          1          1          1          1          1          1          1          1          1          1          1          1          1          1          1          1          1          1          1          1          1          1          1          1          1          1          1          1          1          1          1          1          1          1          1          1          1          1          1          1          1          1          1          1          1          1          1          1          1          1          1          1          1          1          1          1          1          1          1          1          1          1          1          1          1          1          1          1          1          1          1          1          1          1          1          1          1          1          1 </DataArray>
</CellData>
<PointData>
<DataArray type="Float64"                                    Name="u"                                                      NumberOfComponents=" 3" format="ascii">
             -0.000489555               0.000000000               0.999999984              -0.000533063               0.000000000               0.999999984              -0.000552943               0.000000000               0.999999984              -0.000564566               0.000000000               0.999999984              -0.000573824               0.000000000               0.999999984              -0.000583065              -0.000000000               0.999999984              -0.000593078               0.000000000               0.999999984              -0.000604170              -0.000000000               0.999999984              -0.000616349               0.000000000               0.999999984              -0.000629414               0.000000000               0.999999984              -0.000643295               0.000000000               0.999999984              -0.000657764              -0.000000000               0.999999984              -0.000672627               0.000000000               0.999999984              -0.000687688               0.000000000               0.999999984              -0.000702510              -0.000000000               0.999999984              -0.000716733               0.000000000               0.999999984              -0.000729956               0.000000000               0.999999984              -0.000486819               0.000110949               0.999999984              -0.000527408               0.000092158               0.999999984              -0.000545424               0.000084708               0.999999984              -0.000555935               0.000082878               0.999999984              -0.000564505               0.000084223               0.999999984              -0.000573248               0.000087147               0.999999984              -0.000582920               0.000090981               0.999999984              -0.000593648               0.000095241               0.999999984              -0.000605396               0.000099505               0.999999984              -0.000617986               0.000103589               0.999999984              -0.000631186               0.000107116               0.999999984              -0.000644768               0.000110009               0.999999984              -0.000658637               0.000112082               0.999999984              -0.000672552               0.000112856               0.999999984              -0.000686148               0.000111862               0.999999984              -0.000699114               0.000108702               0.999999984              -0.000711119               0.000102493               0.999999984              -0.000478482               0.000220764               0.999999984              -0.000510538               0.000183676               0.999999984              -0.000523478               0.000169636               0.999999984              -0.000531029               0.000166825               0.999999984              -0.000537876               0.000170007               0.999999984              -0.000545464               0.000176321               0.999999984              -0.000554203               0.000184197               0.999999984              -0.000564071               0.000192768               0.999999984              -0.000574794               0.000201374               0.999999984              -0.000585966               0.000209398               0.999999984              -0.000597423               0.000216348               0.999999984              -0.000608941               0.000222085               0.999999984              -0.000620339               0.000226420               0.999999984              -0.000631415               0.000228598               0.999999984              -0.000641935               0.000227747               0.999999984              -0.000651739               0.000223297               0.999999984              -0.000660662               0.000214304               0.999999984              -0.000464831               0.000328245               0.999999984              -0.000483434               0.000274005               0.999999984              -0.000489027               0.000255034               0.999999984              -0.000492688               0.000252570               0.999999984              -0.000497412               0.000258464               0.999999984              -0.000503715               0.000268627               0.999999984              -0.000511463               0.000280867               0.999999984              -0.000520175               0.000293862               0.999999984              -0.000529352               0.000306619               0.999999984              -0.000538655               0.000318528               0.999999984              -0.000547870               0.000329050               0.999999984              -0.000556749               0.000337913               0.999999984              -0.000564957               0.000344635               0.999999984              -0.000572271               0.000348636               0.999999984              -0.000578630               0.000349374               0.999999984              -0.000584191               0.000346487               0.999999984              -0.000589283               0.000339477               0.999999984              -0.000446181               0.000432290               0.999999984              -0.000447562               0.000362732               0.999999984              -0.000445021               0.000340873               0.999999984              -0.000445040               0.000340196               0.999999984              -0.000448136               0.000349677               0.999999984              -0.000453625               0.000364119               0.999999984              -0.000460560               0.000380771               0.999999984              -0.000468127               0.000398129               0.999999984              -0.000475765               0.000414955               0.999999984              -0.000483132               0.000430620               0.999999984              -0.000489762               0.000444555               0.999999984              -0.000495366               0.000456458               0.999999984              -0.000499850               0.000465960               0.999999984              -0.000503233               0.000472749               0.999999984              -0.000505667               0.000476892               0.999999984              -0.000507585               0.000478419               0.999999984              -0.000509371               0.000477422               0.999999984              -0.000422854               0.000531859               0.999999984              -0.000404887               0.000449681               0.999999984              -0.000395073               0.000426903               0.999999984              -0.000392599               0.000429157               0.999999984              -0.000395015               0.000442783               0.999999984              -0.000400252               0.000461706               0.999999984              -0.000406741               0.000482756               0.999999984              -0.000413465               0.000504157               0.999999984              -0.000419696               0.000524858               0.999999984              -0.000424942               0.000544072               0.999999984              -0.000428930               0.000561233               0.999999984              -0.000431551               0.000576202               0.999999984              -0.000432807               0.000588960               0.999999984              -0.000432912               0.000599389               0.999999984              -0.000432137               0.000607931               0.999999984              -0.000430759               0.000614920               0.999999985              -0.000428904               0.000620240               0.999999985              -0.000395506               0.000625912               0.999999984              -0.000357923               0.000534624               0.999999984              -0.000342653               0.000512671               0.999999984              -0.000339399               0.000518431               0.999999984              -0.000342286               0.000536321               0.999999984              -0.000347836               0.000559533               0.999999984              -0.000354167               0.000584868               0.999999984              -0.000360123               0.000610311               0.999999984              -0.000364966               0.000634703               0.999999984              -0.000368276               0.000657181               0.999999984              -0.000369767               0.000677505               0.999999984              -0.000369309               0.000695655               0.999999984              -0.000367236               0.000711656               0.999999984              -0.000363753               0.000725856               0.999999985              -0.000359161               0.000738776               0.999999985              -0.000353493               0.000750299               0.999999985              -0.000346586               0.000759809               0.999999985              -0.000364720               0.000713544               0.999999984              -0.000308942               0.000617384               0.999999984              -0.000290804               0.000597346               0.999999984              -0.000288685               0.000606601               0.999999984              -0.000292888               0.000628471               0.999999984              -0.000299234               0.000655857               0.999999984              -0.000305669               0.000685311               0.999999984              -0.000310858               0.000714561               0.999999984              -0.000314154               0.000742518               0.999999984              -0.000314956               0.000768427               0.999999984              -0.000313107               0.000791727               0.999999984              -0.000308934               0.000812583               0.999999985              -0.000302684               0.000831519               0.999999985              -0.000294708               0.000848915               0.999999985              -0.000285131               0.000865130               0.999999985              -0.000273835               0.000879807               0.999999985              -0.000260981               0.000892203               0.999999985              -0.000331629               0.000793212               0.999999984              -0.000259619               0.000697884               0.999999984              -0.000242231               0.000679853               0.999999984              -0.000242496               0.000692180               0.999999984              -0.000248604               0.000717741               0.999999984              -0.000256032               0.000749126               0.999999984              -0.000262462               0.000782446               0.999999984              -0.000266544               0.000815513               0.999999984              -0.000267444               0.000846960               0.999999984              -0.000264814               0.000875464               0.999999984              -0.000258712               0.000901078               0.999999985              -0.000249570               0.000924278               0.999999985              -0.000237962               0.000945726               0.999999985              -0.000224368               0.000965828               0.999999985              -0.000209053               0.000984394               0.999999985              -0.000192479               0.001001250               0.999999985              -0.000174987               0.001016406               0.999999985              -0.000297857               0.000867995               0.999999984              -0.000219150               0.000785378               0.999999984              -0.000198677               0.000762547               0.999999984              -0.000197587               0.000768934               0.999999984              -0.000202957               0.000789682               0.999999984              -0.000210123               0.000817718               0.999999984              -0.000216675               0.000849136               0.999999984              -0.000221310               0.000881801               0.999999984              -0.000223293               0.000913811               0.999999984              -0.000221803               0.000944073               0.999999984              -0.000216687               0.000971806               0.999999985              -0.000208010               0.000996946               0.999999985              -0.000196239               0.001020121               0.999999985              -0.000182117               0.001041826               0.999999985              -0.000166175               0.001062493               0.999999985              -0.000149321               0.001081876               0.999999985              -0.000132112               0.001099974               0.999999985              -0.000260788               0.000935645               0.999999984              -0.000181403               0.000869391               0.999999984              -0.000157996               0.000846739               0.999999984              -0.000154832               0.000849090               0.999999984              -0.000158923               0.000865836               0.999999984              -0.000165327               0.000890796               0.999999984              -0.000171561               0.000920281               0.999999984              -0.000176307               0.000952232               0.999999984              -0.000178867               0.000984688               0.999999984              -0.000178483               0.001016155               0.999999985              -0.000174529               0.001045918               0.999999985              -0.000166721               0.001073399               0.999999985              -0.000155055               0.001098653               0.999999985              -0.000140387               0.001122034               0.999999985              -0.000123302               0.001144184               0.999999985              -0.000104500               0.001165393               0.999999985              -0.000084890               0.001185999               0.999999985              -0.000221309               0.000994648               0.999999984              -0.000146316               0.000947485               0.999999984              -0.000121356               0.000928716               0.999999984              -0.000115961               0.000929804               0.999999984              -0.000118305               0.000943937               0.999999984              -0.000123319               0.000966558               0.999999984              -0.000128732               0.000994496               0.999999984              -0.000133221               0.001025723               0.999999984              -0.000135937               0.001058405               0.999999984              -0.000136261               0.001091161               0.999999985              -0.000133250               0.001122844               0.999999985              -0.000126515               0.001152943               0.999999985              -0.000115776               0.001181004               0.999999985              -0.000101139               0.001206850               0.999999985              -0.000082973               0.001230956               0.999999985              -0.000061743               0.001253928               0.999999985              -0.000038102               0.001276364               0.999999985              -0.000179705               0.001044174               0.999999984              -0.000113808               0.001016645               0.999999984              -0.000089320               0.001004436               0.999999984              -0.000082330               0.001006763               0.999999984              -0.000082776               0.001020134               0.999999984              -0.000086121               0.001041493               0.999999984              -0.000090259               0.001068516               0.999999984              -0.000093961               0.001099476               0.999999984              -0.000096552               0.001132481               0.999999985              -0.000097214               0.001166386               0.999999985              -0.000094878               0.001200205               0.999999985              -0.000089217               0.001233061               0.999999985              -0.000079915               0.001264414               0.999999985              -0.000066428               0.001293836               0.999999985              -0.000048322               0.001321244               0.999999985              -0.000025548               0.001347019               0.999999985               0.000001818               0.001371758               0.999999985              -0.000136358               0.001083405               0.999999984              -0.000083509               0.001073920               0.999999984              -0.000061957               0.001069514               0.999999984              -0.000054566               0.001074781               0.999999984              -0.000053576               0.001088995               0.999999984              -0.000055319               0.001110287               0.999999984              -0.000058035               0.001137192               0.999999984              -0.000060794               0.001168195               0.999999985              -0.000062854               0.001201812               0.999999985              -0.000063417               0.001237026               0.999999985              -0.000061697               0.001272777               0.999999985              -0.000057315               0.001308347               0.999999985              -0.000049837               0.001343062               0.999999985              -0.000038509               0.001376440               0.999999985              -0.000022497               0.001408153               0.999999985              -0.000000812               0.001438005               0.999999985               0.000027174               0.001466248               0.999999985              -0.000091655               0.001111811               0.999999984              -0.000054830               0.001116757               0.999999984              -0.000038734               0.001119730               0.999999984              -0.000032483               0.001128515               0.999999984              -0.000030940               0.001144308               0.999999984              -0.000031526               0.001166281               0.999999984              -0.000033065               0.001193532               0.999999985              -0.000034853               0.001224970               0.999999985              -0.000036171               0.001259300               0.999999985              -0.000036532               0.001295674               0.999999985              -0.000035392               0.001333185               0.999999985              -0.000032421               0.001371132               0.999999985              -0.000027113               0.001408928               0.999999985              -0.000018886               0.001446001               0.999999985              -0.000006797               0.001481892               0.999999985               0.000010376               0.001516131               0.999999985               0.000033784               0.001548383               0.999999985              -0.000046033               0.001129021               0.999999984              -0.000027183               0.001143239               0.999999984              -0.000018589               0.001151449               0.999999984              -0.000014989               0.001163088               0.999999984              -0.000013864               0.001180335               0.999999984              -0.000013950               0.001203057               0.999999985              -0.000014628               0.001230778               0.999999985              -0.000015468               0.001262653               0.999999985              -0.000016066               0.001297601               0.999999985              -0.000016198               0.001334801               0.999999985              -0.000015663               0.001373481               0.999999985              -0.000014107               0.001413143               0.999999985              -0.000011361               0.001453156               0.999999985              -0.000007049               0.001492970               0.999999985              -0.000000404               0.001532019               0.999999985               0.000009058               0.001569652               0.999999985               0.000022400               0.001605165               0.999999985               0.000000000               0.001134712               0.999999984               0.000000000               0.001152172               0.999999984               0.000000000               0.001162403               0.999999984               0.000000000               0.001175126               0.999999984              -0.000000000               0.001192867               0.999999985              -0.000000000               0.001215846               0.999999985               0.000000000               0.001243784               0.999999985              -0.000000000               0.001275953               0.999999985              -0.000000000               0.001311153               0.999999985              -0.000000000               0.001348625               0.999999985              -0.000000000               0.001387704               0.999999985               0.000000000               0.001427949               0.999999985               0.000000000               0.001468756               0.999999985              -0.000000000               0.001509573               0.999999985              -0.000000000               0.001549742               0.999999985              -0.000000000               0.001588598               0.999999985               0.000000000               0.001625402               0.999999985              -0.000489555               0.000000000               0.999999984              -0.000533063               0.000000000               0.999999984              -0.000552943               0.000000000               0.999999984              -0.000564566               0.000000000               0.999999984              -0.000573824               0.000000000               0.999999984              -0.000583065              -0.000000000               0.999999984              -0.000593078               0.000000000               0.999999984              -0.000604170              -0.000000000               0.999999984              -0.000616349               0.000000000               0.999999984              -0.000629414               0.000000000               0.999999984              -0.000643295               0.000000000               0.999999984              -0.000657764              -0.000000000               0.999999984              -0.000672627               0.000000000               0.999999984              -0.000687688               0.000000000               0.999999984              -0.000702510              -0.000000000               0.999999984              -0.000716733               0.000000000               0.999999984              -0.000729956               0.000000000               0.999999984              -0.000486819              -0.000110949               0.999999984              -0.000527408              -0.000092158               0.999999984              -0.000545424              -0.000084708               0.999999984              -0.000555935              -0.000082878               0.999999984              -0.000564505              -0.000084223               0.999999984              -0.000573248              -0.000087147               0.999999984              -0.000582920              -0.000090981               0.999999984              -0.000593648              -0.000095241               0.999999984              -0.000605396              -0.000099505               0.999999984              -0.000617986              -0.000103589               0.999999984              -0.000631186              -0.000107116               0.999999984              -0.000644768              -0.000110009               0.999999984              -0.000658637              -0.000112082               0.999999984              -0.000672552              -0.000112856               0.999999984              -0.000686148              -0.000111862               0.999999984              -0.000699114              -0.000108702               0.999999984              -0.000711119              -0.000102493               0.999999984              -0.000478482              -0.000220764               0.999999984              -0.000510538              -0.000183676               0.999999984              -0.000523478              -0.000169636               0.999999984              -0.000531029              -0.000166825               0.999999984              -0.000537876              -0.000170007               0.999999984              -0.000545464              -0.000176321               0.999999984              -0.000554203              -0.000184197               0.999999984              -0.000564071              -0.000192768               0.999999984              -0.000574794              -0.000201374               0.999999984              -0.000585966              -0.000209398               0.999999984              -0.000597423              -0.000216348               0.999999984              -0.000608941              -0.000222085               0.999999984              -0.000620339              -0.000226420               0.999999984              -0.000631415              -0.000228598               0.999999984              -0.000641935              -0.000227747               0.999999984              -0.000651739              -0.000223297               0.999999984              -0.000660662              -0.000214304               0.999999984              -0.000464831              -0.000328245               0.999999984              -0.000483434              -0.000274005               0.999999984              -0.000489027              -0.000255034               0.999999984              -0.000492688              -0.000252570               0.999999984              -0.000497412              -0.000258464               0.999999984              -0.000503715              -0.000268627               0.999999984              -0.000511463              -0.000280867               0.999999984              -0.000520175              -0.000293862               0.999999984              -0.000529352              -0.000306619               0.999999984              -0.000538655              -0.000318528               0.999999984              -0.000547870              -0.000329050               0.999999984              -0.000556749              -0.000337913               0.999999984              -0.000564957              -0.000344635               0.999999984              -0.000572271              -0.000348636               0.999999984              -0.000578630              -0.000349374               0.999999984              -0.000584191              -0.000346487               0.999999984              -0.000589283              -0.000339477               0.999999984              -0.000446181              -0.000432290               0.999999984              -0.000447562              -0.000362732               0.999999984              -0.000445021              -0.000340873               0.999999984              -0.000445040              -0.000340196               0.999999984              -0.000448136              -0.000349677               0.999999984              -0.000453625              -0.000364119               0.999999984              -0.000460560              -0.000380771               0.999999984              -0.000468127              -0.000398129               0.999999984              -0.000475765              -0.000414955               0.999999984              -0.000483132              -0.000430620               0.999999984              -0.000489762              -0.000444555               0.999999984              -0.000495366              -0.000456458               0.999999984              -0.000499850              -0.000465960               0.999999984              -0.000503233              -0.000472749               0.999999984              -0.000505667              -0.000476892               0.999999984              -0.000507585              -0.000478419               0.999999984              -0.000509371              -0.000477422               0.999999984              -0.000422854              -0.000531859               0.999999984              -0.000404887              -0.000449681               0.999999984              -0.000395073              -0.000426903               0.999999984              -0.000392599              -0.000429157               0.999999984              -0.000395015              -0.000442783               0.999999984              -0.000400252              -0.000461706               0.999999984              -0.000406741              -0.000482756               0.999999984              -0.000413465              -0.000504157               0.999999984              -0.000419696              -0.000524858               0.999999984              -0.000424942              -0.000544072               0.999999984              -0.000428930              -0.000561233               0.999999984              -0.000431551              -0.000576202               0.999999984              -0.000432807              -0.000588960               0.999999984              -0.000432912              -0.000599389               0.999999984              -0.000432137              -0.000607931               0.999999984              -0.000430759              -0.000614920               0.999999985              -0.000428904              -0.000620240               0.999999985              -0.000395506              -0.000625912               0.999999984              -0.000357923              -0.000534624               0.999999984              -0.000342653              -0.000512671               0.999999984              -0.000339399              -0.000518431               0.999999984              -0.000342286              -0.000536321               0.999999984              -0.000347836              -0.000559533               0.999999984              -0.000354167              -0.000584868               0.999999984              -0.000360123              -0.000610311               0.999999984              -0.000364966              -0.000634703               0.999999984              -0.000368276              -0.000657181               0.999999984              -0.000369767              -0.000677505               0.999999984              -0.000369309              -0.000695655               0.999999984              -0.000367236              -0.000711656               0.999999984              -0.000363753              -0.000725856               0.999999985              -0.000359161              -0.000738776               0.999999985              -0.000353493              -0.000750299               0.999999985              -0.000346586              -0.000759809               0.999999985              -0.000364720              -0.000713544               0.999999984              -0.000308942              -0.000617384               0.999999984              -0.000290804              -0.000597346               0.999999984              -0.000288685              -0.000606601               0.999999984              -0.000292888              -0.000628471               0.999999984              -0.000299234              -0.000655857               0.999999984              -0.000305669              -0.000685311               0.999999984              -0.000310858              -0.000714561               0.999999984              -0.000314154              -0.000742518               0.999999984              -0.000314956              -0.000768427               0.999999984              -0.000313107              -0.000791727               0.999999984              -0.000308934              -0.000812583               0.999999985              -0.000302684              -0.000831519               0.999999985              -0.000294708              -0.000848915               0.999999985              -0.000285131              -0.000865130               0.999999985              -0.000273835              -0.000879807               0.999999985              -0.000260981              -0.000892203               0.999999985              -0.000331629              -0.000793212               0.999999984              -0.000259619              -0.000697884               0.999999984              -0.000242231              -0.000679853               0.999999984              -0.000242496              -0.000692180               0.999999984              -0.000248604              -0.000717741               0.999999984              -0.000256032              -0.000749126               0.999999984              -0.000262462              -0.000782446               0.999999984              -0.000266544              -0.000815513               0.999999984              -0.000267444              -0.000846960               0.999999984              -0.000264814              -0.000875464               0.999999984              -0.000258712              -0.000901078               0.999999985              -0.000249570              -0.000924278               0.999999985              -0.000237962              -0.000945726               0.999999985              -0.000224368              -0.000965828               0.999999985              -0.000209053              -0.000984394               0.999999985              -0.000192479              -0.001001250               0.999999985              -0.000174987              -0.001016406               0.999999985              -0.000297857              -0.000867995               0.999999984              -0.000219150              -0.000785378               0.999999984              -0.000198677              -0.000762547               0.999999984              -0.000197587              -0.000768934               0.999999984              -0.000202957              -0.000789682               0.999999984              -0.000210123              -0.000817718               0.999999984              -0.000216675              -0.000849136               0.999999984              -0.000221310              -0.000881801               0.999999984              -0.000223293              -0.000913811               0.999999984              -0.000221803              -0.000944073               0.999999984              -0.000216687              -0.000971806               0.999999985              -0.000208010              -0.000996946               0.999999985              -0.000196239              -0.001020121               0.999999985              -0.000182117              -0.001041826               0.999999985              -0.000166175              -0.001062493               0.999999985              -0.000149321              -0.001081876               0.999999985              -0.000132112              -0.001099974               0.999999985              -0.000260788              -0.000935645               0.999999984              -0.000181403              -0.000869391               0.999999984              -0.000157996              -0.000846739               0.999999984              -0.000154832              -0.000849090               0.999999984              -0.000158923              -0.000865836               0.999999984              -0.000165327              -0.000890796               0.999999984              -0.000171561              -0.000920281               0.999999984              -0.000176307              -0.000952232               0.999999984              -0.000178867              -0.000984688               0.999999984              -0.000178483              -0.001016155               0.999999985              -0.000174529              -0.001045918               0.999999985              -0.000166721              -0.001073399               0.999999985              -0.000155055              -0.001098653               0.999999985              -0.000140387              -0.001122034               0.999999985              -0.000123302              -0.001144184               0.999999985              -0.000104500              -0.001165393               0.999999985              -0.000084890              -0.001185999               0.999999985              -0.000221309              -0.000994648               0.999999984              -0.000146316              -0.000947485               0.999999984              -0.000121356              -0.000928716               0.999999984              -0.000115961              -0.000929804               0.999999984              -0.000118305              -0.000943937               0.999999984              -0.000123319              -0.000966558               0.999999984              -0.000128732              -0.000994496               0.999999984              -0.000133221              -0.001025723               0.999999984              -0.000135937              -0.001058405               0.999999984              -0.000136261              -0.001091161               0.999999985              -0.000133250              -0.001122844               0.999999985              -0.000126515              -0.001152943               0.999999985              -0.000115776              -0.001181004               0.999999985              -0.000101139              -0.001206850               0.999999985              -0.000082973              -0.001230956               0.999999985              -0.000061743              -0.001253928               0.999999985              -0.000038102              -0.001276364               0.999999985              -0.000179705              -0.001044174               0.999999984              -0.000113808              -0.001016645               0.999999984              -0.000089320              -0.001004436               0.999999984              -0.000082330              -0.001006763               0.999999984              -0.000082776              -0.001020134               0.999999984              -0.000086121              -0.001041493               0.999999984              -0.000090259              -0.001068516               0.999999984              -0.000093961              -0.001099476               0.999999984              -0.000096552              -0.001132481               0.999999985              -0.000097214              -0.001166386               0.999999985              -0.000094878              -0.001200205               0.999999985              -0.000089217              -0.001233061               0.999999985              -0.000079915              -0.001264414               0.999999985              -0.000066428              -0.001293836               0.999999985              -0.000048322              -0.001321244               0.999999985              -0.000025548              -0.001347019               0.999999985               0.000001818              -0.001371758               0.999999985              -0.000136358              -0.001083405               0.999999984              -0.000083509              -0.001073920               0.999999984              -0.000061957              -0.001069514               0.999999984              -0.000054566              -0.001074781               0.999999984              -0.000053576              -0.001088995               0.999999984              -0.000055319              -0.001110287               0.999999984              -0.000058035              -0.001137192               0.999999984              -0.000060794              -0.001168195               0.999999985              -0.000062854              -0.001201812               0.999999985              -0.000063417              -0.001237026               0.999999985              -0.000061697              -0.001272777               0.999999985              -0.000057315              -0.001308347               0.999999985              -0.000049837              -0.001343062               0.999999985              -0.000038509              -0.001376440               0.999999985              -0.000022497              -0.001408153               0.999999985              -0.000000812              -0.001438005               0.999999985               0.000027174              -0.001466248               0.999999985              -0.000091655              -0.001111811               0.999999984              -0.000054830              -0.001116757               0.999999984              -0.000038734              -0.001119730               0.999999984              -0.000032483              -0.001128515               0.999999984              -0.000030940              -0.001144308               0.999999984              -0.000031526              -0.001166281               0.999999984              -0.000033065              -0.001193532               0.999999985              -0.000034853              -0.001224970               0.999999985              -0.000036171              -0.001259300               0.999999985              -0.000036532              -0.001295674               0.999999985              -0.000035392              -0.001333185               0.999999985              -0.000032421              -0.001371132               0.999999985              -0.000027113              -0.001408928               0.999999985              -0.000018886              -0.001446001               0.999999985              -0.000006797              -0.001481892               0.999999985               0.000010376              -0.001516131               0.999999985               0.000033784              -0.001548383               0.999999985              -0.000046033              -0.001129021               0.999999984              -0.000027183              -0.001143239               0.999999984              -0.000018589              -0.001151449               0.999999984              -0.000014989              -0.001163088               0.999999984              -0.000013864              -0.001180335               0.999999984              -0.000013950              -0.001203057               0.999999985              -0.000014628              -0.001230778               0.999999985              -0.000015468              -0.001262653               0.999999985              -0.000016066              -0.001297601               0.999999985              -0.000016198              -0.001334801               0.999999985              -0.000015663              -0.001373481               0.999999985              -0.000014107              -0.001413143               0.999999985              -0.000011361              -0.001453156               0.999999985              -0.000007049              -0.001492970               0.999999985              -0.000000404              -0.001532019               0.999999985               0.000009058              -0.001569652               0.999999985               0.000022400              -0.001605165               0.999999985               0.000000000              -0.001134712               0.999999984              -0.000000000              -0.001152172               0.999999984              -0.000000000              -0.001162403               0.999999984               0.000000000              -0.001175126               0.999999984              -0.000000000              -0.001192867               0.999999985              -0.000000000              -0.001215846               0.999999985               0.000000000              -0.001243784               0.999999985              -0.000000000              -0.001275953               0.999999985              -0.000000000              -0.001311153               0.999999985               0.000000000              -0.001348625               0.999999985               0.000000000              -0.001387704               0.999999985               0.000000000              -0.001427949               0.999999985               0.000000000              -0.001468756               0.999999985              -0.000000000              -0.001509573               0.999999985              -0.000000000              -0.001549742               0.999999985               0.000000000              -0.001588598               0.999999985               0.000000000              -0.001625402               0.999999985               0.000489555              -0.000000000               0.999999984               0.000533063               0.000000000               0.999999984               0.000552943               0.000000000               0.999999984               0.000564566               0.000000000               0.999999984               0.000573824              -0.000000000               0.999999984               0.000583065               0.000000000               0.999999984               0.000593078               0.000000000               0.999999984               0.000604170               0.000000000               0.999999984               0.000616349               0.000000000               0.999999984               0.000629414               0.000000000               0.999999984               0.000643295               0.000000000               0.999999984               0.000657764               0.000000000               0.999999984               0.000672627               0.000000000               0.999999984               0.000687688               0.000000000               0.999999984               0.000702510              -0.000000000               0.999999984               0.000716733              -0.000000000               0.999999984               0.000729956              -0.000000000               0.999999984               0.000486819              -0.000110949               0.999999984               0.000527408              -0.000092158               0.999999984               0.000545424              -0.000084708               0.999999984               0.000555935              -0.000082878               0.999999984               0.000564505              -0.000084223               0.999999984               0.000573248              -0.000087147               0.999999984               0.000582920              -0.000090981               0.999999984               0.000593648              -0.000095241               0.999999984               0.000605396              -0.000099505               0.999999984               0.000617986              -0.000103589               0.999999984               0.000631186              -0.000107116               0.999999984               0.000644768              -0.000110009               0.999999984               0.000658637              -0.000112082               0.999999984               0.000672552              -0.000112856               0.999999984               0.000686148              -0.000111862               0.999999984               0.000699114              -0.000108702               0.999999984               0.000711119              -0.000102493               0.999999984               0.000478482              -0.000220764               0.999999984               0.000510538              -0.000183676               0.999999984               0.000523478              -0.000169636               0.999999984               0.000531029              -0.000166825               0.999999984               0.000537876              -0.000170007               0.999999984               0.000545464              -0.000176321               0.999999984               0.000554203              -0.000184197               0.999999984               0.000564071              -0.000192768               0.999999984               0.000574794              -0.000201374               0.999999984               0.000585966              -0.000209398               0.999999984               0.000597423              -0.000216348               0.999999984               0.000608941              -0.000222085               0.999999984               0.000620339              -0.000226420               0.999999984               0.000631415              -0.000228598               0.999999984               0.000641935              -0.000227747               0.999999984               0.000651739              -0.000223297               0.999999984               0.000660662              -0.000214304               0.999999984               0.000464831              -0.000328245               0.999999984               0.000483434              -0.000274005               0.999999984               0.000489027              -0.000255034               0.999999984               0.000492688              -0.000252570               0.999999984               0.000497412              -0.000258464               0.999999984               0.000503715              -0.000268627               0.999999984               0.000511463              -0.000280867               0.999999984               0.000520175              -0.000293862               0.999999984               0.000529352              -0.000306619               0.999999984               0.000538655              -0.000318528               0.999999984               0.000547870              -0.000329050               0.999999984               0.000556749              -0.000337913               0.999999984               0.000564957              -0.000344635               0.999999984               0.000572271              -0.000348636               0.999999984               0.000578630              -0.000349374               0.999999984               0.000584191              -0.000346487               0.999999984               0.000589283              -0.000339477               0.999999984               0.000446181              -0.000432290               0.999999984               0.000447562              -0.000362732               0.999999984               0.000445021              -0.000340873               0.999999984               0.000445040              -0.000340196               0.999999984               0.000448136              -0.000349677               0.999999984               0.000453625              -0.000364119               0.999999984               0.000460560              -0.000380771               0.999999984               0.000468127              -0.000398129               0.999999984               0.000475765              -0.000414955               0.999999984               0.000483132              -0.000430620               0.999999984               0.000489762              -0.000444555               0.999999984               0.000495366              -0.000456458               0.999999984               0.000499850              -0.000465960               0.999999984               0.000503233              -0.000472749               0.999999984               0.000505667              -0.000476892               0.999999984               0.000507585              -0.000478419               0.999999984               0.000509371              -0.000477422               0.999999984               0.000422854              -0.000531859               0.999999984               0.000404887              -0.000449681               0.999999984               0.000395073              -0.000426903               0.999999984               0.000392599              -0.000429157               0.999999984               0.000395015              -0.000442783               0.999999984               0.000400252              -0.000461706               0.999999984               0.000406741              -0.000482756               0.999999984               0.000413465              -0.000504157               0.999999984               0.000419696              -0.000524858               0.999999984               0.000424942              -0.000544072               0.999999984               0.000428930              -0.000561233               0.999999984               0.000431551              -0.000576202               0.999999984               0.000432807              -0.000588960               0.999999984               0.000432912              -0.000599389               0.999999984               0.000432137              -0.000607931               0.999999984               0.000430759              -0.000614920               0.999999985               0.000428904              -0.000620240               0.999999985               0.000395506              -0.000625912               0.999999984               0.000357923              -0.000534624               0.999999984               0.000342653              -0.000512671               0.999999984               0.000339399              -0.000518431               0.999999984               0.000342286              -0.000536321               0.999999984               0.000347836              -0.000559533               0.999999984               0.000354167              -0.000584868               0.999999984               0.000360123              -0.000610311               0.999999984               0.000364966              -0.000634703               0.999999984               0.000368276              -0.000657181               0.999999984               0.000369767              -0.000677505               0.999999984               0.000369309              -0.000695655               0.999999984               0.000367236              -0.000711656               0.999999984               0.000363753              -0.000725856               0.999999985               0.000359161              -0.000738776               0.999999985               0.000353493              -0.000750299               0.999999985               0.000346586              -0.000759809               0.999999985               0.000364720              -0.000713544               0.999999984               0.000308942              -0.000617384               0.999999984               0.000290804              -0.000597346               0.999999984               0.000288685              -0.000606601               0.999999984               0.000292888              -0.000628471               0.999999984               0.000299234              -0.000655857               0.999999984               0.000305669              -0.000685311               0.999999984               0.000310858              -0.000714561               0.999999984               0.000314154              -0.000742518               0.999999984               0.000314956              -0.000768427               0.999999984               0.000313107              -0.000791727               0.999999984               0.000308934              -0.000812583               0.999999985               0.000302684              -0.000831519               0.999999985               0.000294708              -0.000848915               0.999999985               0.000285131              -0.000865130               0.999999985               0.000273835              -0.000879807               0.999999985               0.000260981              -0.000892203               0.999999985               0.000331629              -0.000793212               0.999999984               0.000259619              -0.000697884               0.999999984               0.000242231              -0.000679853               0.999999984               0.000242496              -0.000692180               0.999999984               0.000248604              -0.000717741               0.999999984               0.000256032              -0.000749126               0.999999984               0.000262462              -0.000782446               0.999999984               0.000266544              -0.000815513               0.999999984               0.000267444              -0.000846960               0.999999984               0.000264814              -0.000875464               0.999999984               0.000258712              -0.000901078               0.999999985               0.000249570              -0.000924278               0.999999985               0.000237962              -0.000945726               0.999999985               0.000224368              -0.000965828               0.999999985               0.000209053              -0.000984394               0.999999985               0.000192479              -0.001001250               0.999999985               0.000174987              -0.001016406               0.999999985               0.000297857              -0.000867995               0.999999984               0.000219150              -0.000785378               0.999999984               0.000198677              -0.000762547               0.999999984               0.000197587              -0.000768934               0.999999984               0.000202957              -0.000789682               0.999999984               0.000210123              -0.000817718               0.999999984               0.000216675              -0.000849136               0.999999984               0.000221310              -0.000881801               0.999999984               0.000223293              -0.000913811               0.999999984               0.000221803              -0.000944073               0.999999984               0.000216687              -0.000971806               0.999999985               0.000208010              -0.000996946               0.999999985               0.000196239              -0.001020121               0.999999985               0.000182117              -0.001041826               0.999999985               0.000166175              -0.001062493               0.999999985               0.000149321              -0.001081876               0.999999985               0.000132112              -0.001099974               0.999999985               0.000260788              -0.000935645               0.999999984               0.000181403              -0.000869391               0.999999984               0.000157996              -0.000846739               0.999999984               0.000154832              -0.000849090               0.999999984               0.000158923              -0.000865836               0.999999984               0.000165327              -0.000890796               0.999999984               0.000171561              -0.000920281               0.999999984               0.000176307              -0.000952232               0.999999984               0.000178867              -0.000984688               0.999999984               0.000178483              -0.001016155               0.999999985               0.000174529              -0.001045918               0.999999985               0.000166721              -0.001073399               0.999999985               0.000155055              -0.001098653               0.999999985               0.000140387              -0.001122034               0.999999985               0.000123302              -0.001144184               0.999999985               0.000104500              -0.001165393               0.999999985               0.000084890              -0.001185999               0.999999985               0.000221309              -0.000994648               0.999999984               0.000146316              -0.000947485               0.999999984               0.000121356              -0.000928716               0.999999984               0.000115961              -0.000929804               0.999999984               0.000118305              -0.000943937               0.999999984               0.000123319              -0.000966558               0.999999984               0.000128732              -0.000994496               0.999999984               0.000133221              -0.001025723               0.999999984               0.000135937              -0.001058405               0.999999984               0.000136261              -0.001091161               0.999999985               0.000133250              -0.001122844               0.999999985               0.000126515              -0.001152943               0.999999985               0.000115776              -0.001181004               0.999999985               0.000101139              -0.001206850               0.999999985               0.000082973              -0.001230956               0.999999985               0.000061743              -0.001253928               0.999999985               0.000038102              -0.001276364               0.999999985               0.000179705              -0.001044174               0.999999984               0.000113808              -0.001016645               0.999999984               0.000089320              -0.001004436               0.999999984               0.000082330              -0.001006763               0.999999984               0.000082776              -0.001020134               0.999999984               0.000086121              -0.001041493               0.999999984               0.000090259              -0.001068516               0.999999984               0.000093961              -0.001099476               0.999999984               0.000096552              -0.001132481               0.999999985               0.000097214              -0.001166386               0.999999985               0.000094878              -0.001200205               0.999999985               0.000089217              -0.001233061               0.999999985               0.000079915              -0.001264414               0.999999985               0.000066428              -0.001293836               0.999999985               0.000048322              -0.001321244               0.999999985               0.000025548              -0.001347019               0.999999985              -0.000001818              -0.001371758               0.999999985               0.000136358              -0.001083405               0.999999984               0.000083509              -0.001073920               0.999999984               0.000061957              -0.001069514               0.999999984               0.000054566              -0.001074781               0.999999984               0.000053576              -0.001088995               0.999999984               0.000055319              -0.001110287               0.999999984               0.000058035              -0.001137192               0.999999984               0.000060794              -0.001168195               0.999999985               0.000062854              -0.001201812               0.999999985               0.000063417              -0.001237026               0.999999985               0.000061697              -0.001272777               0.999999985               0.000057315              -0.001308347               0.999999985               0.000049837              -0.001343062               0.999999985               0.000038509              -0.001376440               0.999999985               0.000022497              -0.001408153               0.999999985               0.000000812              -0.001438005               0.999999985              -0.000027174              -0.001466248               0.999999985               0.000091655              -0.001111811               0.999999984               0.000054830              -0.001116757               0.999999984               0.000038734              -0.001119730               0.999999984               0.000032483              -0.001128515               0.999999984               0.000030940              -0.001144308               0.999999984               0.000031526              -0.001166281               0.999999984               0.000033065              -0.001193532               0.999999985               0.000034853              -0.001224970               0.999999985               0.000036171              -0.001259300               0.999999985               0.000036532              -0.001295674               0.999999985               0.000035392              -0.001333185               0.999999985               0.000032421              -0.001371132               0.999999985               0.000027113              -0.001408928               0.999999985               0.000018886              -0.001446001               0.999999985               0.000006797              -0.001481892               0.999999985              -0.000010376              -0.001516131               0.999999985              -0.000033784              -0.001548383               0.999999985               0.000046033              -0.001129021               0.999999984               0.000027183              -0.001143239               0.999999984               0.000018589              -0.001151449               0.999999984               0.000014989              -0.001163088               0.999999984               0.000013864              -0.001180335               0.999999984               0.000013950              -0.001203057               0.999999985               0.000014628              -0.001230778               0.999999985               0.000015468              -0.001262653               0.999999985               0.000016066              -0.001297601               0.999999985               0.000016198              -0.001334801               0.999999985               0.000015663              -0.001373481               0.999999985               0.000014107              -0.001413143               0.999999985               0.000011361              -0.001453156               0.999999985               0.000007049              -0.001492970               0.999999985               0.000000404              -0.001532019               0.999999985              -0.000009058              -0.001569652               0.999999985              -0.000022400              -0.001605165               0.999999985               0.000000000              -0.001134712               0.999999984              -0.000000000              -0.001152172               0.999999984              -0.000000000              -0.001162403               0.999999984               0.000000000              -0.001175126               0.999999984              -0.000000000              -0.001192867               0.999999985              -0.000000000              -0.001215846               0.999999985               0.000000000              -0.001243784               0.999999985              -0.000000000              -0.001275953               0.999999985              -0.000000000              -0.001311153               0.999999985               0.000000000              -0.001348625               0.999999985               0.000000000              -0.001387704               0.999999985               0.000000000              -0.001427949               0.999999985               0.000000000              -0.001468756               0.999999985              -0.000000000              -0.001509573               0.999999985              -0.000000000              -0.001549742               0.999999985               0.000000000              -0.001588598               0.999999985               0.000000000              -0.001625402               0.999999985               0.000489555              -0.000000000               0.999999984               0.000533063               0.000000000               0.999999984               0.000552943               0.000000000               0.999999984               0.000564566               0.000000000               0.999999984               0.000573824              -0.000000000               0.999999984               0.000583065               0.000000000               0.999999984               0.000593078               0.000000000               0.999999984               0.000604170               0.000000000               0.999999984               0.000616349               0.000000000               0.999999984               0.000629414               0.000000000               0.999999984               0.000643295               0.000000000               0.999999984               0.000657764               0.000000000               0.999999984               0.000672627               0.000000000               0.999999984               0.000687688               0.000000000               0.999999984               0.000702510              -0.000000000               0.999999984               0.000716733              -0.000000000               0.999999984               0.000729956              -0.000000000               0.999999984               0.000486819               0.000110949               0.999999984               0.000527408               0.000092158               0.999999984               0.000545424               0.000084708               0.999999984               0.000555935               0.000082878               0.999999984               0.000564505               0.000084223               0.999999984               0.000573248               0.000087147               0.999999984               0.000582920               0.000090981               0.999999984               0.000593648               0.000095241               0.999999984               0.000605396               0.000099505               0.999999984               0.000617986               0.000103589               0.999999984               0.000631186               0.000107116               0.999999984               0.000644768               0.000110009               0.999999984               0.000658637               0.000112082               0.999999984               0.000672552               0.000112856               0.999999984               0.000686148               0.000111862               0.999999984               0.000699114               0.000108702               0.999999984               0.000711119               0.000102493               0.999999984               0.000478482               0.000220764               0.999999984               0.000510538               0.000183676               0.999999984               0.000523478               0.000169636               0.999999984               0.000531029               0.000166825               0.999999984               0.000537876               0.000170007               0.999999984               0.000545464               0.000176321               0.999999984               0.000554203               0.000184197               0.999999984               0.000564071               0.000192768               0.999999984               0.000574794               0.000201374               0.999999984               0.000585966               0.000209398               0.999999984               0.000597423               0.000216348               0.999999984               0.000608941               0.000222085               0.999999984               0.000620339               0.000226420               0.999999984               0.000631415               0.000228598               0.999999984               0.000641935               0.000227747               0.999999984               0.000651739               0.000223297               0.999999984               0.000660662               0.000214304               0.999999984               0.000464831               0.000328245               0.999999984               0.000483434               0.000274005               0.999999984               0.000489027               0.000255034               0.999999984               0.000492688               0.000252570               0.999999984               0.000497412               0.000258464               0.999999984               0.000503715               0.000268627               0.999999984               0.000511463               0.000280867               0.999999984               0.000520175               0.000293862               0.999999984               0.000529352               0.000306619               0.999999984               0.000538655               0.000318528               0.999999984               0.000547870               0.000329050               0.999999984               0.000556749               0.000337913               0.999999984               0.000564957               0.000344635               0.999999984               0.000572271               0.000348636               0.999999984               0.000578630               0.000349374               0.999999984               0.000584191               0.000346487               0.999999984               0.000589283               0.000339477               0.999999984               0.000446181               0.000432290               0.999999984               0.000447562               0.000362732               0.999999984               0.000445021               0.000340873               0.999999984               0.000445040               0.000340196               0.999999984               0.000448136               0.000349677               0.999999984               0.000453625               0.000364119               0.999999984               0.000460560               0.000380771               0.999999984               0.000468127               0.000398129               0.999999984               0.000475765               0.000414955               0.999999984               0.000483132               0.000430620               0.999999984               0.000489762               0.000444555               0.999999984               0.000495366               0.000456458               0.999999984               0.000499850               0.000465960               0.999999984               0.000503233               0.000472749               0.999999984               0.000505667               0.000476892               0.999999984               0.000507585               0.000478419               0.999999984               0.000509371               0.000477422               0.999999984               0.000422854               0.000531859               0.999999984               0.000404887               0.000449681               0.999999984               0.000395073               0.000426903               0.999999984               0.000392599               0.000429157               0.999999984               0.000395015               0.000442783               0.999999984               0.000400252               0.000461706               0.999999984               0.000406741               0.000482756               0.999999984               0.000413465               0.000504157               0.999999984               0.000419696               0.000524858               0.999999984               0.000424942               0.000544072               0.999999984               0.000428930               0.000561233               0.999999984               0.000431551               0.000576202               0.999999984               0.000432807               0.000588960               0.999999984               0.000432912               0.000599389               0.999999984               0.000432137               0.000607931               0.999999984               0.000430759               0.000614920               0.999999985               0.000428904               0.000620240               0.999999985               0.000395506               0.000625912               0.999999984               0.000357923               0.000534624               0.999999984               0.000342653               0.000512671               0.999999984               0.000339399               0.000518431               0.999999984               0.000342286               0.000536321               0.999999984               0.000347836               0.000559533               0.999999984               0.000354167               0.000584868               0.999999984               0.000360123               0.000610311               0.999999984               0.000364966               0.000634703               0.999999984               0.000368276               0.000657181               0.999999984               0.000369767               0.000677505               0.999999984               0.000369309               0.000695655               0.999999984               0.000367236               0.000711656               0.999999984               0.000363753               0.000725856               0.999999985               0.000359161               0.000738776               0.999999985               0.000353493               0.000750299               0.999999985               0.000346586               0.000759809               0.999999985               0.000364720               0.000713544               0.999999984               0.000308942               0.000617384               0.999999984               0.000290804               0.000597346               0.999999984               0.000288685               0.000606601               0.999999984               0.000292888               0.000628471               0.999999984               0.000299234               0.000655857               0.999999984               0.000305669               0.000685311               0.999999984               0.000310858               0.000714561               0.999999984               0.000314154               0.000742518               0.999999984               0.000314956               0.000768427               0.999999984               0.000313107               0.000791727               0.999999984               0.000308934               0.000812583               0.999999985               0.000302684               0.000831519               0.999999985               0.000294708               0.000848915               0.999999985               0.000285131               0.000865130               0.999999985               0.000273835               0.000879807               0.999999985               0.000260981               0.000892203               0.999999985               0.000331629               0.000793212               0.999999984               0.000259619               0.000697884               0.999999984               0.000242231               0.000679853               0.999999984               0.000242496               0.000692180               0.999999984               0.000248604               0.000717741               0.999999984               0.000256032               0.000749126               0.999999984               0.000262462               0.000782446               0.999999984               0.000266544               0.000815513               0.999999984               0.000267444               0.000846960               0.999999984               0.000264814               0.000875464               0.999999984               0.000258712               0.000901078               0.999999985               0.000249570               0.000924278               0.999999985               0.000237962               0.000945726               0.999999985               0.000224368               0.000965828               0.999999985               0.000209053               0.000984394               0.999999985               0.000192479               0.001001250               0.999999985               0.000174987               0.001016406               0.999999985               0.000297857               0.000867995               0.999999984               0.000219150               0.000785378               0.999999984               0.000198677               0.000762547               0.999999984               0.000197587               0.000768934               0.999999984               0.000202957               0.000789682               0.999999984               0.000210123               0.000817718               0.999999984               0.000216675               0.000849136               0.999999984               0.000221310               0.000881801               0.999999984               0.000223293               0.000913811               0.999999984               0.000221803               0.000944073               0.999999984               0.000216687               0.000971806               0.999999985               0.000208010               0.000996946               0.999999985               0.000196239               0.001020121               0.999999985               0.000182117               0.001041826               0.999999985               0.000166175               0.001062493               0.999999985               0.000149321               0.001081876               0.999999985               0.000132112               0.001099974               0.999999985               0.000260788               0.000935645               0.999999984               0.000181403               0.000869391               0.999999984               0.000157996               0.000846739               0.999999984               0.000154832               0.000849090               0.999999984               0.000158923               0.000865836               0.999999984               0.000165327               0.000890796               0.999999984               0.000171561               0.000920281               0.999999984               0.000176307               0.000952232               0.999999984               0.000178867               0.000984688               0.999999984               0.000178483               0.001016155               0.999999985               0.000174529               0.001045918               0.999999985               0.000166721               0.001073399               0.999999985               0.000155055               0.001098653               0.999999985               0.000140387               0.001122034               0.999999985               0.000123302               0.001144184               0.999999985               0.000104500               0.001165393               0.999999985               0.000084890               0.001185999               0.999999985               0.000221309               0.000994648               0.999999984               0.000146316               0.000947485               0.999999984               0.000121356               0.000928716               0.999999984               0.000115961               0.000929804               0.999999984               0.000118305               0.000943937               0.999999984               0.000123319               0.000966558               0.999999984               0.000128732               0.000994496               0.999999984               0.000133221               0.001025723               0.999999984               0.000135937               0.001058405               0.999999984               0.000136261               0.001091161               0.999999985               0.000133250               0.001122844               0.999999985               0.000126515               0.001152943               0.999999985               0.000115776               0.001181004               0.999999985               0.000101139               0.001206850               0.999999985               0.000082973               0.001230956               0.999999985               0.000061743               0.001253928               0.999999985               0.000038102               0.001276364               0.999999985               0.000179705               0.001044174               0.999999984               0.000113808               0.001016645               0.999999984               0.000089320               0.001004436               0.999999984               0.000082330               0.001006763               0.999999984               0.000082776               0.001020134               0.999999984               0.000086121               0.001041493               0.999999984               0.000090259               0.001068516               0.999999984               0.000093961               0.001099476               0.999999984               0.000096552               0.001132481               0.999999985               0.000097214               0.001166386               0.999999985               0.000094878               0.001200205               0.999999985               0.000089217               0.001233061               0.999999985               0.000079915               0.001264414               0.999999985               0.000066428               0.001293836               0.999999985               0.000048322               0.001321244               0.999999985               0.000025548               0.001347019               0.999999985              -0.000001818               0.001371758               0.999999985               0.000136358               0.001083405               0.999999984               0.000083509               0.001073920               0.999999984               0.000061957               0.001069514               0.999999984               0.000054566               0.001074781               0.999999984               0.000053576               0.001088995               0.999999984               0.000055319               0.001110287               0.999999984               0.000058035               0.001137192               0.999999984               0.000060794               0.001168195               0.999999985               0.000062854               0.001201812               0.999999985               0.000063417               0.001237026               0.999999985               0.000061697               0.001272777               0.999999985               0.000057315               0.001308347               0.999999985               0.000049837               0.001343062               0.999999985               0.000038509               0.001376440               0.999999985               0.000022497               0.001408153               0.999999985               0.000000812               0.001438005               0.999999985              -0.000027174               0.001466248               0.999999985               0.000091655               0.001111811               0.999999984               0.000054830               0.001116757               0.999999984               0.000038734               0.001119730               0.999999984               0.000032483               0.001128515               0.999999984               0.000030940               0.001144308               0.999999984               0.000031526               0.001166281               0.999999984               0.000033065               0.001193532               0.999999985               0.000034853               0.001224970               0.999999985               0.000036171               0.001259300               0.999999985               0.000036532               0.001295674               0.999999985               0.000035392               0.001333185               0.999999985               0.000032421               0.001371132               0.999999985               0.000027113               0.001408928               0.999999985               0.000018886               0.001446001               0.999999985               0.000006797               0.001481892               0.999999985              -0.000010376               0.001516131               0.999999985              -0.000033784               0.001548383               0.999999985               0.000046033               0.001129021               0.999999984               0.000027183               0.001143239               0.999999984               0.000018589               0.001151449               0.999999984               0.000014989               0.001163088               0.999999984               0.000013864               0.001180335               0.999999984               0.000013950               0.001203057               0.999999985               0.000014628               0.001230778               0.999999985               0.000015468               0.001262653               0.999999985               0.000016066               0.001297601               0.999999985               0.000016198               0.001334801               0.999999985               0.000015663               0.001373481               0.999999985               0.000014107               0.001413143               0.999999985               0.000011361               0.001453156               0.999999985               0.000007049               0.001492970               0.999999985               0.000000404               0.001532019               0.999999985              -0.000009058               0.001569652               0.999999985              -0.000022400               0.001605165               0.999999985               0.000000000               0.001134712               0.999999984               0.000000000               0.001152172               0.999999984               0.000000000               0.001162403               0.999999984               0.000000000               0.001175126               0.999999984              -0.000000000               0.001192867               0.999999985              -0.000000000               0.001215846               0.999999985               0.000000000               0.001243784               0.999999985              -0.000000000               0.001275953               0.999999985              -0.000000000               0.001311153               0.999999985              -0.000000000               0.001348625               0.999999985              -0.000000000               0.001387704               0.999999985               0.000000000               0.001427949               0.999999985               0.000000000               0.001468756               0.999999985              -0.000000000               0.001509573               0.999999985              -0.000000000               0.001549742               0.999999985              -0.000000000               0.001588598               0.999999985               0.000000000               0.001625402               0.999999985 </DataArray>
<DataArray type="Float64"                                    Name="defo"                                                      NumberOfComponents=" 3" format="ascii">
             -0.000489555               0.000000000               0.999999984              -0.000533063               0.000000000               0.999999984              -0.000552943               0.000000000               0.999999984              -0.000564566               0.000000000               0.999999984              -0.000573824               0.000000000               0.999999984              -0.000583065              -0.000000000               0.999999984              -0.000593078               0.000000000               0.999999984              -0.000604170              -0.000000000               0.999999984              -0.000616349               0.000000000               0.999999984              -0.000629414               0.000000000               0.999999984              -0.000643295               0.000000000               0.999999984              -0.000657764              -0.000000000               0.999999984              -0.000672627               0.000000000               0.999999984              -0.000687688               0.000000000               0.999999984              -0.000702510              -0.000000000               0.999999984              -0.000716733               0.000000000               0.999999984              -0.000729956               0.000000000               0.999999984              -0.000486819               0.000110949               0.999999984              -0.000527408               0.000092158               0.999999984              -0.000545424               0.000084708               0.999999984              -0.000555935               0.000082878               0.999999984              -0.000564505               0.000084223               0.999999984              -0.000573248               0.000087147               0.999999984              -0.000582920               0.000090981               0.999999984              -0.000593648               0.000095241               0.999999984              -0.000605396               0.000099505               0.999999984              -0.000617986               0.000103589               0.999999984              -0.000631186               0.000107116               0.999999984              -0.000644768               0.000110009               0.999999984              -0.000658637               0.000112082               0.999999984              -0.000672552               0.000112856               0.999999984              -0.000686148               0.000111862               0.999999984              -0.000699114               0.000108702               0.999999984              -0.000711119               0.000102493               0.999999984              -0.000478482               0.000220764               0.999999984              -0.000510538               0.000183676               0.999999984              -0.000523478               0.000169636               0.999999984              -0.000531029               0.000166825               0.999999984              -0.000537876               0.000170007               0.999999984              -0.000545464               0.000176321               0.999999984              -0.000554203               0.000184197               0.999999984              -0.000564071               0.000192768               0.999999984              -0.000574794               0.000201374               0.999999984              -0.000585966               0.000209398               0.999999984              -0.000597423               0.000216348               0.999999984              -0.000608941               0.000222085               0.999999984              -0.000620339               0.000226420               0.999999984              -0.000631415               0.000228598               0.999999984              -0.000641935               0.000227747               0.999999984              -0.000651739               0.000223297               0.999999984              -0.000660662               0.000214304               0.999999984              -0.000464831               0.000328245               0.999999984              -0.000483434               0.000274005               0.999999984              -0.000489027               0.000255034               0.999999984              -0.000492688               0.000252570               0.999999984              -0.000497412               0.000258464               0.999999984              -0.000503715               0.000268627               0.999999984              -0.000511463               0.000280867               0.999999984              -0.000520175               0.000293862               0.999999984              -0.000529352               0.000306619               0.999999984              -0.000538655               0.000318528               0.999999984              -0.000547870               0.000329050               0.999999984              -0.000556749               0.000337913               0.999999984              -0.000564957               0.000344635               0.999999984              -0.000572271               0.000348636               0.999999984              -0.000578630               0.000349374               0.999999984              -0.000584191               0.000346487               0.999999984              -0.000589283               0.000339477               0.999999984              -0.000446181               0.000432290               0.999999984              -0.000447562               0.000362732               0.999999984              -0.000445021               0.000340873               0.999999984              -0.000445040               0.000340196               0.999999984              -0.000448136               0.000349677               0.999999984              -0.000453625               0.000364119               0.999999984              -0.000460560               0.000380771               0.999999984              -0.000468127               0.000398129               0.999999984              -0.000475765               0.000414955               0.999999984              -0.000483132               0.000430620               0.999999984              -0.000489762               0.000444555               0.999999984              -0.000495366               0.000456458               0.999999984              -0.000499850               0.000465960               0.999999984              -0.000503233               0.000472749               0.999999984              -0.000505667               0.000476892               0.999999984              -0.000507585               0.000478419               0.999999984              -0.000509371               0.000477422               0.999999984              -0.000422854               0.000531859               0.999999984              -0.000404887               0.000449681               0.999999984              -0.000395073               0.000426903               0.999999984              -0.000392599               0.000429157               0.999999984              -0.000395015               0.000442783               0.999999984              -0.000400252               0.000461706               0.999999984              -0.000406741               0.000482756               0.999999984              -0.000413465               0.000504157               0.999999984              -0.000419696               0.000524858               0.999999984              -0.000424942               0.000544072               0.999999984              -0.000428930               0.000561233               0.999999984              -0.000431551               0.000576202               0.999999984              -0.000432807               0.000588960               0.999999984              -0.000432912               0.000599389               0.999999984              -0.000432137               0.000607931               0.999999984              -0.000430759               0.000614920               0.999999985              -0.000428904               0.000620240               0.999999985              -0.000395506               0.000625912               0.999999984              -0.000357923               0.000534624               0.999999984              -0.000342653               0.000512671               0.999999984              -0.000339399               0.000518431               0.999999984              -0.000342286               0.000536321               0.999999984              -0.000347836               0.000559533               0.999999984              -0.000354167               0.000584868               0.999999984              -0.000360123               0.000610311               0.999999984              -0.000364966               0.000634703               0.999999984              -0.000368276               0.000657181               0.999999984              -0.000369767               0.000677505               0.999999984              -0.000369309               0.000695655               0.999999984              -0.000367236               0.000711656               0.999999984              -0.000363753               0.000725856               0.999999985              -0.000359161               0.000738776               0.999999985              -0.000353493               0.000750299               0.999999985              -0.000346586               0.000759809               0.999999985              -0.000364720               0.000713544               0.999999984              -0.000308942               0.000617384               0.999999984              -0.000290804               0.000597346               0.999999984              -0.000288685               0.000606601               0.999999984              -0.000292888               0.000628471               0.999999984              -0.000299234               0.000655857               0.999999984              -0.000305669               0.000685311               0.999999984              -0.000310858               0.000714561               0.999999984              -0.000314154               0.000742518               0.999999984              -0.000314956               0.000768427               0.999999984              -0.000313107               0.000791727               0.999999984              -0.000308934               0.000812583               0.999999985              -0.000302684               0.000831519               0.999999985              -0.000294708               0.000848915               0.999999985              -0.000285131               0.000865130               0.999999985              -0.000273835               0.000879807               0.999999985              -0.000260981               0.000892203               0.999999985              -0.000331629               0.000793212               0.999999984              -0.000259619               0.000697884               0.999999984              -0.000242231               0.000679853               0.999999984              -0.000242496               0.000692180               0.999999984              -0.000248604               0.000717741               0.999999984              -0.000256032               0.000749126               0.999999984              -0.000262462               0.000782446               0.999999984              -0.000266544               0.000815513               0.999999984              -0.000267444               0.000846960               0.999999984              -0.000264814               0.000875464               0.999999984              -0.000258712               0.000901078               0.999999985              -0.000249570               0.000924278               0.999999985              -0.000237962               0.000945726               0.999999985              -0.000224368               0.000965828               0.999999985              -0.000209053               0.000984394               0.999999985              -0.000192479               0.001001250               0.999999985              -0.000174987               0.001016406               0.999999985              -0.000297857               0.000867995               0.999999984              -0.000219150               0.000785378               0.999999984              -0.000198677               0.000762547               0.999999984              -0.000197587               0.000768934               0.999999984              -0.000202957               0.000789682               0.999999984              -0.000210123               0.000817718               0.999999984              -0.000216675               0.000849136               0.999999984              -0.000221310               0.000881801               0.999999984              -0.000223293               0.000913811               0.999999984              -0.000221803               0.000944073               0.999999984              -0.000216687               0.000971806               0.999999985              -0.000208010               0.000996946               0.999999985              -0.000196239               0.001020121               0.999999985              -0.000182117               0.001041826               0.999999985              -0.000166175               0.001062493               0.999999985              -0.000149321               0.001081876               0.999999985              -0.000132112               0.001099974               0.999999985              -0.000260788               0.000935645               0.999999984              -0.000181403               0.000869391               0.999999984              -0.000157996               0.000846739               0.999999984              -0.000154832               0.000849090               0.999999984              -0.000158923               0.000865836               0.999999984              -0.000165327               0.000890796               0.999999984              -0.000171561               0.000920281               0.999999984              -0.000176307               0.000952232               0.999999984              -0.000178867               0.000984688               0.999999984              -0.000178483               0.001016155               0.999999985              -0.000174529               0.001045918               0.999999985              -0.000166721               0.001073399               0.999999985              -0.000155055               0.001098653               0.999999985              -0.000140387               0.001122034               0.999999985              -0.000123302               0.001144184               0.999999985              -0.000104500               0.001165393               0.999999985              -0.000084890               0.001185999               0.999999985              -0.000221309               0.000994648               0.999999984              -0.000146316               0.000947485               0.999999984              -0.000121356               0.000928716               0.999999984              -0.000115961               0.000929804               0.999999984              -0.000118305               0.000943937               0.999999984              -0.000123319               0.000966558               0.999999984              -0.000128732               0.000994496               0.999999984              -0.000133221               0.001025723               0.999999984              -0.000135937               0.001058405               0.999999984              -0.000136261               0.001091161               0.999999985              -0.000133250               0.001122844               0.999999985              -0.000126515               0.001152943               0.999999985              -0.000115776               0.001181004               0.999999985              -0.000101139               0.001206850               0.999999985              -0.000082973               0.001230956               0.999999985              -0.000061743               0.001253928               0.999999985              -0.000038102               0.001276364               0.999999985              -0.000179705               0.001044174               0.999999984              -0.000113808               0.001016645               0.999999984              -0.000089320               0.001004436               0.999999984              -0.000082330               0.001006763               0.999999984              -0.000082776               0.001020134               0.999999984              -0.000086121               0.001041493               0.999999984              -0.000090259               0.001068516               0.999999984              -0.000093961               0.001099476               0.999999984              -0.000096552               0.001132481               0.999999985              -0.000097214               0.001166386               0.999999985              -0.000094878               0.001200205               0.999999985              -0.000089217               0.001233061               0.999999985              -0.000079915               0.001264414               0.999999985              -0.000066428               0.001293836               0.999999985              -0.000048322               0.001321244               0.999999985              -0.000025548               0.001347019               0.999999985               0.000001818               0.001371758               0.999999985              -0.000136358               0.001083405               0.999999984              -0.000083509               0.001073920               0.999999984              -0.000061957               0.001069514               0.999999984              -0.000054566               0.001074781               0.999999984              -0.000053576               0.001088995               0.999999984              -0.000055319               0.001110287               0.999999984              -0.000058035               0.001137192               0.999999984              -0.000060794               0.001168195               0.999999985              -0.000062854               0.001201812               0.999999985              -0.000063417               0.001237026               0.999999985              -0.000061697               0.001272777               0.999999985              -0.000057315               0.001308347               0.999999985              -0.000049837               0.001343062               0.999999985              -0.000038509               0.001376440               0.999999985              -0.000022497               0.001408153               0.999999985              -0.000000812               0.001438005               0.999999985               0.000027174               0.001466248               0.999999985              -0.000091655               0.001111811               0.999999984              -0.000054830               0.001116757               0.999999984              -0.000038734               0.001119730               0.999999984              -0.000032483               0.001128515               0.999999984              -0.000030940               0.001144308               0.999999984              -0.000031526               0.001166281               0.999999984              -0.000033065               0.001193532               0.999999985              -0.000034853               0.001224970               0.999999985              -0.000036171               0.001259300               0.999999985              -0.000036532               0.001295674               0.999999985              -0.000035392               0.001333185               0.999999985              -0.000032421               0.001371132               0.999999985              -0.000027113               0.001408928               0.999999985              -0.000018886               0.001446001               0.999999985              -0.000006797               0.001481892               0.999999985               0.000010376               0.001516131               0.999999985               0.000033784               0.001548383               0.999999985              -0.000046033               0.001129021               0.999999984              -0.000027183               0.001143239               0.999999984              -0.000018589               0.001151449               0.999999984              -0.000014989               0.001163088               0.999999984              -0.000013864               0.001180335               0.999999984              -0.000013950               0.001203057               0.999999985              -0.000014628               0.001230778               0.999999985              -0.000015468               0.001262653               0.999999985              -0.000016066               0.001297601               0.999999985              -0.000016198               0.001334801               0.999999985              -0.000015663               0.001373481               0.999999985              -0.000014107               0.001413143               0.999999985              -0.000011361               0.001453156               0.999999985              -0.000007049               0.001492970               0.999999985              -0.000000404               0.001532019               0.999999985               0.000009058               0.001569652               0.999999985               0.000022400               0.001605165               0.999999985               0.000000000               0.001134712               0.999999984               0.000000000               0.001152172               0.999999984               0.000000000               0.001162403               0.999999984               0.000000000               0.001175126               0.999999984              -0.000000000               0.001192867               0.999999985              -0.000000000               0.001215846               0.999999985               0.000000000               0.001243784               0.999999985              -0.000000000               0.001275953               0.999999985              -0.000000000               0.001311153               0.999999985              -0.000000000               0.001348625               0.999999985              -0.000000000               0.001387704               0.999999985               0.000000000               0.001427949               0.999999985               0.000000000               0.001468756               0.999999985              -0.000000000               0.001509573               0.999999985              -0.000000000               0.001549742               0.999999985              -0.000000000               0.001588598               0.999999985               0.000000000               0.001625402               0.999999985              -0.000489555               0.000000000               0.999999984              -0.000533063               0.000000000               0.999999984              -0.000552943               0.000000000               0.999999984              -0.000564566               0.000000000               0.999999984              -0.000573824               0.000000000               0.999999984              -0.000583065              -0.000000000               0.999999984              -0.000593078               0.000000000               0.999999984              -0.000604170              -0.000000000               0.999999984              -0.000616349               0.000000000               0.999999984              -0.000629414               0.000000000               0.999999984              -0.000643295               0.000000000               0.999999984              -0.000657764              -0.000000000               0.999999984              -0.000672627               0.000000000               0.999999984              -0.000687688               0.000000000               0.999999984              -0.000702510              -0.000000000               0.999999984              -0.000716733               0.000000000               0.999999984              -0.000729956               0.000000000               0.999999984              -0.000486819              -0.000110949               0.999999984              -0.000527408              -0.000092158               0.999999984              -0.000545424              -0.000084708               0.999999984              -0.000555935              -0.000082878               0.999999984              -0.000564505              -0.000084223               0.999999984              -0.000573248              -0.000087147               0.999999984              -0.000582920              -0.000090981               0.999999984              -0.000593648              -0.000095241               0.999999984              -0.000605396              -0.000099505               0.999999984              -0.000617986              -0.000103589               0.999999984              -0.000631186              -0.000107116               0.999999984              -0.000644768              -0.000110009               0.999999984              -0.000658637              -0.000112082               0.999999984              -0.000672552              -0.000112856               0.999999984              -0.000686148              -0.000111862               0.999999984              -0.000699114              -0.000108702               0.999999984              -0.000711119              -0.000102493               0.999999984              -0.000478482              -0.000220764               0.999999984              -0.000510538              -0.000183676               0.999999984              -0.000523478              -0.000169636               0.999999984              -0.000531029              -0.000166825               0.999999984              -0.000537876              -0.000170007               0.999999984              -0.000545464              -0.000176321               0.999999984              -0.000554203              -0.000184197               0.999999984              -0.000564071              -0.000192768               0.999999984              -0.000574794              -0.000201374               0.999999984              -0.000585966              -0.000209398               0.999999984              -0.000597423              -0.000216348               0.999999984              -0.000608941              -0.000222085               0.999999984              -0.000620339              -0.000226420               0.999999984              -0.000631415              -0.000228598               0.999999984              -0.000641935              -0.000227747               0.999999984              -0.000651739              -0.000223297               0.999999984              -0.000660662              -0.000214304               0.999999984              -0.000464831              -0.000328245               0.999999984              -0.000483434              -0.000274005               0.999999984              -0.000489027              -0.000255034               0.999999984              -0.000492688              -0.000252570               0.999999984              -0.000497412              -0.000258464               0.999999984              -0.000503715              -0.000268627               0.999999984              -0.000511463              -0.000280867               0.999999984              -0.000520175              -0.000293862               0.999999984              -0.000529352              -0.000306619               0.999999984              -0.000538655              -0.000318528               0.999999984              -0.000547870              -0.000329050               0.999999984              -0.000556749              -0.000337913               0.999999984              -0.000564957              -0.000344635               0.999999984              -0.000572271              -0.000348636               0.999999984              -0.000578630              -0.000349374               0.999999984              -0.000584191              -0.000346487               0.999999984              -0.000589283              -0.000339477               0.999999984              -0.000446181              -0.000432290               0.999999984              -0.000447562              -0.000362732               0.999999984              -0.000445021              -0.000340873               0.999999984              -0.000445040              -0.000340196               0.999999984              -0.000448136              -0.000349677               0.999999984              -0.000453625              -0.000364119               0.999999984              -0.000460560              -0.000380771               0.999999984              -0.000468127              -0.000398129               0.999999984              -0.000475765              -0.000414955               0.999999984              -0.000483132              -0.000430620               0.999999984              -0.000489762              -0.000444555               0.999999984              -0.000495366              -0.000456458               0.999999984              -0.000499850              -0.000465960               0.999999984              -0.000503233              -0.000472749               0.999999984              -0.000505667              -0.000476892               0.999999984              -0.000507585              -0.000478419               0.999999984              -0.000509371              -0.000477422               0.999999984              -0.000422854              -0.000531859               0.999999984              -0.000404887              -0.000449681               0.999999984              -0.000395073              -0.000426903               0.999999984              -0.000392599              -0.000429157               0.999999984              -0.000395015              -0.000442783               0.999999984              -0.000400252              -0.000461706               0.999999984              -0.000406741              -0.000482756               0.999999984              -0.000413465              -0.000504157               0.999999984              -0.000419696              -0.000524858               0.999999984              -0.000424942              -0.000544072               0.999999984              -0.000428930              -0.000561233               0.999999984              -0.000431551              -0.000576202               0.999999984              -0.000432807              -0.000588960               0.999999984              -0.000432912              -0.000599389               0.999999984              -0.000432137              -0.000607931               0.999999984              -0.000430759              -0.000614920               0.999999985              -0.000428904              -0.000620240               0.999999985              -0.000395506              -0.000625912               0.999999984              -0.000357923              -0.000534624               0.999999984              -0.000342653              -0.000512671               0.999999984              -0.000339399              -0.000518431               0.999999984              -0.000342286              -0.000536321               0.999999984              -0.000347836              -0.000559533               0.999999984              -0.000354167              -0.000584868               0.999999984              -0.000360123              -0.000610311               0.999999984              -0.000364966              -0.000634703               0.999999984              -0.000368276              -0.000657181               0.999999984              -0.000369767              -0.000677505               0.999999984              -0.000369309              -0.000695655               0.999999984              -0.000367236              -0.000711656               0.999999984              -0.000363753              -0.000725856               0.999999985              -0.000359161              -0.000738776               0.999999985              -0.000353493              -0.000750299               0.999999985              -0.000346586              -0.000759809               0.999999985              -0.000364720              -0.000713544               0.999999984              -0.000308942              -0.000617384               0.999999984              -0.000290804              -0.000597346               0.999999984              -0.000288685              -0.000606601               0.999999984              -0.000292888              -0.000628471               0.999999984              -0.000299234              -0.000655857               0.999999984              -0.000305669              -0.000685311               0.999999984              -0.000310858              -0.000714561               0.999999984              -0.000314154              -0.000742518               0.999999984              -0.000314956              -0.000768427               0.999999984              -0.000313107              -0.000791727               0.999999984              -0.000308934              -0.000812583               0.999999985              -0.000302684              -0.000831519               0.999999985              -0.000294708              -0.000848915               0.999999985              -0.000285131              -0.000865130               0.999999985              -0.000273835              -0.000879807               0.999999985              -0.000260981              -0.000892203               0.999999985              -0.000331629              -0.000793212               0.999999984              -0.000259619              -0.000697884               0.999999984              -0.000242231              -0.000679853               0.999999984              -0.000242496              -0.000692180               0.999999984              -0.000248604              -0.000717741               0.999999984              -0.000256032              -0.000749126               0.999999984              -0.000262462              -0.000782446               0.999999984              -0.000266544              -0.000815513               0.999999984              -0.000267444              -0.000846960               0.999999984              -0.000264814              -0.000875464               0.999999984              -0.000258712              -0.000901078               0.999999985              -0.000249570              -0.000924278               0.999999985              -0.000237962              -0.000945726               0.999999985              -0.000224368              -0.000965828               0.999999985              -0.000209053              -0.000984394               0.999999985              -0.000192479              -0.001001250               0.999999985              -0.000174987              -0.001016406               0.999999985              -0.000297857              -0.000867995               0.999999984              -0.000219150              -0.000785378               0.999999984              -0.000198677              -0.000762547               0.999999984              -0.000197587              -0.000768934               0.999999984              -0.000202957              -0.000789682               0.999999984              -0.000210123              -0.000817718               0.999999984              -0.000216675              -0.000849136               0.999999984              -0.000221310              -0.000881801               0.999999984              -0.000223293              -0.000913811               0.999999984              -0.000221803              -0.000944073               0.999999984              -0.000216687              -0.000971806               0.999999985              -0.000208010              -0.000996946               0.999999985              -0.000196239              -0.001020121               0.999999985              -0.000182117              -0.001041826               0.999999985              -0.000166175              -0.001062493               0.999999985              -0.000149321              -0.001081876               0.999999985              -0.000132112              -0.001099974               0.999999985              -0.000260788              -0.000935645               0.999999984              -0.000181403              -0.000869391               0.999999984              -0.000157996              -0.000846739               0.999999984              -0.000154832              -0.000849090               0.999999984              -0.000158923              -0.000865836               0.999999984              -0.000165327              -0.000890796               0.999999984              -0.000171561              -0.000920281               0.999999984              -0.000176307              -0.000952232               0.999999984              -0.000178867              -0.000984688               0.999999984              -0.000178483              -0.001016155               0.999999985              -0.000174529              -0.001045918               0.999999985              -0.000166721              -0.001073399               0.999999985              -0.000155055              -0.001098653               0.999999985              -0.000140387              -0.001122034               0.999999985              -0.000123302              -0.001144184               0.999999985              -0.000104500              -0.001165393               0.999999985              -0.000084890              -0.001185999               0.999999985              -0.000221309              -0.000994648               0.999999984              -0.000146316              -0.000947485               0.999999984              -0.000121356              -0.000928716               0.999999984              -0.000115961              -0.000929804               0.999999984              -0.000118305              -0.000943937               0.999999984              -0.000123319              -0.000966558               0.999999984              -0.000128732              -0.000994496               0.999999984              -0.000133221              -0.001025723               0.999999984              -0.000135937              -0.001058405               0.999999984              -0.000136261              -0.001091161               0.999999985              -0.000133250              -0.001122844               0.999999985              -0.000126515              -0.001152943               0.999999985              -0.000115776              -0.001181004               0.999999985              -0.000101139              -0.001206850               0.999999985              -0.000082973              -0.001230956               0.999999985              -0.000061743              -0.001253928               0.999999985              -0.000038102              -0.001276364               0.999999985              -0.000179705              -0.001044174               0.999999984              -0.000113808              -0.001016645               0.999999984              -0.000089320              -0.001004436               0.999999984              -0.000082330              -0.001006763               0.999999984              -0.000082776              -0.001020134               0.999999984              -0.000086121              -0.001041493               0.999999984              -0.000090259              -0.001068516               0.999999984              -0.000093961              -0.001099476               0.999999984              -0.000096552              -0.001132481               0.999999985              -0.000097214              -0.001166386               0.999999985              -0.000094878              -0.001200205               0.999999985              -0.000089217              -0.001233061               0.999999985              -0.000079915              -0.001264414               0.999999985              -0.000066428              -0.001293836               0.999999985              -0.000048322              -0.001321244               0.999999985              -0.000025548              -0.001347019               0.999999985               0.000001818              -0.001371758               0.999999985              -0.000136358              -0.001083405               0.999999984              -0.000083509              -0.001073920               0.999999984              -0.000061957              -0.001069514               0.999999984              -0.000054566              -0.001074781               0.999999984              -0.000053576              -0.001088995               0.999999984              -0.000055319              -0.001110287               0.999999984              -0.000058035              -0.001137192               0.999999984              -0.000060794              -0.001168195               0.999999985              -0.000062854              -0.001201812               0.999999985              -0.000063417              -0.001237026               0.999999985              -0.000061697              -0.001272777               0.999999985              -0.000057315              -0.001308347               0.999999985              -0.000049837              -0.001343062               0.999999985              -0.000038509              -0.001376440               0.999999985              -0.000022497              -0.001408153               0.999999985              -0.000000812              -0.001438005               0.999999985               0.000027174              -0.001466248               0.999999985              -0.000091655              -0.001111811               0.999999984              -0.000054830              -0.001116757               0.999999984              -0.000038734              -0.001119730               0.999999984              -0.000032483              -0.001128515               0.999999984              -0.000030940              -0.001144308               0.999999984              -0.000031526              -0.001166281               0.999999984              -0.000033065              -0.001193532               0.999999985              -0.000034853              -0.001224970               0.999999985              -0.000036171              -0.001259300               0.999999985              -0.000036532              -0.001295674               0.999999985              -0.000035392              -0.001333185               0.999999985              -0.000032421              -0.001371132               0.999999985              -0.000027113              -0.001408928               0.999999985              -0.000018886              -0.001446001               0.999999985              -0.000006797              -0.001481892               0.999999985               0.000010376              -0.001516131               0.999999985               0.000033784              -0.001548383               0.999999985              -0.000046033              -0.001129021               0.999999984              -0.000027183              -0.001143239               0.999999984              -0.000018589              -0.001151449               0.999999984              -0.000014989              -0.001163088               0.999999984              -0.000013864              -0.001180335               0.999999984              -0.000013950              -0.001203057               0.999999985              -0.000014628              -0.001230778               0.999999985              -0.000015468              -0.001262653               0.999999985              -0.000016066              -0.001297601               0.999999985              -0.000016198              -0.001334801               0.999999985              -0.000015663              -0.001373481               0.999999985              -0.000014107              -0.001413143               0.999999985              -0.000011361              -0.001453156               0.999999985              -0.000007049              -0.001492970               0.999999985              -0.000000404              -0.001532019               0.999999985               0.000009058              -0.001569652               0.999999985               0.000022400              -0.001605165               0.999999985               0.000000000              -0.001134712               0.999999984              -0.000000000              -0.001152172               0.999999984              -0.000000000              -0.001162403               0.999999984               0.000000000              -0.001175126               0.999999984              -0.000000000              -0.001192867               0.999999985              -0.000000000              -0.001215846               0.999999985               0.000000000              -0.001243784               0.999999985              -0.000000000              -0.001275953               0.999999985              -0.000000000              -0.001311153               0.999999985               0.000000000              -0.001348625               0.999999985               0.000000000              -0.001387704               0.999999985               0.000000000              -0.001427949               0.999999985               0.000000000              -0.001468756               0.999999985              -0.000000000              -0.001509573               0.999999985              -0.000000000              -0.001549742               0.999999985               0.000000000              -0.001588598               0.999999985               0.000000000              -0.001625402               0.999999985               0.000489555              -0.000000000               0.999999984               0.000533063               0.000000000               0.999999984               0.000552943               0.000000000               0.999999984               0.000564566               0.000000000               0.999999984               0.000573824              -0.000000000               0.999999984               0.000583065               0.000000000               0.999999984               0.000593078               0.000000000               0.999999984               0.000604170               0.000000000               0.999999984               0.000616349               0.000000000               0.999999984               0.000629414               0.000000000               0.999999984               0.000643295               0.000000000               0.999999984               0.000657764               0.000000000               0.999999984               0.000672627               0.000000000               0.999999984               0.000687688               0.000000000               0.999999984               0.000702510              -0.000000000               0.999999984               0.000716733              -0.000000000               0.999999984               0.000729956              -0.000000000               0.999999984               0.000486819              -0.000110949               0.999999984               0.000527408              -0.000092158               0.999999984               0.000545424              -0.000084708               0.999999984               0.000555935              -0.000082878               0.999999984               0.000564505              -0.000084223               0.999999984               0.000573248              -0.000087147               0.999999984               0.000582920              -0.000090981               0.999999984               0.000593648              -0.000095241               0.999999984               0.000605396              -0.000099505               0.999999984               0.000617986              -0.000103589               0.999999984               0.000631186              -0.000107116               0.999999984               0.000644768              -0.000110009               0.999999984               0.000658637              -0.000112082               0.999999984               0.000672552              -0.000112856               0.999999984               0.000686148              -0.000111862               0.999999984               0.000699114              -0.000108702               0.999999984               0.000711119              -0.000102493               0.999999984               0.000478482              -0.000220764               0.999999984               0.000510538              -0.000183676               0.999999984               0.000523478              -0.000169636               0.999999984               0.000531029              -0.000166825               0.999999984               0.000537876              -0.000170007               0.999999984               0.000545464              -0.000176321               0.999999984               0.000554203              -0.000184197               0.999999984               0.000564071              -0.000192768               0.999999984               0.000574794              -0.000201374               0.999999984               0.000585966              -0.000209398               0.999999984               0.000597423              -0.000216348               0.999999984               0.000608941              -0.000222085               0.999999984               0.000620339              -0.000226420               0.999999984               0.000631415              -0.000228598               0.999999984               0.000641935              -0.000227747               0.999999984               0.000651739              -0.000223297               0.999999984               0.000660662              -0.000214304               0.999999984               0.000464831              -0.000328245               0.999999984               0.000483434              -0.000274005               0.999999984               0.000489027              -0.000255034               0.999999984               0.000492688              -0.000252570               0.999999984               0.000497412              -0.000258464               0.999999984               0.000503715              -0.000268627               0.999999984               0.000511463              -0.000280867               0.999999984               0.000520175              -0.000293862               0.999999984               0.000529352              -0.000306619               0.999999984               0.000538655              -0.000318528               0.999999984               0.000547870              -0.000329050               0.999999984               0.000556749              -0.000337913               0.999999984               0.000564957              -0.000344635               0.999999984               0.000572271              -0.000348636               0.999999984               0.000578630              -0.000349374               0.999999984               0.000584191              -0.000346487               0.999999984               0.000589283              -0.000339477               0.999999984               0.000446181              -0.000432290               0.999999984               0.000447562              -0.000362732               0.999999984               0.000445021              -0.000340873               0.999999984               0.000445040              -0.000340196               0.999999984               0.000448136              -0.000349677               0.999999984               0.000453625              -0.000364119               0.999999984               0.000460560              -0.000380771               0.999999984               0.000468127              -0.000398129               0.999999984               0.000475765              -0.000414955               0.999999984               0.000483132              -0.000430620               0.999999984               0.000489762              -0.000444555               0.999999984               0.000495366              -0.000456458               0.999999984               0.000499850              -0.000465960               0.999999984               0.000503233              -0.000472749               0.999999984               0.000505667              -0.000476892               0.999999984               0.000507585              -0.000478419               0.999999984               0.000509371              -0.000477422               0.999999984               0.000422854              -0.000531859               0.999999984               0.000404887              -0.000449681               0.999999984               0.000395073              -0.000426903               0.999999984               0.000392599              -0.000429157               0.999999984               0.000395015              -0.000442783               0.999999984               0.000400252              -0.000461706               0.999999984               0.000406741              -0.000482756               0.999999984               0.000413465              -0.000504157               0.999999984               0.000419696              -0.000524858               0.999999984               0.000424942              -0.000544072               0.999999984               0.000428930              -0.000561233               0.999999984               0.000431551              -0.000576202               0.999999984               0.000432807              -0.000588960               0.999999984               0.000432912              -0.000599389               0.999999984               0.000432137              -0.000607931               0.999999984               0.000430759              -0.000614920               0.999999985               0.000428904              -0.000620240               0.999999985               0.000395506              -0.000625912               0.999999984               0.000357923              -0.000534624               0.999999984               0.000342653              -0.000512671               0.999999984               0.000339399              -0.000518431               0.999999984               0.000342286              -0.000536321               0.999999984               0.000347836              -0.000559533               0.999999984               0.000354167              -0.000584868               0.999999984               0.000360123              -0.000610311               0.999999984               0.000364966              -0.000634703               0.999999984               0.000368276              -0.000657181               0.999999984               0.000369767              -0.000677505               0.999999984               0.000369309              -0.000695655               0.999999984               0.000367236              -0.000711656               0.999999984               0.000363753              -0.000725856               0.999999985               0.000359161              -0.000738776               0.999999985               0.000353493              -0.000750299               0.999999985               0.000346586              -0.000759809               0.999999985               0.000364720              -0.000713544               0.999999984               0.000308942              -0.000617384               0.999999984               0.000290804              -0.000597346               0.999999984               0.000288685              -0.000606601               0.999999984               0.000292888              -0.000628471               0.999999984               0.000299234              -0.000655857               0.999999984               0.000305669              -0.000685311               0.999999984               0.000310858              -0.000714561               0.999999984               0.000314154              -0.000742518               0.999999984               0.000314956              -0.000768427               0.999999984               0.000313107              -0.000791727               0.999999984               0.000308934              -0.000812583               0.999999985               0.000302684              -0.000831519               0.999999985               0.000294708              -0.000848915               0.999999985               0.000285131              -0.000865130               0.999999985               0.000273835              -0.000879807               0.999999985               0.000260981              -0.000892203               0.999999985               0.000331629              -0.000793212               0.999999984               0.000259619              -0.000697884               0.999999984               0.000242231              -0.000679853               0.999999984               0.000242496              -0.000692180               0.999999984               0.000248604              -0.000717741               0.999999984               0.000256032              -0.000749126               0.999999984               0.000262462              -0.000782446               0.999999984               0.000266544              -0.000815513               0.999999984               0.000267444              -0.000846960               0.999999984               0.000264814              -0.000875464               0.999999984               0.000258712              -0.000901078               0.999999985               0.000249570              -0.000924278               0.999999985               0.000237962              -0.000945726               0.999999985               0.000224368              -0.000965828               0.999999985               0.000209053              -0.000984394               0.999999985               0.000192479              -0.001001250               0.999999985               0.000174987              -0.001016406               0.999999985               0.000297857              -0.000867995               0.999999984               0.000219150              -0.000785378               0.999999984               0.000198677              -0.000762547               0.999999984               0.000197587              -0.000768934               0.999999984               0.000202957              -0.000789682               0.999999984               0.000210123              -0.000817718               0.999999984               0.000216675              -0.000849136               0.999999984               0.000221310              -0.000881801               0.999999984               0.000223293              -0.000913811               0.999999984               0.000221803              -0.000944073               0.999999984               0.000216687              -0.000971806               0.999999985               0.000208010              -0.000996946               0.999999985               0.000196239              -0.001020121               0.999999985               0.000182117              -0.001041826               0.999999985               0.000166175              -0.001062493               0.999999985               0.000149321              -0.001081876               0.999999985               0.000132112              -0.001099974               0.999999985               0.000260788              -0.000935645               0.999999984               0.000181403              -0.000869391               0.999999984               0.000157996              -0.000846739               0.999999984               0.000154832              -0.000849090               0.999999984               0.000158923              -0.000865836               0.999999984               0.000165327              -0.000890796               0.999999984               0.000171561              -0.000920281               0.999999984               0.000176307              -0.000952232               0.999999984               0.000178867              -0.000984688               0.999999984               0.000178483              -0.001016155               0.999999985               0.000174529              -0.001045918               0.999999985               0.000166721              -0.001073399               0.999999985               0.000155055              -0.001098653               0.999999985               0.000140387              -0.001122034               0.999999985               0.000123302              -0.001144184               0.999999985               0.000104500              -0.001165393               0.999999985               0.000084890              -0.001185999               0.999999985               0.000221309              -0.000994648               0.999999984               0.000146316              -0.000947485               0.999999984               0.000121356              -0.000928716               0.999999984               0.000115961              -0.000929804               0.999999984               0.000118305              -0.000943937               0.999999984               0.000123319              -0.000966558               0.999999984               0.000128732              -0.000994496               0.999999984               0.000133221              -0.001025723               0.999999984               0.000135937              -0.001058405               0.999999984               0.000136261              -0.001091161               0.999999985               0.000133250              -0.001122844               0.999999985               0.000126515              -0.001152943               0.999999985               0.000115776              -0.001181004               0.999999985               0.000101139              -0.001206850               0.999999985               0.000082973              -0.001230956               0.999999985               0.000061743              -0.001253928               0.999999985               0.000038102              -0.001276364               0.999999985               0.000179705              -0.001044174               0.999999984               0.000113808              -0.001016645               0.999999984               0.000089320              -0.001004436               0.999999984               0.000082330              -0.001006763               0.999999984               0.000082776              -0.001020134               0.999999984               0.000086121              -0.001041493               0.999999984               0.000090259              -0.001068516               0.999999984               0.000093961              -0.001099476               0.999999984               0.000096552              -0.001132481               0.999999985               0.000097214              -0.001166386               0.999999985               0.000094878              -0.001200205               0.999999985               0.000089217              -0.001233061               0.999999985               0.000079915              -0.001264414               0.999999985               0.000066428              -0.001293836               0.999999985               0.000048322              -0.001321244               0.999999985               0.000025548              -0.001347019               0.999999985              -0.000001818              -0.001371758               0.999999985               0.000136358              -0.001083405               0.999999984               0.000083509              -0.001073920               0.999999984               0.000061957              -0.001069514               0.999999984               0.000054566              -0.001074781               0.999999984               0.000053576              -0.001088995               0.999999984               0.000055319              -0.001110287               0.999999984               0.000058035              -0.001137192               0.999999984               0.000060794              -0.001168195               0.999999985               0.000062854              -0.001201812               0.999999985               0.000063417              -0.001237026               0.999999985               0.000061697              -0.001272777               0.999999985               0.000057315              -0.001308347               0.999999985               0.000049837              -0.001343062               0.999999985               0.000038509              -0.001376440               0.999999985               0.000022497              -0.001408153               0.999999985               0.000000812              -0.001438005               0.999999985              -0.000027174              -0.001466248               0.999999985               0.000091655              -0.001111811               0.999999984               0.000054830              -0.001116757               0.999999984               0.000038734              -0.001119730               0.999999984               0.000032483              -0.001128515               0.999999984               0.000030940              -0.001144308               0.999999984               0.000031526              -0.001166281               0.999999984               0.000033065              -0.001193532               0.999999985               0.000034853              -0.001224970               0.999999985               0.000036171              -0.001259300               0.999999985               0.000036532              -0.001295674               0.999999985               0.000035392              -0.001333185               0.999999985               0.000032421              -0.001371132               0.999999985               0.000027113              -0.001408928               0.999999985               0.000018886              -0.001446001               0.999999985               0.000006797              -0.001481892               0.999999985              -0.000010376              -0.001516131               0.999999985              -0.000033784              -0.001548383               0.999999985               0.000046033              -0.001129021               0.999999984               0.000027183              -0.001143239               0.999999984               0.000018589              -0.001151449               0.999999984               0.000014989              -0.001163088               0.999999984               0.000013864              -0.001180335               0.999999984               0.000013950              -0.001203057               0.999999985               0.000014628              -0.001230778               0.999999985               0.000015468              -0.001262653               0.999999985               0.000016066              -0.001297601               0.999999985               0.000016198              -0.001334801               0.999999985               0.000015663              -0.001373481               0.999999985               0.000014107              -0.001413143               0.999999985               0.000011361              -0.001453156               0.999999985               0.000007049              -0.001492970               0.999999985               0.000000404              -0.001532019               0.999999985              -0.000009058              -0.001569652               0.999999985              -0.000022400              -0.001605165               0.999999985               0.000000000              -0.001134712               0.999999984              -0.000000000              -0.001152172               0.999999984              -0.000000000              -0.001162403               0.999999984               0.000000000              -0.001175126               0.999999984              -0.000000000              -0.001192867               0.999999985              -0.000000000              -0.001215846               0.999999985               0.000000000              -0.001243784               0.999999985              -0.000000000              -0.001275953               0.999999985              -0.000000000              -0.001311153               0.999999985               0.000000000              -0.001348625               0.999999985               0.000000000              -0.001387704               0.999999985               0.000000000              -0.001427949               0.999999985               0.000000000              -0.001468756               0.999999985              -0.000000000              -0.001509573               0.999999985              -0.000000000              -0.001549742               0.999999985               0.000000000              -0.001588598               0.999999985               0.000000000              -0.001625402               0.999999985               0.000489555              -0.000000000               0.999999984               0.000533063               0.000000000               0.999999984               0.000552943               0.000000000               0.999999984               0.000564566               0.000000000               0.999999984               0.000573824              -0.000000000               0.999999984               0.000583065               0.000000000               0.999999984               0.000593078               0.000000000               0.999999984               0.000604170               0.000000000               0.999999984               0.000616349               0.000000000               0.999999984               0.000629414               0.000000000               0.999999984               0.000643295               0.000000000               0.999999984               0.000657764               0.000000000               0.999999984               0.000672627               0.000000000               0.999999984               0.000687688               0.000000000               0.999999984               0.000702510              -0.000000000               0.999999984               0.000716733              -0.000000000               0.999999984               0.000729956              -0.000000000               0.999999984               0.000486819               0.000110949               0.999999984               0.000527408               0.000092158               0.999999984               0.000545424               0.000084708               0.999999984               0.000555935               0.000082878               0.999999984               0.000564505               0.000084223               0.999999984               0.000573248               0.000087147               0.999999984               0.000582920               0.000090981               0.999999984               0.000593648               0.000095241               0.999999984               0.000605396               0.000099505               0.999999984               0.000617986               0.000103589               0.999999984               0.000631186               0.000107116               0.999999984               0.000644768               0.000110009               0.999999984               0.000658637               0.000112082               0.999999984               0.000672552               0.000112856               0.999999984               0.000686148               0.000111862               0.999999984               0.000699114               0.000108702               0.999999984               0.000711119               0.000102493               0.999999984               0.000478482               0.000220764               0.999999984               0.000510538               0.000183676               0.999999984               0.000523478               0.000169636               0.999999984               0.000531029               0.000166825               0.999999984               0.000537876               0.000170007               0.999999984               0.000545464               0.000176321               0.999999984               0.000554203               0.000184197               0.999999984               0.000564071               0.000192768               0.999999984               0.000574794               0.000201374               0.999999984               0.000585966               0.000209398               0.999999984               0.000597423               0.000216348               0.999999984               0.000608941               0.000222085               0.999999984               0.000620339               0.000226420               0.999999984               0.000631415               0.000228598               0.999999984               0.000641935               0.000227747               0.999999984               0.000651739               0.000223297               0.999999984               0.000660662               0.000214304               0.999999984               0.000464831               0.000328245               0.999999984               0.000483434               0.000274005               0.999999984               0.000489027               0.000255034               0.999999984               0.000492688               0.000252570               0.999999984               0.000497412               0.000258464               0.999999984               0.000503715               0.000268627               0.999999984               0.000511463               0.000280867               0.999999984               0.000520175               0.000293862               0.999999984               0.000529352               0.000306619               0.999999984               0.000538655               0.000318528               0.999999984               0.000547870               0.000329050               0.999999984               0.000556749               0.000337913               0.999999984               0.000564957               0.000344635               0.999999984               0.000572271               0.000348636               0.999999984               0.000578630               0.000349374               0.999999984               0.000584191               0.000346487               0.999999984               0.000589283               0.000339477               0.999999984               0.000446181               0.000432290               0.999999984               0.000447562               0.000362732               0.999999984               0.000445021               0.000340873               0.999999984               0.000445040               0.000340196               0.999999984               0.000448136               0.000349677               0.999999984               0.000453625               0.000364119               0.999999984               0.000460560               0.000380771               0.999999984               0.000468127               0.000398129               0.999999984               0.000475765               0.000414955               0.999999984               0.000483132               0.000430620               0.999999984               0.000489762               0.000444555               0.999999984               0.000495366               0.000456458               0.999999984               0.000499850               0.000465960               0.999999984               0.000503233               0.000472749               0.999999984               0.000505667               0.000476892               0.999999984               0.000507585               0.000478419               0.999999984               0.000509371               0.000477422               0.999999984               0.000422854               0.000531859               0.999999984               0.000404887               0.000449681               0.999999984               0.000395073               0.000426903               0.999999984               0.000392599               0.000429157               0.999999984               0.000395015               0.000442783               0.999999984               0.000400252               0.000461706               0.999999984               0.000406741               0.000482756               0.999999984               0.000413465               0.000504157               0.999999984               0.000419696               0.000524858               0.999999984               0.000424942               0.000544072               0.999999984               0.000428930               0.000561233               0.999999984               0.000431551               0.000576202               0.999999984               0.000432807               0.000588960               0.999999984               0.000432912               0.000599389               0.999999984               0.000432137               0.000607931               0.999999984               0.000430759               0.000614920               0.999999985               0.000428904               0.000620240               0.999999985               0.000395506               0.000625912               0.999999984               0.000357923               0.000534624               0.999999984               0.000342653               0.000512671               0.999999984               0.000339399               0.000518431               0.999999984               0.000342286               0.000536321               0.999999984               0.000347836               0.000559533               0.999999984               0.000354167               0.000584868               0.999999984               0.000360123               0.000610311               0.999999984               0.000364966               0.000634703               0.999999984               0.000368276               0.000657181               0.999999984               0.000369767               0.000677505               0.999999984               0.000369309               0.000695655               0.999999984               0.000367236               0.000711656               0.999999984               0.000363753               0.000725856               0.999999985               0.000359161               0.000738776               0.999999985               0.000353493               0.000750299               0.999999985               0.000346586               0.000759809               0.999999985               0.000364720               0.000713544               0.999999984               0.000308942               0.000617384               0.999999984               0.000290804               0.000597346               0.999999984               0.000288685               0.000606601               0.999999984               0.000292888               0.000628471               0.999999984               0.000299234               0.000655857               0.999999984               0.000305669               0.000685311               0.999999984               0.000310858               0.000714561               0.999999984               0.000314154               0.000742518               0.999999984               0.000314956               0.000768427               0.999999984               0.000313107               0.000791727               0.999999984               0.000308934               0.000812583               0.999999985               0.000302684               0.000831519               0.999999985               0.000294708               0.000848915               0.999999985               0.000285131               0.000865130               0.999999985               0.000273835               0.000879807               0.999999985               0.000260981               0.000892203               0.999999985               0.000331629               0.000793212               0.999999984               0.000259619               0.000697884               0.999999984               0.000242231               0.000679853               0.999999984               0.000242496               0.000692180               0.999999984               0.000248604               0.000717741               0.999999984               0.000256032               0.000749126               0.999999984               0.000262462               0.000782446               0.999999984               0.000266544               0.000815513               0.999999984               0.000267444               0.000846960               0.999999984               0.000264814               0.000875464               0.999999984               0.000258712               0.000901078               0.999999985               0.000249570               0.000924278               0.999999985               0.000237962               0.000945726               0.999999985               0.000224368               0.000965828               0.999999985               0.000209053               0.000984394               0.999999985               0.000192479               0.001001250               0.999999985               0.000174987               0.001016406               0.999999985               0.000297857               0.000867995               0.999999984               0.000219150               0.000785378               0.999999984               0.000198677               0.000762547               0.999999984               0.000197587               0.000768934               0.999999984               0.000202957               0.000789682               0.999999984               0.000210123               0.000817718               0.999999984               0.000216675               0.000849136               0.999999984               0.000221310               0.000881801               0.999999984               0.000223293               0.000913811               0.999999984               0.000221803               0.000944073               0.999999984               0.000216687               0.000971806               0.999999985               0.000208010               0.000996946               0.999999985               0.000196239               0.001020121               0.999999985               0.000182117               0.001041826               0.999999985               0.000166175               0.001062493               0.999999985               0.000149321               0.001081876               0.999999985               0.000132112               0.001099974               0.999999985               0.000260788               0.000935645               0.999999984               0.000181403               0.000869391               0.999999984               0.000157996               0.000846739               0.999999984               0.000154832               0.000849090               0.999999984               0.000158923               0.000865836               0.999999984               0.000165327               0.000890796               0.999999984               0.000171561               0.000920281               0.999999984               0.000176307               0.000952232               0.999999984               0.000178867               0.000984688               0.999999984               0.000178483               0.001016155               0.999999985               0.000174529               0.001045918               0.999999985               0.000166721               0.001073399               0.999999985               0.000155055               0.001098653               0.999999985               0.000140387               0.001122034               0.999999985               0.000123302               0.001144184               0.999999985               0.000104500               0.001165393               0.999999985               0.000084890               0.001185999               0.999999985               0.000221309               0.000994648               0.999999984               0.000146316               0.000947485               0.999999984               0.000121356               0.000928716               0.999999984               0.000115961               0.000929804               0.999999984               0.000118305               0.000943937               0.999999984               0.000123319               0.000966558               0.999999984               0.000128732               0.000994496               0.999999984               0.000133221               0.001025723               0.999999984               0.000135937               0.001058405               0.999999984               0.000136261               0.001091161               0.999999985               0.000133250               0.001122844               0.999999985               0.000126515               0.001152943               0.999999985               0.000115776               0.001181004               0.999999985               0.000101139               0.001206850               0.999999985               0.000082973               0.001230956               0.999999985               0.000061743               0.001253928               0.999999985               0.000038102               0.001276364               0.999999985               0.000179705               0.001044174               0.999999984               0.000113808               0.001016645               0.999999984               0.000089320               0.001004436               0.999999984               0.000082330               0.001006763               0.999999984               0.000082776               0.001020134               0.999999984               0.000086121               0.001041493               0.999999984               0.000090259               0.001068516               0.999999984               0.000093961               0.001099476               0.999999984               0.000096552               0.001132481               0.999999985               0.000097214               0.001166386               0.999999985               0.000094878               0.001200205               0.999999985               0.000089217               0.001233061               0.999999985               0.000079915               0.001264414               0.999999985               0.000066428               0.001293836               0.999999985               0.000048322               0.001321244               0.999999985               0.000025548               0.001347019               0.999999985              -0.000001818               0.001371758               0.999999985               0.000136358               0.001083405               0.999999984               0.000083509               0.001073920               0.999999984               0.000061957               0.001069514               0.999999984               0.000054566               0.001074781               0.999999984               0.000053576               0.001088995               0.999999984               0.000055319               0.001110287               0.999999984               0.000058035               0.001137192               0.999999984               0.000060794               0.001168195               0.999999985               0.000062854               0.001201812               0.999999985               0.000063417               0.001237026               0.999999985               0.000061697               0.001272777               0.999999985               0.000057315               0.001308347               0.999999985               0.000049837               0.001343062               0.999999985               0.000038509               0.001376440               0.999999985               0.000022497               0.001408153               0.999999985               0.000000812               0.001438005               0.999999985              -0.000027174               0.001466248               0.999999985               0.000091655               0.001111811               0.999999984               0.000054830               0.001116757               0.999999984               0.000038734               0.001119730               0.999999984               0.000032483               0.001128515               0.999999984               0.000030940               0.001144308               0.999999984               0.000031526               0.001166281               0.999999984               0.000033065               0.001193532               0.999999985               0.000034853               0.001224970               0.999999985               0.000036171               0.001259300               0.999999985               0.000036532               0.001295674               0.999999985               0.000035392               0.001333185               0.999999985               0.000032421               0.001371132               0.999999985               0.000027113               0.001408928               0.999999985               0.000018886               0.001446001               0.999999985               0.000006797               0.001481892               0.999999985              -0.000010376               0.001516131               0.999999985              -0.000033784               0.001548383               0.999999985               0.000046033               0.001129021               0.999999984               0.000027183               0.001143239               0.999999984               0.000018589               0.001151449               0.999999984               0.000014989               0.001163088               0.999999984               0.000013864               0.001180335               0.999999984               0.000013950               0.001203057               0.999999985               0.000014628               0.001230778               0.999999985               0.000015468               0.001262653               0.999999985               0.000016066               0.001297601               0.999999985               0.000016198               0.001334801               0.999999985               0.000015663               0.001373481               0.999999985               0.000014107               0.001413143               0.999999985               0.000011361               0.001453156               0.999999985               0.000007049               0.001492970               0.999999985               0.000000404               0.001532019               0.999999985              -0.000009058               0.001569652               0.999999985              -0.000022400               0.001605165               0.999999985               0.000000000               0.001134712               0.999999984               0.000000000               0.001152172               0.999999984               0.000000000               0.001162403               0.999999984               0.000000000               0.001175126               0.999999984              -0.000000000               0.001192867               0.999999985              -0.000000000               0.001215846               0.999999985               0.000000000               0.001243784               0.999999985              -0.000000000               0.001275953               0.999999985              -0.000000000               0.001311153               0.999999985              -0.000000000               0.001348625               0.999999985              -0.000000000               0.001387704               0.999999985               0.000000000               0.001427949               0.999999985               0.000000000               0.001468756               0.999999985              -0.000000000               0.001509573               0.999999985              -0.000000000               0.001549742               0.999999985              -0.000000000               0.001588598               0.999999985               0.000000000               0.001625402               0.999999985 </DataArray>
<DataArray type="Float64"                                    Name="stress"                                                      NumberOfComponents="10" format="ascii">
              0.001830806               0.020383890               0.000000000              -0.001861429               0.007415039               0.005553609               0.000000000               0.000000000               0.000000000               0.000000000               0.001834065               0.016117067               0.000000000              -0.001326856               0.005814587               0.004487731               0.000000000               0.000000000               0.000000000               0.000000000               0.002433187               0.012673552               0.000000000              -0.000671747               0.004448391               0.003776644               0.000000000               0.000000000               0.000000000               0.000000000               0.002365406               0.010747032               0.000000000              -0.000456351               0.003734425               0.003278074               0.000000000               0.000000000               0.000000000               0.000000000               0.002092187               0.009560634              -0.000000000              -0.000410508               0.003323682               0.002913174               0.000000000               0.000000000               0.000000000               0.000000000               0.001775031               0.008758177              -0.000000000              -0.000429134               0.003062408               0.002633274               0.000000000               0.000000000               0.000000000               0.000000000               0.001473082               0.008176035               0.000000000              -0.000469597               0.002881850               0.002412253               0.000000000               0.000000000               0.000000000               0.000000000               0.001200051               0.007722577              -0.000000000              -0.000515302               0.002745934               0.002230632               0.000000000               0.000000000               0.000000000               0.000000000               0.000963206               0.007343406              -0.000000000              -0.000556722               0.002633352               0.002076630               0.000000000               0.000000000               0.000000000               0.000000000               0.000758212               0.007006315              -0.000000000              -0.000591458               0.002532568               0.001941109               0.000000000               0.000000000               0.000000000               0.000000000               0.000578198               0.006684582              -0.000000000              -0.000618747               0.002434421               0.001815674               0.000000000               0.000000000               0.000000000               0.000000000               0.000421852               0.006368170              -0.000000000              -0.000637825               0.002335311               0.001697485               0.000000000               0.000000000               0.000000000               0.000000000               0.000284390               0.006044400              -0.000000000              -0.000648902               0.002231081               0.001582179               0.000000000               0.000000000               0.000000000               0.000000000               0.000175397               0.005697404              -0.000000000              -0.000646400               0.002114582               0.001468182               0.000000000               0.000000000               0.000000000               0.000000000               0.000097188               0.005311692              -0.000000000              -0.000627514               0.001979718               0.001352203               0.000000000               0.000000000               0.000000000               0.000000000               0.000042460               0.004870430               0.000000000              -0.000592880               0.001821087               0.001228207               0.000000000               0.000000000               0.000000000               0.000000000              -0.000014637               0.004531203              -0.000000000              -0.000571888               0.001701015               0.001129127               0.000000000               0.000000000               0.000000000               0.000000000               0.001902938               0.019977797              -0.001410594              -0.001783619               0.007253739               0.005470120               0.000000000               0.000000000               0.000000000               0.000000000               0.001809928               0.015852418              -0.000737712              -0.001302826               0.005718362               0.004415536               0.000000000               0.000000000               0.000000000               0.000000000               0.002304196               0.012557050              -0.000067918              -0.000705556               0.004420827               0.003715271               0.000000000               0.000000000               0.000000000               0.000000000               0.002194755               0.010710327               0.000216893              -0.000515756               0.003741992               0.003226236               0.000000000               0.000000000               0.000000000               0.000000000               0.001913022               0.009563755               0.000334996              -0.000478085               0.003347248               0.002869163               0.000000000               0.000000000               0.000000000               0.000000000               0.001602142               0.008784128               0.000377204              -0.000497212               0.003093751               0.002596539               0.000000000               0.000000000               0.000000000               0.000000000               0.001311813               0.008210751               0.000386469              -0.000534413               0.002915027               0.002380615               0.000000000               0.000000000               0.000000000               0.000000000               0.001056142               0.007759900               0.000378489              -0.000573933               0.002777919               0.002203986               0.000000000               0.000000000               0.000000000               0.000000000               0.000837901               0.007381771               0.000363140              -0.000608507               0.002663401               0.002054894               0.000000000               0.000000000               0.000000000               0.000000000               0.000652237               0.007041765               0.000343626              -0.000635630               0.002559108               0.001923478               0.000000000               0.000000000               0.000000000               0.000000000               0.000493309               0.006718766               0.000323393              -0.000654853               0.002457851               0.001802997               0.000000000               0.000000000               0.000000000               0.000000000               0.000354514               0.006403408               0.000304823              -0.000667482               0.002356942               0.001689460               0.000000000               0.000000000               0.000000000               0.000000000               0.000233723               0.006087416               0.000278707              -0.000673279               0.002253545               0.001580266               0.000000000               0.000000000               0.000000000               0.000000000               0.000140668               0.005758235               0.000238134              -0.000667027               0.002141735               0.001474708               0.000000000               0.000000000               0.000000000               0.000000000               0.000074861               0.005400679               0.000183461              -0.000647011               0.002015879               0.001368868               0.000000000               0.000000000               0.000000000               0.000000000               0.000031366               0.005003836               0.000106541              -0.000613716               0.001872500               0.001258785               0.000000000               0.000000000               0.000000000               0.000000000              -0.000015040               0.004708184               0.000066092              -0.000594162               0.001767433               0.001173271               0.000000000               0.000000000               0.000000000               0.000000000               0.002083930               0.018808763              -0.002626584              -0.001569619               0.006792731               0.005223112               0.000000000               0.000000000               0.000000000               0.000000000               0.001722052               0.015096859              -0.001374776              -0.001241335               0.005446014               0.004204679               0.000000000               0.000000000               0.000000000               0.000000000               0.001928349               0.012228640              -0.000138775              -0.000805447               0.004344655               0.003539208               0.000000000               0.000000000               0.000000000               0.000000000               0.001714062               0.010600780               0.000368792              -0.000682323               0.003760999               0.003078676               0.000000000               0.000000000               0.000000000               0.000000000               0.001414712               0.009561893               0.000573480              -0.000664718               0.003408838               0.002744120               0.000000000               0.000000000               0.000000000               0.000000000               0.001128583               0.008837011               0.000642920              -0.000681406               0.003172776               0.002491370               0.000000000               0.000000000               0.000000000               0.000000000               0.000877818               0.008288497               0.000653728              -0.000706879               0.002998431               0.002291552               0.000000000               0.000000000               0.000000000               0.000000000               0.000669863               0.007844987               0.000638477              -0.000729423               0.002858110               0.002128687               0.000000000               0.000000000               0.000000000               0.000000000               0.000506162               0.007466130               0.000610260              -0.000743454               0.002736503               0.001993049               0.000000000               0.000000000               0.000000000               0.000000000               0.000374039               0.007124570               0.000573278              -0.000750305               0.002624934               0.001874629               0.000000000               0.000000000               0.000000000               0.000000000               0.000264310               0.006806392               0.000533895              -0.000751681               0.002519335               0.001767654               0.000000000               0.000000000               0.000000000               0.000000000               0.000175720               0.006502892               0.000495964              -0.000746965               0.002416597               0.001669633               0.000000000               0.000000000               0.000000000               0.000000000               0.000104643               0.006204775               0.000448308              -0.000736354               0.002313689               0.001577335               0.000000000               0.000000000               0.000000000               0.000000000               0.000053945               0.005910084               0.000378137              -0.000718529               0.002209518               0.001490989               0.000000000               0.000000000               0.000000000               0.000000000               0.000021533               0.005618003               0.000285155              -0.000694174               0.002104040               0.001409866               0.000000000               0.000000000               0.000000000               0.000000000               0.000005002               0.005330638               0.000161638              -0.000664452               0.001998346               0.001333893               0.000000000               0.000000000               0.000000000               0.000000000              -0.000016619               0.005139673               0.000096165              -0.000648690               0.001929437               0.001280747               0.000000000               0.000000000               0.000000000               0.000000000               0.002286051               0.017027158              -0.003508365              -0.001271125               0.006099370               0.004828245               0.000000000               0.000000000               0.000000000               0.000000000               0.001547070               0.013957922              -0.001847555              -0.001164587               0.005040790               0.003876203               0.000000000               0.000000000               0.000000000               0.000000000               0.001351023               0.011732412              -0.000227739              -0.000959916               0.004230737               0.003270821               0.000000000               0.000000000               0.000000000               0.000000000               0.001015691               0.010413283               0.000403526              -0.000920774               0.003777984               0.002857210               0.000000000               0.000000000               0.000000000               0.000000000               0.000715781               0.009523772               0.000646038              -0.000922051               0.003481910               0.002559858               0.000000000               0.000000000               0.000000000               0.000000000               0.000478932               0.008867320               0.000724314              -0.000928814               0.003265348               0.002336535               0.000000000               0.000000000               0.000000000               0.000000000               0.000300590               0.008349516               0.000734075              -0.000930966               0.003093466               0.002162500               0.000000000               0.000000000               0.000000000               0.000000000               0.000173961               0.007918503               0.000713386              -0.000924575               0.002947666               0.002023091               0.000000000               0.000000000               0.000000000               0.000000000               0.000084765               0.007540130               0.000677684              -0.000910727               0.002816927               0.001906200               0.000000000               0.000000000               0.000000000               0.000000000               0.000021432               0.007200594               0.000632418              -0.000892035               0.002697519               0.001805484               0.000000000               0.000000000               0.000000000               0.000000000              -0.000022535               0.006890809               0.000584396              -0.000869800               0.002586847               0.001717047               0.000000000               0.000000000               0.000000000               0.000000000              -0.000045533               0.006603465               0.000534392              -0.000842506               0.002481968               0.001639462               0.000000000               0.000000000               0.000000000               0.000000000              -0.000048962               0.006333627               0.000472643              -0.000810062               0.002381208               0.001571146               0.000000000               0.000000000               0.000000000               0.000000000              -0.000037777               0.006088993               0.000391853              -0.000775289               0.002288074               0.001512785               0.000000000               0.000000000               0.000000000               0.000000000              -0.000021440               0.005882888               0.000289817              -0.000743399               0.002208743               0.001465344               0.000000000               0.000000000               0.000000000               0.000000000              -0.000009763               0.005723353               0.000160199              -0.000719078               0.002147458               0.001428380               0.000000000               0.000000000               0.000000000               0.000000000              -0.000008915               0.005644616               0.000088995              -0.000708919               0.002117826               0.001408908               0.000000000               0.000000000               0.000000000               0.000000000               0.002392970               0.014848061              -0.003981316              -0.000958644               0.005268851               0.004310207               0.000000000               0.000000000               0.000000000               0.000000000               0.001260080               0.012583427              -0.002134100              -0.001100397               0.004561232               0.003460836               0.000000000               0.000000000               0.000000000               0.000000000               0.000644441               0.011120515              -0.000356576              -0.001148396               0.004089600               0.002941204               0.000000000               0.000000000               0.000000000               0.000000000               0.000223779               0.010140538               0.000297866              -0.001183647               0.003774694               0.002591047               0.000000000               0.000000000               0.000000000               0.000000000              -0.000038587               0.009409571               0.000538364              -0.001190664               0.003533380               0.002342716               0.000000000               0.000000000               0.000000000               0.000000000              -0.000191990               0.008828028               0.000614983              -0.001175497               0.003334479               0.002158982               0.000000000               0.000000000               0.000000000               0.000000000              -0.000271619               0.008342769               0.000626789              -0.001144700               0.003162462               0.002017761               0.000000000               0.000000000               0.000000000               0.000000000              -0.000303284               0.007922918               0.000608150              -0.001104094               0.003008978               0.001904884               0.000000000               0.000000000               0.000000000               0.000000000              -0.000307830               0.007551974               0.000573031              -0.001059430               0.002870443               0.001811012               0.000000000               0.000000000               0.000000000               0.000000000              -0.000291457               0.007219179               0.000530400              -0.001011691               0.002743599               0.001731908               0.000000000               0.000000000               0.000000000               0.000000000              -0.000255111               0.006919559               0.000484459              -0.000960609               0.002626700               0.001666090               0.000000000               0.000000000               0.000000000               0.000000000              -0.000206835               0.006651397               0.000434097              -0.000908985               0.002520105               0.001611120               0.000000000               0.000000000               0.000000000               0.000000000              -0.000151580               0.006419498               0.000370947              -0.000859278               0.002426237               0.001566959               0.000000000               0.000000000               0.000000000               0.000000000              -0.000094008               0.006231233               0.000295786              -0.000814155               0.002348442               0.001534287               0.000000000               0.000000000               0.000000000               0.000000000              -0.000046346               0.006096264               0.000209813              -0.000779411               0.002291871               0.001512460               0.000000000               0.000000000               0.000000000               0.000000000              -0.000017550               0.006018448               0.000109654              -0.000758885               0.002259091               0.001500206               0.000000000               0.000000000               0.000000000               0.000000000              -0.000006180               0.005995802               0.000055798              -0.000751791               0.002249178               0.001497387               0.000000000               0.000000000               0.000000000               0.000000000               0.002307455               0.012492054              -0.004057136              -0.000696213               0.004396046               0.003699833               0.000000000               0.000000000               0.000000000               0.000000000               0.000860416               0.011119353              -0.002260503              -0.001067262               0.004062167               0.002994905               0.000000000               0.000000000               0.000000000               0.000000000              -0.000100170               0.010448251              -0.000542871              -0.001343592               0.003930580               0.002586988               0.000000000               0.000000000               0.000000000               0.000000000              -0.000530799               0.009787784               0.000063339              -0.001422519               0.003736735               0.002314216               0.000000000               0.000000000               0.000000000               0.000000000              -0.000708190               0.009199082               0.000285781              -0.001415453               0.003538148               0.002122695               0.000000000               0.000000000               0.000000000               0.000000000              -0.000756860               0.008684843               0.000365812              -0.001369424               0.003351393               0.001981969               0.000000000               0.000000000               0.000000000               0.000000000              -0.000733574               0.008237500               0.000385761              -0.001304774               0.003180731               0.001875956               0.000000000               0.000000000               0.000000000               0.000000000              -0.000670674               0.007840473               0.000378095              -0.001231559               0.003023985               0.001792426               0.000000000               0.000000000               0.000000000               0.000000000              -0.000585478               0.007486396               0.000355000              -0.001155351               0.002880557               0.001725207               0.000000000               0.000000000               0.000000000               0.000000000              -0.000489765               0.007166055               0.000322585              -0.001079416               0.002748466               0.001669050               0.000000000               0.000000000               0.000000000               0.000000000              -0.000387680               0.006882553               0.000285691              -0.001005697               0.002629394               0.001623697               0.000000000               0.000000000               0.000000000               0.000000000              -0.000288182               0.006637025               0.000246467              -0.000937694               0.002524884               0.001587190               0.000000000               0.000000000               0.000000000               0.000000000              -0.000198310               0.006431794               0.000199669              -0.000878338               0.002436689               0.001558351               0.000000000               0.000000000               0.000000000               0.000000000              -0.000122647               0.006273290               0.000150149              -0.000830152               0.002367793               0.001537641               0.000000000               0.000000000               0.000000000               0.000000000              -0.000064295               0.006161497               0.000102506              -0.000794296               0.002318577               0.001524281               0.000000000               0.000000000               0.000000000               0.000000000              -0.000024291               0.006084239               0.000050805              -0.000769637               0.002284605               0.001514968               0.000000000               0.000000000               0.000000000               0.000000000              -0.000017230               0.006039369               0.000028478              -0.000761381               0.002266897               0.001505516               0.000000000               0.000000000               0.000000000               0.000000000               0.001973934               0.010159310              -0.003802024              -0.000529691               0.003562965               0.003033274               0.000000000               0.000000000               0.000000000               0.000000000               0.000373145               0.009686165              -0.002266367              -0.001070840               0.003585636               0.002514795               0.000000000               0.000000000               0.000000000               0.000000000              -0.000795781               0.009748152              -0.000785730              -0.001516933               0.003754996               0.002238063               0.000000000               0.000000000               0.000000000               0.000000000              -0.001153146               0.009356483              -0.000263794              -0.001601986               0.003652792               0.002050806               0.000000000               0.000000000               0.000000000               0.000000000              -0.001206751               0.008887802              -0.000053713              -0.001563503               0.003483739               0.001920236               0.000000000               0.000000000               0.000000000               0.000000000              -0.001137721               0.008441717               0.000040636              -0.001481856               0.003307830               0.001825973               0.000000000               0.000000000               0.000000000               0.000000000              -0.001014310               0.008040087               0.000080597              -0.001385374               0.003141793               0.001756420               0.000000000               0.000000000               0.000000000               0.000000000              -0.000868768               0.007675601               0.000092695              -0.001285235               0.002986920               0.001701685               0.000000000               0.000000000               0.000000000               0.000000000              -0.000714513               0.007345869               0.000087928              -0.001186173               0.002843990               0.001657817               0.000000000               0.000000000               0.000000000               0.000000000              -0.000561779               0.007048149               0.000074515              -0.001091683               0.002713254               0.001621571               0.000000000               0.000000000               0.000000000               0.000000000              -0.000418899               0.006779788               0.000062262              -0.001004558               0.002594759               0.001590201               0.000000000               0.000000000               0.000000000               0.000000000              -0.000299182               0.006540409               0.000051531              -0.000929742               0.002490029               0.001560287               0.000000000               0.000000000               0.000000000               0.000000000              -0.000206865               0.006335777               0.000041624              -0.000869544               0.002401753               0.001532208               0.000000000               0.000000000               0.000000000               0.000000000              -0.000137160               0.006170518               0.000037922              -0.000822748               0.002331068               0.001508320               0.000000000               0.000000000               0.000000000               0.000000000              -0.000084798               0.006035946               0.000036811              -0.000786291               0.002274059               0.001487768               0.000000000               0.000000000               0.000000000               0.000000000              -0.000040929               0.005915875               0.000024368              -0.000754831               0.002223549               0.001468718               0.000000000               0.000000000               0.000000000               0.000000000              -0.000039999               0.005829538               0.000025087              -0.000743690               0.002191057               0.001447367               0.000000000               0.000000000               0.000000000               0.000000000               0.001405520               0.007995259              -0.003294200              -0.000472340               0.002822505               0.002350165               0.000000000               0.000000000               0.000000000               0.000000000              -0.000180611               0.008366331              -0.002189849              -0.001113519               0.003159922               0.002046402               0.000000000               0.000000000               0.000000000               0.000000000              -0.001379079               0.009030678              -0.001076415              -0.001645986               0.003558858               0.001912872               0.000000000               0.000000000               0.000000000               0.000000000              -0.001588419               0.008854708              -0.000634120              -0.001702491               0.003519037               0.001816546               0.000000000               0.000000000               0.000000000               0.000000000              -0.001501417               0.008498010              -0.000416517              -0.001625279               0.003374401               0.001749122               0.000000000               0.000000000               0.000000000               0.000000000              -0.001321300               0.008126224              -0.000296929              -0.001511262               0.003212468               0.001701206               0.000000000               0.000000000               0.000000000               0.000000000              -0.001111678               0.007772431              -0.000227990              -0.001388430               0.003053594               0.001665165               0.000000000               0.000000000               0.000000000               0.000000000              -0.000899389               0.007444902              -0.000187257              -0.001267880               0.002904236               0.001636355               0.000000000               0.000000000               0.000000000               0.000000000              -0.000697796               0.007140254              -0.000160476              -0.001154202               0.002764795               0.001610593               0.000000000               0.000000000               0.000000000               0.000000000              -0.000516411               0.006848212              -0.000139997              -0.001049678               0.002632607               0.001582929               0.000000000               0.000000000               0.000000000               0.000000000              -0.000373487               0.006571278              -0.000117660              -0.000961465               0.002510892               0.001549427               0.000000000               0.000000000               0.000000000               0.000000000              -0.000270931               0.006320253              -0.000087971              -0.000891628               0.002403939               0.001512311               0.000000000               0.000000000               0.000000000               0.000000000              -0.000200647               0.006104177              -0.000053077              -0.000838263               0.002314126               0.001475863               0.000000000               0.000000000               0.000000000               0.000000000              -0.000151259               0.005918748              -0.000015745              -0.000796564               0.002238417               0.001441854               0.000000000               0.000000000               0.000000000               0.000000000              -0.000106988               0.005750937               0.000015983              -0.000758986               0.002169955               0.001410969               0.000000000               0.000000000               0.000000000               0.000000000              -0.000058720               0.005599492               0.000022523              -0.000721955               0.002107130               0.001385176               0.000000000               0.000000000               0.000000000               0.000000000              -0.000049387               0.005502875               0.000027283              -0.000706378               0.002069733               0.001363355               0.000000000               0.000000000               0.000000000               0.000000000               0.000697842               0.006153691              -0.002634756              -0.000507522               0.002220383               0.001712861               0.000000000               0.000000000               0.000000000               0.000000000              -0.000714856               0.007185564              -0.002080812              -0.001166265               0.002783919               0.001617654               0.000000000               0.000000000               0.000000000               0.000000000              -0.001809321               0.008333153              -0.001415683              -0.001720136               0.003351068               0.001630933               0.000000000               0.000000000               0.000000000               0.000000000              -0.001857618               0.008379714              -0.001023935              -0.001744067               0.003374566               0.001630499               0.000000000               0.000000000               0.000000000               0.000000000              -0.001655751               0.008152837              -0.000782340              -0.001640007               0.003264254               0.001624247               0.000000000               0.000000000               0.000000000               0.000000000              -0.001393540               0.007862364              -0.000626422              -0.001505369               0.003122551               0.001617182               0.000000000               0.000000000               0.000000000               0.000000000              -0.001123378               0.007564703              -0.000518318              -0.001366851               0.002977159               0.001610308               0.000000000               0.000000000               0.000000000               0.000000000              -0.000861056               0.007279221              -0.000440882              -0.001232796               0.002837315               0.001604519               0.000000000               0.000000000               0.000000000               0.000000000              -0.000627465               0.006981765              -0.000380189              -0.001108017               0.002696571               0.001588554               0.000000000               0.000000000               0.000000000               0.000000000              -0.000435809               0.006676538              -0.000325047              -0.000997993               0.002558155               0.001560162               0.000000000               0.000000000               0.000000000               0.000000000              -0.000293507               0.006386996              -0.000265399              -0.000908437               0.002431790               0.001523352               0.000000000               0.000000000               0.000000000               0.000000000              -0.000205628               0.006124900              -0.000196637              -0.000842721               0.002322520               0.001479799               0.000000000               0.000000000               0.000000000               0.000000000              -0.000161085               0.005895270              -0.000124323              -0.000797314               0.002230841               0.001433528               0.000000000               0.000000000               0.000000000               0.000000000              -0.000143458               0.005686416              -0.000057864              -0.000764597               0.002150319               0.001385722               0.000000000               0.000000000               0.000000000               0.000000000              -0.000138464               0.005485531              -0.000009203              -0.000737614               0.002074363               0.001336750               0.000000000               0.000000000               0.000000000               0.000000000              -0.000126306               0.005301361               0.000011102              -0.000710033               0.002003780               0.001293747               0.000000000               0.000000000               0.000000000               0.000000000              -0.000111577               0.005209465               0.000014725              -0.000693023               0.001967478               0.001274456               0.000000000               0.000000000               0.000000000               0.000000000              -0.000165919               0.004432856              -0.001925062              -0.000616327               0.001683045               0.001066719               0.000000000               0.000000000               0.000000000               0.000000000              -0.001150029               0.005828241              -0.001953575              -0.001159789               0.002329323               0.001169534               0.000000000               0.000000000               0.000000000               0.000000000              -0.002029936               0.007325477              -0.001782903              -0.001676907               0.003000770               0.001323863               0.000000000               0.000000000               0.000000000               0.000000000              -0.001994921               0.007687749              -0.001455401              -0.001709060               0.003132244               0.001423184               0.000000000               0.000000000               0.000000000               0.000000000              -0.001741470               0.007677725              -0.001187819              -0.001612763               0.003096804               0.001484041               0.000000000               0.000000000               0.000000000               0.000000000              -0.001449671               0.007537510              -0.000988094              -0.001485812               0.003007749               0.001521937               0.000000000               0.000000000               0.000000000               0.000000000              -0.001161270               0.007356624              -0.000834956              -0.001355051               0.002903867               0.001548816               0.000000000               0.000000000               0.000000000               0.000000000              -0.000892935               0.007148982              -0.000717562              -0.001228471               0.002792460               0.001563990               0.000000000               0.000000000               0.000000000               0.000000000              -0.000655034               0.006896795              -0.000618690              -0.001107734               0.002668153               0.001560419               0.000000000               0.000000000               0.000000000               0.000000000              -0.000455606               0.006616826              -0.000526188              -0.000997953               0.002538238               0.001540284               0.000000000               0.000000000               0.000000000               0.000000000              -0.000307519               0.006324581              -0.000432906              -0.000905890               0.002410136               0.001504246               0.000000000               0.000000000               0.000000000               0.000000000              -0.000214251               0.006047423              -0.000332453              -0.000836270               0.002294544               0.001458274               0.000000000               0.000000000               0.000000000               0.000000000              -0.000173641               0.005798358              -0.000230902              -0.000789908               0.002196069               0.001406161               0.000000000               0.000000000               0.000000000               0.000000000              -0.000169586               0.005576571              -0.000136587              -0.000760664               0.002112393               0.001351729               0.000000000               0.000000000               0.000000000               0.000000000              -0.000190539               0.005368720              -0.000063154              -0.000742540               0.002037069               0.001294529               0.000000000               0.000000000               0.000000000               0.000000000              -0.000224880               0.005171346              -0.000020272              -0.000730746               0.001967347               0.001236600               0.000000000               0.000000000               0.000000000               0.000000000              -0.000236994               0.005079805              -0.000007086              -0.000723847               0.001934533               0.001210687               0.000000000               0.000000000               0.000000000               0.000000000              -0.001303535               0.002870398              -0.001207043              -0.000847624               0.001239331               0.000391707               0.000000000               0.000000000               0.000000000               0.000000000              -0.001646958               0.004472496              -0.001758956              -0.001176669               0.001883039               0.000706370               0.000000000               0.000000000               0.000000000               0.000000000              -0.002166245               0.006169287              -0.002070295              -0.001583500               0.002584241               0.001000741               0.000000000               0.000000000               0.000000000               0.000000000              -0.002059387               0.006831466              -0.001869058              -0.001626200               0.002819199               0.001192999               0.000000000               0.000000000               0.000000000               0.000000000              -0.001783516               0.007066518              -0.001604218              -0.001552130               0.002872859               0.001320729               0.000000000               0.000000000               0.000000000               0.000000000              -0.001486071               0.007109282              -0.001372125              -0.001445934               0.002851715               0.001405781               0.000000000               0.000000000               0.000000000               0.000000000              -0.001193893               0.007071278              -0.001181012              -0.001331617               0.002800941               0.001469325               0.000000000               0.000000000               0.000000000               0.000000000              -0.000924278               0.006971518              -0.001026751              -0.001218041               0.002729829               0.001511788               0.000000000               0.000000000               0.000000000               0.000000000              -0.000689043               0.006798324              -0.000897284              -0.001108179               0.002635478               0.001527299               0.000000000               0.000000000               0.000000000               0.000000000              -0.000481339               0.006577105              -0.000776288              -0.001002638               0.002526559               0.001523921               0.000000000               0.000000000               0.000000000               0.000000000              -0.000313865               0.006324992              -0.000654610              -0.000908321               0.002411083               0.001502762               0.000000000               0.000000000               0.000000000               0.000000000              -0.000192731               0.006062877              -0.000529503              -0.000830132               0.002297649               0.001467517               0.000000000               0.000000000               0.000000000               0.000000000              -0.000125717               0.005805169              -0.000405149              -0.000772788               0.002192633               0.001419845               0.000000000               0.000000000               0.000000000               0.000000000              -0.000112543               0.005567934              -0.000284376              -0.000738194               0.002102024               0.001363830               0.000000000               0.000000000               0.000000000               0.000000000              -0.000147993               0.005354063              -0.000169915              -0.000724753               0.002026254               0.001301501               0.000000000               0.000000000               0.000000000               0.000000000              -0.000228916               0.005164749              -0.000074657              -0.000731435               0.001965377               0.001233942               0.000000000               0.000000000               0.000000000               0.000000000              -0.000295940               0.005067697              -0.000026679              -0.000744438               0.001937361               0.001192924               0.000000000               0.000000000               0.000000000               0.000000000              -0.002636692               0.001577957              -0.000534750              -0.001186002               0.000921313              -0.000264689               0.000000000               0.000000000               0.000000000               0.000000000              -0.002250740               0.003196281              -0.001474285              -0.001243560               0.001479936               0.000236375               0.000000000               0.000000000               0.000000000               0.000000000              -0.002257756               0.004879556              -0.002175066              -0.001456601               0.002112035               0.000655435               0.000000000               0.000000000               0.000000000               0.000000000              -0.002018871               0.005754288              -0.002137646              -0.001476360               0.002410196               0.000933836               0.000000000               0.000000000               0.000000000               0.000000000              -0.001715718               0.006217063              -0.001920404              -0.001420524               0.002545841               0.001125317               0.000000000               0.000000000               0.000000000               0.000000000              -0.001417958               0.006458440              -0.001687365              -0.001339037               0.002599137               0.001260100               0.000000000               0.000000000               0.000000000               0.000000000              -0.001134007               0.006581573              -0.001481992              -0.001247947               0.002609818               0.001361871               0.000000000               0.000000000               0.000000000               0.000000000              -0.000871865               0.006610629              -0.001307813              -0.001153276               0.002587946               0.001434670               0.000000000               0.000000000               0.000000000               0.000000000              -0.000638683               0.006547408              -0.001158079              -0.001057930               0.002535090               0.001477161               0.000000000               0.000000000               0.000000000               0.000000000              -0.000432152               0.006416287              -0.001016752              -0.000964091               0.002460105               0.001496014               0.000000000               0.000000000               0.000000000               0.000000000              -0.000257341               0.006236742              -0.000875438              -0.000876094               0.002370924               0.001494831               0.000000000               0.000000000               0.000000000               0.000000000              -0.000112602               0.006027791              -0.000736167              -0.000795698               0.002274476               0.001478778               0.000000000               0.000000000               0.000000000               0.000000000              -0.000006094               0.005794526              -0.000596818              -0.000726599               0.002173689               0.001447090               0.000000000               0.000000000               0.000000000               0.000000000               0.000045234               0.005559707              -0.000452905              -0.000677999               0.002079217               0.001401218               0.000000000               0.000000000               0.000000000               0.000000000               0.000033774               0.005347250              -0.000301512              -0.000655740               0.002000979               0.001345239               0.000000000               0.000000000               0.000000000               0.000000000              -0.000044550               0.005165914              -0.000148856              -0.000662444               0.001942769               0.001280325               0.000000000               0.000000000               0.000000000               0.000000000              -0.000129954               0.005065653              -0.000063269              -0.000681938               0.001915847               0.001233909               0.000000000               0.000000000               0.000000000               0.000000000              -0.004072083               0.000615429               0.000003813              -0.001603958               0.000739790              -0.000864167               0.000000000               0.000000000               0.000000000               0.000000000              -0.002924798               0.002065960              -0.001136095              -0.001355042               0.001140326              -0.000214716               0.000000000               0.000000000               0.000000000               0.000000000              -0.002328564               0.003561791              -0.002073300              -0.001318433               0.001626729               0.000308295               0.000000000               0.000000000               0.000000000               0.000000000              -0.001896728               0.004544871              -0.002185197              -0.001279380               0.001941401               0.000662021               0.000000000               0.000000000               0.000000000               0.000000000              -0.001541650               0.005185986              -0.002045500              -0.001226365               0.002137432               0.000911067               0.000000000               0.000000000               0.000000000               0.000000000              -0.001235239               0.005610576              -0.001846284              -0.001164534               0.002258351               0.001093816               0.000000000               0.000000000               0.000000000               0.000000000              -0.000959817               0.005899460              -0.001653056              -0.001097362               0.002332254               0.001234892               0.000000000               0.000000000               0.000000000               0.000000000              -0.000712551               0.006063985              -0.001482297              -0.001025203               0.002363042               0.001337839               0.000000000               0.000000000               0.000000000               0.000000000              -0.000491313               0.006121406              -0.001330098              -0.000949416               0.002356920               0.001407504               0.000000000               0.000000000               0.000000000               0.000000000              -0.000290811               0.006104445              -0.001180121              -0.000872108               0.002325497               0.001453389               0.000000000               0.000000000               0.000000000               0.000000000              -0.000109273               0.006023197              -0.001033328              -0.000793875               0.002272337               0.001478462               0.000000000               0.000000000               0.000000000               0.000000000               0.000055184               0.005892563              -0.000894396              -0.000715875               0.002202793               0.001486918               0.000000000               0.000000000               0.000000000               0.000000000               0.000199342               0.005723627              -0.000752241              -0.000640699               0.002121423               0.001480724               0.000000000               0.000000000               0.000000000               0.000000000               0.000308849               0.005531576              -0.000595616              -0.000575627               0.002035716               0.001460089               0.000000000               0.000000000               0.000000000               0.000000000               0.000366748               0.005339705              -0.000418967              -0.000529931               0.001956528               0.001426596               0.000000000               0.000000000               0.000000000               0.000000000               0.000355256               0.005165806              -0.000220444              -0.000512503               0.001892752               0.001380249               0.000000000               0.000000000               0.000000000               0.000000000               0.000311287               0.005073509              -0.000109923              -0.000517455               0.001863638               0.001346183               0.000000000               0.000000000               0.000000000               0.000000000              -0.005462378              -0.000022514               0.000330792              -0.002045576               0.000674349              -0.001371226               0.000000000               0.000000000               0.000000000               0.000000000              -0.003606326               0.001146330              -0.000791014              -0.001495661               0.000880658              -0.000615004               0.000000000               0.000000000               0.000000000               0.000000000              -0.002391729               0.002344780              -0.001766311              -0.001189994               0.001178249              -0.000011745               0.000000000               0.000000000               0.000000000               0.000000000              -0.001728506               0.003341166              -0.001970432              -0.001065834               0.001468988               0.000403154               0.000000000               0.000000000               0.000000000               0.000000000              -0.001293546               0.004095175              -0.001907668              -0.000996975               0.001697369               0.000700394               0.000000000               0.000000000               0.000000000               0.000000000              -0.000965904               0.004661423              -0.001762919              -0.000944890               0.001868755               0.000923865               0.000000000               0.000000000               0.000000000               0.000000000              -0.000691886               0.005090059              -0.001607126              -0.000895713               0.001995240               0.001099527               0.000000000               0.000000000               0.000000000               0.000000000              -0.000457026               0.005382101              -0.001460602              -0.000844146               0.002075397               0.001231251               0.000000000               0.000000000               0.000000000               0.000000000              -0.000252969               0.005562645              -0.001322344              -0.000790193               0.002117594               0.001327401               0.000000000               0.000000000               0.000000000               0.000000000              -0.000064040               0.005657528              -0.001185655              -0.000731205               0.002129558               0.001398354               0.000000000               0.000000000               0.000000000               0.000000000               0.000121337               0.005679521              -0.001054049              -0.000664438               0.002114634               0.001450196               0.000000000               0.000000000               0.000000000               0.000000000               0.000304834               0.005645921              -0.000929894              -0.000591426               0.002079097               0.001487671               0.000000000               0.000000000               0.000000000               0.000000000               0.000482222               0.005564602              -0.000800239              -0.000514741               0.002026429               0.001511688               0.000000000               0.000000000               0.000000000               0.000000000               0.000652052               0.005448600              -0.000651619              -0.000436555               0.001961700               0.001525145               0.000000000               0.000000000               0.000000000               0.000000000               0.000802939               0.005307064              -0.000471907              -0.000362280               0.001889764               0.001527483               0.000000000               0.000000000               0.000000000               0.000000000               0.000916458               0.005155505              -0.000253857              -0.000300766               0.001818740               0.001517974               0.000000000               0.000000000               0.000000000               0.000000000               0.000975902               0.005084747              -0.000137459              -0.000269629               0.001784775               0.001515146               0.000000000               0.000000000               0.000000000               0.000000000              -0.006634699              -0.000388304               0.000409164              -0.002439472               0.000683718              -0.001755754               0.000000000               0.000000000               0.000000000               0.000000000              -0.004203935               0.000480266              -0.000480754              -0.001636507               0.000705586              -0.000930921               0.000000000               0.000000000               0.000000000               0.000000000              -0.002448617               0.001362862              -0.001282778              -0.001088588               0.000817144              -0.000271444               0.000000000               0.000000000               0.000000000               0.000000000              -0.001555929               0.002307608              -0.001495050              -0.000871923               0.001059835               0.000187912               0.000000000               0.000000000               0.000000000               0.000000000              -0.001029709               0.003113332              -0.001484041              -0.000775306               0.001296202               0.000520896               0.000000000               0.000000000               0.000000000               0.000000000              -0.000669797               0.003770672              -0.001396528              -0.000722507               0.001497713               0.000775206               0.000000000               0.000000000               0.000000000               0.000000000              -0.000391696               0.004302587              -0.001291204              -0.000684708               0.001662417               0.000977709               0.000000000               0.000000000               0.000000000               0.000000000              -0.000169189               0.004698429              -0.001184067              -0.000650749               0.001783043               0.001132295               0.000000000               0.000000000               0.000000000               0.000000000               0.000019912               0.004979016              -0.001078613              -0.000614909               0.001864625               0.001249716               0.000000000               0.000000000               0.000000000               0.000000000               0.000199646               0.005170671              -0.000975670              -0.000571466               0.001914028               0.001342563               0.000000000               0.000000000               0.000000000               0.000000000               0.000384806               0.005288602              -0.000877332              -0.000516772               0.001935107               0.001418335               0.000000000               0.000000000               0.000000000               0.000000000               0.000578780               0.005349070              -0.000782864              -0.000451591               0.001933536               0.001481945               0.000000000               0.000000000               0.000000000               0.000000000               0.000784491               0.005357570              -0.000684139              -0.000375512               0.001911009               0.001535498               0.000000000               0.000000000               0.000000000               0.000000000               0.001006935               0.005322008              -0.000567832              -0.000287650               0.001869868               0.001582218               0.000000000               0.000000000               0.000000000               0.000000000               0.001245689               0.005244585              -0.000419078              -0.000188440               0.001810991               0.001622551               0.000000000               0.000000000               0.000000000               0.000000000               0.001503337               0.005131368              -0.000228946              -0.000077670               0.001736329               0.001658659               0.000000000               0.000000000               0.000000000               0.000000000               0.001695550               0.005089150              -0.000130180              -0.000000313               0.001696471               0.001696158               0.000000000               0.000000000               0.000000000               0.000000000              -0.007417333              -0.000561138               0.000269854              -0.002711356               0.000716734              -0.001994621               0.000000000               0.000000000               0.000000000               0.000000000              -0.004617069               0.000082549              -0.000222049              -0.001741718               0.000608085              -0.001133633               0.000000000               0.000000000               0.000000000               0.000000000              -0.002494875               0.000727133              -0.000675283              -0.001026468               0.000584530              -0.000441939               0.000000000               0.000000000               0.000000000               0.000000000              -0.001429198               0.001605925              -0.000808776              -0.000736689               0.000780865               0.000044177               0.000000000               0.000000000               0.000000000               0.000000000              -0.000826275               0.002423368              -0.000814539              -0.000612773               0.001012038               0.000399266               0.000000000               0.000000000               0.000000000               0.000000000              -0.000436414               0.003130012              -0.000774760              -0.000554906               0.001228295               0.000673390               0.000000000               0.000000000               0.000000000               0.000000000              -0.000154812               0.003725438              -0.000722441              -0.000523733               0.001416378               0.000892645               0.000000000               0.000000000               0.000000000               0.000000000               0.000059711               0.004188333              -0.000666336              -0.000501149               0.001563147               0.001061998               0.000000000               0.000000000               0.000000000               0.000000000               0.000241015               0.004533303              -0.000609687              -0.000476281               0.001669846               0.001193565               0.000000000               0.000000000               0.000000000               0.000000000               0.000413998               0.004788087              -0.000555014              -0.000443261               0.001743766               0.001300506               0.000000000               0.000000000               0.000000000               0.000000000               0.000596762               0.004975799              -0.000501482              -0.000398188               0.001791313               0.001393124               0.000000000               0.000000000               0.000000000               0.000000000               0.000797789               0.005107792              -0.000449831              -0.000339303               0.001815681               0.001476379               0.000000000               0.000000000               0.000000000               0.000000000               0.001023021               0.005183678              -0.000397322              -0.000264326               0.001815984               0.001551658               0.000000000               0.000000000               0.000000000               0.000000000               0.001282641               0.005209186              -0.000332117              -0.000170158               0.001793097               0.001622940               0.000000000               0.000000000               0.000000000               0.000000000               0.001589746               0.005183570              -0.000248353              -0.000051791               0.001745103               0.001693312               0.000000000               0.000000000               0.000000000               0.000000000               0.001959765               0.005105833              -0.000138876               0.000096682               0.001669700               0.001766382               0.000000000               0.000000000               0.000000000               0.000000000               0.002260519               0.005089461              -0.000082095               0.000211510               0.001625967               0.001837477               0.000000000               0.000000000               0.000000000               0.000000000              -0.007690089              -0.000606579               0.000000000              -0.002807959               0.000733789              -0.002074171               0.000000000               0.000000000               0.000000000               0.000000000              -0.004764186              -0.000044358               0.000000000              -0.001781024               0.000578885              -0.001202139               0.000000000               0.000000000               0.000000000               0.000000000              -0.002514426               0.000509530               0.000000000              -0.001006600               0.000505373              -0.000501227               0.000000000               0.000000000               0.000000000               0.000000000              -0.001385610               0.001353567              -0.000000000              -0.000688798               0.000680783              -0.000008015               0.000000000               0.000000000               0.000000000               0.000000000              -0.000751646               0.002169934              -0.000000000              -0.000553108               0.000907673               0.000354566               0.000000000               0.000000000               0.000000000               0.000000000              -0.000349217               0.002894547               0.000000000              -0.000492774               0.001129097               0.000636324               0.000000000               0.000000000               0.000000000               0.000000000              -0.000065049               0.003515657               0.000000000              -0.000463849               0.001326490               0.000862641               0.000000000               0.000000000               0.000000000               0.000000000               0.000147816               0.004001846              -0.000000000              -0.000444799               0.001482201               0.001037403               0.000000000               0.000000000               0.000000000               0.000000000               0.000326628               0.004365598              -0.000000000              -0.000423213               0.001596256               0.001173043               0.000000000               0.000000000               0.000000000               0.000000000               0.000497719               0.004641688              -0.000000000              -0.000393566               0.001678402               0.001284837               0.000000000               0.000000000               0.000000000               0.000000000               0.000678716               0.004854843               0.000000000              -0.000352336               0.001735710               0.001383374               0.000000000               0.000000000               0.000000000               0.000000000               0.000883425               0.005014108               0.000000000              -0.000295478               0.001769845               0.001474367               0.000000000               0.000000000               0.000000000               0.000000000               0.001115281               0.005115566              -0.000000000              -0.000221215               0.001778910               0.001557695               0.000000000               0.000000000               0.000000000               0.000000000               0.001387673               0.005162524              -0.000000000              -0.000124938               0.001762470               0.001637532               0.000000000               0.000000000               0.000000000               0.000000000               0.001722088               0.005155663              -0.000000000               0.000001325               0.001718096               0.001719421               0.000000000               0.000000000               0.000000000               0.000000000               0.002133939               0.005094133               0.000000000               0.000163459               0.001643541               0.001807000               0.000000000               0.000000000               0.000000000               0.000000000               0.002475609               0.005090028               0.000000000               0.000292097               0.001599293               0.001891390               0.000000000               0.000000000               0.000000000               0.000000000               0.000000000               0.000000000               0.000000000               0.000000000               0.000000000               0.000000000               0.000000000               0.000000000               0.000000000               0.000000000               0.000000000               0.000000000               0.000000000               0.000000000               0.000000000               0.000000000               0.000000000               0.000000000               0.000000000               0.000000000               0.000000000               0.000000000               0.000000000               0.000000000               0.000000000               0.000000000               0.000000000               0.000000000               0.000000000               0.000000000               0.000000000               0.000000000               0.000000000               0.000000000               0.000000000               0.000000000               0.000000000               0.000000000               0.000000000               0.000000000               0.000000000               0.000000000               0.000000000               0.000000000               0.000000000               0.000000000               0.000000000               0.000000000               0.000000000               0.000000000               0.000000000               0.000000000               0.000000000               0.000000000               0.000000000               0.000000000               0.000000000               0.000000000               0.000000000               0.000000000               0.000000000               0.000000000               0.000000000               0.000000000               0.000000000               0.000000000               0.000000000               0.000000000               0.000000000               0.000000000               0.000000000               0.000000000               0.000000000               0.000000000               0.000000000               0.000000000               0.000000000               0.000000000               0.000000000               0.000000000               0.000000000               0.000000000               0.000000000               0.000000000               0.000000000               0.000000000               0.000000000               0.000000000               0.000000000               0.000000000               0.000000000               0.000000000               0.000000000               0.000000000               0.000000000               0.000000000               0.000000000               0.000000000               0.000000000               0.000000000               0.000000000               0.000000000               0.000000000               0.000000000               0.000000000               0.000000000               0.000000000               0.000000000               0.000000000               0.000000000               0.000000000               0.000000000               0.000000000               0.000000000               0.000000000               0.000000000               0.000000000               0.000000000               0.000000000               0.000000000               0.000000000               0.000000000               0.000000000               0.000000000               0.000000000               0.000000000               0.000000000               0.000000000               0.000000000               0.000000000               0.000000000               0.000000000               0.000000000               0.000000000               0.000000000               0.000000000               0.000000000               0.000000000               0.000000000               0.000000000               0.000000000               0.000000000               0.000000000               0.000000000               0.000000000               0.000000000               0.000000000               0.000000000               0.000000000               0.000000000               0.000000000               0.000000000               0.000000000               0.000000000               0.000000000               0.000000000               0.000000000               0.000000000               0.000000000               0.000000000               0.000000000               0.000000000               0.000000000               0.000000000               0.000000000               0.000000000               0.000000000               0.000000000               0.000000000               0.000000000               0.001902938               0.019977797               0.001410594              -0.001783619               0.007253739               0.005470120               0.000000000               0.000000000               0.000000000               0.000000000               0.001809928               0.015852418               0.000737712              -0.001302826               0.005718362               0.004415536               0.000000000               0.000000000               0.000000000               0.000000000               0.002304196               0.012557050               0.000067918              -0.000705556               0.004420827               0.003715271               0.000000000               0.000000000               0.000000000               0.000000000               0.002194755               0.010710327              -0.000216893              -0.000515756               0.003741992               0.003226236               0.000000000               0.000000000               0.000000000               0.000000000               0.001913022               0.009563755              -0.000334996              -0.000478085               0.003347248               0.002869163               0.000000000               0.000000000               0.000000000               0.000000000               0.001602142               0.008784128              -0.000377204              -0.000497212               0.003093751               0.002596539               0.000000000               0.000000000               0.000000000               0.000000000               0.001311813               0.008210751              -0.000386469              -0.000534413               0.002915027               0.002380615               0.000000000               0.000000000               0.000000000               0.000000000               0.001056142               0.007759900              -0.000378489              -0.000573933               0.002777919               0.002203986               0.000000000               0.000000000               0.000000000               0.000000000               0.000837901               0.007381771              -0.000363140              -0.000608507               0.002663401               0.002054894               0.000000000               0.000000000               0.000000000               0.000000000               0.000652237               0.007041765              -0.000343626              -0.000635630               0.002559108               0.001923478               0.000000000               0.000000000               0.000000000               0.000000000               0.000493309               0.006718766              -0.000323393              -0.000654853               0.002457851               0.001802997               0.000000000               0.000000000               0.000000000               0.000000000               0.000354514               0.006403408              -0.000304823              -0.000667482               0.002356942               0.001689460               0.000000000               0.000000000               0.000000000               0.000000000               0.000233723               0.006087416              -0.000278707              -0.000673279               0.002253545               0.001580266               0.000000000               0.000000000               0.000000000               0.000000000               0.000140668               0.005758235              -0.000238134              -0.000667027               0.002141735               0.001474708               0.000000000               0.000000000               0.000000000               0.000000000               0.000074861               0.005400679              -0.000183461              -0.000647011               0.002015879               0.001368868               0.000000000               0.000000000               0.000000000               0.000000000               0.000031366               0.005003836              -0.000106541              -0.000613716               0.001872500               0.001258785               0.000000000               0.000000000               0.000000000               0.000000000              -0.000015040               0.004708184              -0.000066092              -0.000594162               0.001767433               0.001173271               0.000000000               0.000000000               0.000000000               0.000000000               0.002083930               0.018808763               0.002626584              -0.001569619               0.006792731               0.005223112               0.000000000               0.000000000               0.000000000               0.000000000               0.001722052               0.015096859               0.001374776              -0.001241335               0.005446014               0.004204679               0.000000000               0.000000000               0.000000000               0.000000000               0.001928349               0.012228640               0.000138775              -0.000805447               0.004344655               0.003539208               0.000000000               0.000000000               0.000000000               0.000000000               0.001714062               0.010600780              -0.000368792              -0.000682323               0.003760999               0.003078676               0.000000000               0.000000000               0.000000000               0.000000000               0.001414712               0.009561893              -0.000573480              -0.000664718               0.003408838               0.002744120               0.000000000               0.000000000               0.000000000               0.000000000               0.001128583               0.008837011              -0.000642920              -0.000681406               0.003172776               0.002491370               0.000000000               0.000000000               0.000000000               0.000000000               0.000877818               0.008288497              -0.000653728              -0.000706879               0.002998431               0.002291552               0.000000000               0.000000000               0.000000000               0.000000000               0.000669863               0.007844987              -0.000638477              -0.000729423               0.002858110               0.002128687               0.000000000               0.000000000               0.000000000               0.000000000               0.000506162               0.007466130              -0.000610260              -0.000743454               0.002736503               0.001993049               0.000000000               0.000000000               0.000000000               0.000000000               0.000374039               0.007124570              -0.000573278              -0.000750305               0.002624934               0.001874629               0.000000000               0.000000000               0.000000000               0.000000000               0.000264310               0.006806392              -0.000533895              -0.000751681               0.002519335               0.001767654               0.000000000               0.000000000               0.000000000               0.000000000               0.000175720               0.006502892              -0.000495964              -0.000746965               0.002416597               0.001669633               0.000000000               0.000000000               0.000000000               0.000000000               0.000104643               0.006204775              -0.000448308              -0.000736354               0.002313689               0.001577335               0.000000000               0.000000000               0.000000000               0.000000000               0.000053945               0.005910084              -0.000378137              -0.000718529               0.002209518               0.001490989               0.000000000               0.000000000               0.000000000               0.000000000               0.000021533               0.005618003              -0.000285155              -0.000694174               0.002104040               0.001409866               0.000000000               0.000000000               0.000000000               0.000000000               0.000005002               0.005330638              -0.000161638              -0.000664452               0.001998346               0.001333893               0.000000000               0.000000000               0.000000000               0.000000000              -0.000016619               0.005139673              -0.000096165              -0.000648690               0.001929437               0.001280747               0.000000000               0.000000000               0.000000000               0.000000000               0.002286051               0.017027158               0.003508365              -0.001271125               0.006099370               0.004828245               0.000000000               0.000000000               0.000000000               0.000000000               0.001547070               0.013957922               0.001847555              -0.001164587               0.005040790               0.003876203               0.000000000               0.000000000               0.000000000               0.000000000               0.001351023               0.011732412               0.000227739              -0.000959916               0.004230737               0.003270821               0.000000000               0.000000000               0.000000000               0.000000000               0.001015691               0.010413283              -0.000403526              -0.000920774               0.003777984               0.002857210               0.000000000               0.000000000               0.000000000               0.000000000               0.000715781               0.009523772              -0.000646038              -0.000922051               0.003481910               0.002559858               0.000000000               0.000000000               0.000000000               0.000000000               0.000478932               0.008867320              -0.000724314              -0.000928814               0.003265348               0.002336535               0.000000000               0.000000000               0.000000000               0.000000000               0.000300590               0.008349516              -0.000734075              -0.000930966               0.003093466               0.002162500               0.000000000               0.000000000               0.000000000               0.000000000               0.000173961               0.007918503              -0.000713386              -0.000924575               0.002947666               0.002023091               0.000000000               0.000000000               0.000000000               0.000000000               0.000084765               0.007540130              -0.000677684              -0.000910727               0.002816927               0.001906200               0.000000000               0.000000000               0.000000000               0.000000000               0.000021432               0.007200594              -0.000632418              -0.000892035               0.002697519               0.001805484               0.000000000               0.000000000               0.000000000               0.000000000              -0.000022535               0.006890809              -0.000584396              -0.000869800               0.002586847               0.001717047               0.000000000               0.000000000               0.000000000               0.000000000              -0.000045533               0.006603465              -0.000534392              -0.000842506               0.002481968               0.001639462               0.000000000               0.000000000               0.000000000               0.000000000              -0.000048962               0.006333627              -0.000472643              -0.000810062               0.002381208               0.001571146               0.000000000               0.000000000               0.000000000               0.000000000              -0.000037777               0.006088993              -0.000391853              -0.000775289               0.002288074               0.001512785               0.000000000               0.000000000               0.000000000               0.000000000              -0.000021440               0.005882888              -0.000289817              -0.000743399               0.002208743               0.001465344               0.000000000               0.000000000               0.000000000               0.000000000              -0.000009763               0.005723353              -0.000160199              -0.000719078               0.002147458               0.001428380               0.000000000               0.000000000               0.000000000               0.000000000              -0.000008915               0.005644616              -0.000088995              -0.000708919               0.002117826               0.001408908               0.000000000               0.000000000               0.000000000               0.000000000               0.002392970               0.014848061               0.003981316              -0.000958644               0.005268851               0.004310207               0.000000000               0.000000000               0.000000000               0.000000000               0.001260080               0.012583427               0.002134100              -0.001100397               0.004561232               0.003460836               0.000000000               0.000000000               0.000000000               0.000000000               0.000644441               0.011120515               0.000356576              -0.001148396               0.004089600               0.002941204               0.000000000               0.000000000               0.000000000               0.000000000               0.000223779               0.010140538              -0.000297866              -0.001183647               0.003774694               0.002591047               0.000000000               0.000000000               0.000000000               0.000000000              -0.000038587               0.009409571              -0.000538364              -0.001190664               0.003533380               0.002342716               0.000000000               0.000000000               0.000000000               0.000000000              -0.000191990               0.008828028              -0.000614983              -0.001175497               0.003334479               0.002158982               0.000000000               0.000000000               0.000000000               0.000000000              -0.000271619               0.008342769              -0.000626789              -0.001144700               0.003162462               0.002017761               0.000000000               0.000000000               0.000000000               0.000000000              -0.000303284               0.007922918              -0.000608150              -0.001104094               0.003008978               0.001904884               0.000000000               0.000000000               0.000000000               0.000000000              -0.000307830               0.007551974              -0.000573031              -0.001059430               0.002870443               0.001811012               0.000000000               0.000000000               0.000000000               0.000000000              -0.000291457               0.007219179              -0.000530400              -0.001011691               0.002743599               0.001731908               0.000000000               0.000000000               0.000000000               0.000000000              -0.000255111               0.006919559              -0.000484459              -0.000960609               0.002626700               0.001666090               0.000000000               0.000000000               0.000000000               0.000000000              -0.000206835               0.006651397              -0.000434097              -0.000908985               0.002520105               0.001611120               0.000000000               0.000000000               0.000000000               0.000000000              -0.000151580               0.006419498              -0.000370947              -0.000859278               0.002426237               0.001566959               0.000000000               0.000000000               0.000000000               0.000000000              -0.000094008               0.006231233              -0.000295786              -0.000814155               0.002348442               0.001534287               0.000000000               0.000000000               0.000000000               0.000000000              -0.000046346               0.006096264              -0.000209813              -0.000779411               0.002291871               0.001512460               0.000000000               0.000000000               0.000000000               0.000000000              -0.000017550               0.006018448              -0.000109654              -0.000758885               0.002259091               0.001500206               0.000000000               0.000000000               0.000000000               0.000000000              -0.000006180               0.005995802              -0.000055798              -0.000751791               0.002249178               0.001497387               0.000000000               0.000000000               0.000000000               0.000000000               0.002307455               0.012492054               0.004057136              -0.000696213               0.004396046               0.003699833               0.000000000               0.000000000               0.000000000               0.000000000               0.000860416               0.011119353               0.002260503              -0.001067262               0.004062167               0.002994905               0.000000000               0.000000000               0.000000000               0.000000000              -0.000100170               0.010448251               0.000542871              -0.001343592               0.003930580               0.002586988               0.000000000               0.000000000               0.000000000               0.000000000              -0.000530799               0.009787784              -0.000063339              -0.001422519               0.003736735               0.002314216               0.000000000               0.000000000               0.000000000               0.000000000              -0.000708190               0.009199082              -0.000285781              -0.001415453               0.003538148               0.002122695               0.000000000               0.000000000               0.000000000               0.000000000              -0.000756860               0.008684843              -0.000365812              -0.001369424               0.003351393               0.001981969               0.000000000               0.000000000               0.000000000               0.000000000              -0.000733574               0.008237500              -0.000385761              -0.001304774               0.003180731               0.001875956               0.000000000               0.000000000               0.000000000               0.000000000              -0.000670674               0.007840473              -0.000378095              -0.001231559               0.003023985               0.001792426               0.000000000               0.000000000               0.000000000               0.000000000              -0.000585478               0.007486396              -0.000355000              -0.001155351               0.002880557               0.001725207               0.000000000               0.000000000               0.000000000               0.000000000              -0.000489765               0.007166055              -0.000322585              -0.001079416               0.002748466               0.001669050               0.000000000               0.000000000               0.000000000               0.000000000              -0.000387680               0.006882553              -0.000285691              -0.001005697               0.002629394               0.001623697               0.000000000               0.000000000               0.000000000               0.000000000              -0.000288182               0.006637025              -0.000246467              -0.000937694               0.002524884               0.001587190               0.000000000               0.000000000               0.000000000               0.000000000              -0.000198310               0.006431794              -0.000199669              -0.000878338               0.002436689               0.001558351               0.000000000               0.000000000               0.000000000               0.000000000              -0.000122647               0.006273290              -0.000150149              -0.000830152               0.002367793               0.001537641               0.000000000               0.000000000               0.000000000               0.000000000              -0.000064295               0.006161497              -0.000102506              -0.000794296               0.002318577               0.001524281               0.000000000               0.000000000               0.000000000               0.000000000              -0.000024291               0.006084239              -0.000050805              -0.000769637               0.002284605               0.001514968               0.000000000               0.000000000               0.000000000               0.000000000              -0.000017230               0.006039369              -0.000028478              -0.000761381               0.002266897               0.001505516               0.000000000               0.000000000               0.000000000               0.000000000               0.001973934               0.010159310               0.003802024              -0.000529691               0.003562965               0.003033274               0.000000000               0.000000000               0.000000000               0.000000000               0.000373145               0.009686165               0.002266367              -0.001070840               0.003585636               0.002514795               0.000000000               0.000000000               0.000000000               0.000000000              -0.000795781               0.009748152               0.000785730              -0.001516933               0.003754996               0.002238063               0.000000000               0.000000000               0.000000000               0.000000000              -0.001153146               0.009356483               0.000263794              -0.001601986               0.003652792               0.002050806               0.000000000               0.000000000               0.000000000               0.000000000              -0.001206751               0.008887802               0.000053713              -0.001563503               0.003483739               0.001920236               0.000000000               0.000000000               0.000000000               0.000000000              -0.001137721               0.008441717              -0.000040636              -0.001481856               0.003307830               0.001825973               0.000000000               0.000000000               0.000000000               0.000000000              -0.001014310               0.008040087              -0.000080597              -0.001385374               0.003141793               0.001756420               0.000000000               0.000000000               0.000000000               0.000000000              -0.000868768               0.007675601              -0.000092695              -0.001285235               0.002986920               0.001701685               0.000000000               0.000000000               0.000000000               0.000000000              -0.000714513               0.007345869              -0.000087928              -0.001186173               0.002843990               0.001657817               0.000000000               0.000000000               0.000000000               0.000000000              -0.000561779               0.007048149              -0.000074515              -0.001091683               0.002713254               0.001621571               0.000000000               0.000000000               0.000000000               0.000000000              -0.000418899               0.006779788              -0.000062262              -0.001004558               0.002594759               0.001590201               0.000000000               0.000000000               0.000000000               0.000000000              -0.000299182               0.006540409              -0.000051531              -0.000929742               0.002490029               0.001560287               0.000000000               0.000000000               0.000000000               0.000000000              -0.000206865               0.006335777              -0.000041624              -0.000869544               0.002401753               0.001532208               0.000000000               0.000000000               0.000000000               0.000000000              -0.000137160               0.006170518              -0.000037922              -0.000822748               0.002331068               0.001508320               0.000000000               0.000000000               0.000000000               0.000000000              -0.000084798               0.006035946              -0.000036811              -0.000786291               0.002274059               0.001487768               0.000000000               0.000000000               0.000000000               0.000000000              -0.000040929               0.005915875              -0.000024368              -0.000754831               0.002223549               0.001468718               0.000000000               0.000000000               0.000000000               0.000000000              -0.000039999               0.005829538              -0.000025087              -0.000743690               0.002191057               0.001447367               0.000000000               0.000000000               0.000000000               0.000000000               0.001405520               0.007995259               0.003294200              -0.000472340               0.002822505               0.002350165               0.000000000               0.000000000               0.000000000               0.000000000              -0.000180611               0.008366331               0.002189849              -0.001113519               0.003159922               0.002046402               0.000000000               0.000000000               0.000000000               0.000000000              -0.001379079               0.009030678               0.001076415              -0.001645986               0.003558858               0.001912872               0.000000000               0.000000000               0.000000000               0.000000000              -0.001588419               0.008854708               0.000634120              -0.001702491               0.003519037               0.001816546               0.000000000               0.000000000               0.000000000               0.000000000              -0.001501417               0.008498010               0.000416517              -0.001625279               0.003374401               0.001749122               0.000000000               0.000000000               0.000000000               0.000000000              -0.001321300               0.008126224               0.000296929              -0.001511262               0.003212468               0.001701206               0.000000000               0.000000000               0.000000000               0.000000000              -0.001111678               0.007772431               0.000227990              -0.001388430               0.003053594               0.001665165               0.000000000               0.000000000               0.000000000               0.000000000              -0.000899389               0.007444902               0.000187257              -0.001267880               0.002904236               0.001636355               0.000000000               0.000000000               0.000000000               0.000000000              -0.000697796               0.007140254               0.000160476              -0.001154202               0.002764795               0.001610593               0.000000000               0.000000000               0.000000000               0.000000000              -0.000516411               0.006848212               0.000139997              -0.001049678               0.002632607               0.001582929               0.000000000               0.000000000               0.000000000               0.000000000              -0.000373487               0.006571278               0.000117660              -0.000961465               0.002510892               0.001549427               0.000000000               0.000000000               0.000000000               0.000000000              -0.000270931               0.006320253               0.000087971              -0.000891628               0.002403939               0.001512311               0.000000000               0.000000000               0.000000000               0.000000000              -0.000200647               0.006104177               0.000053077              -0.000838263               0.002314126               0.001475863               0.000000000               0.000000000               0.000000000               0.000000000              -0.000151259               0.005918748               0.000015745              -0.000796564               0.002238417               0.001441854               0.000000000               0.000000000               0.000000000               0.000000000              -0.000106988               0.005750937              -0.000015983              -0.000758986               0.002169955               0.001410969               0.000000000               0.000000000               0.000000000               0.000000000              -0.000058720               0.005599492              -0.000022523              -0.000721955               0.002107130               0.001385176               0.000000000               0.000000000               0.000000000               0.000000000              -0.000049387               0.005502875              -0.000027283              -0.000706378               0.002069733               0.001363355               0.000000000               0.000000000               0.000000000               0.000000000               0.000697842               0.006153691               0.002634756              -0.000507522               0.002220383               0.001712861               0.000000000               0.000000000               0.000000000               0.000000000              -0.000714856               0.007185564               0.002080812              -0.001166265               0.002783919               0.001617654               0.000000000               0.000000000               0.000000000               0.000000000              -0.001809321               0.008333153               0.001415683              -0.001720136               0.003351068               0.001630933               0.000000000               0.000000000               0.000000000               0.000000000              -0.001857618               0.008379714               0.001023935              -0.001744067               0.003374566               0.001630499               0.000000000               0.000000000               0.000000000               0.000000000              -0.001655751               0.008152837               0.000782340              -0.001640007               0.003264254               0.001624247               0.000000000               0.000000000               0.000000000               0.000000000              -0.001393540               0.007862364               0.000626422              -0.001505369               0.003122551               0.001617182               0.000000000               0.000000000               0.000000000               0.000000000              -0.001123378               0.007564703               0.000518318              -0.001366851               0.002977159               0.001610308               0.000000000               0.000000000               0.000000000               0.000000000              -0.000861056               0.007279221               0.000440882              -0.001232796               0.002837315               0.001604519               0.000000000               0.000000000               0.000000000               0.000000000              -0.000627465               0.006981765               0.000380189              -0.001108017               0.002696571               0.001588554               0.000000000               0.000000000               0.000000000               0.000000000              -0.000435809               0.006676538               0.000325047              -0.000997993               0.002558155               0.001560162               0.000000000               0.000000000               0.000000000               0.000000000              -0.000293507               0.006386996               0.000265399              -0.000908437               0.002431790               0.001523352               0.000000000               0.000000000               0.000000000               0.000000000              -0.000205628               0.006124900               0.000196637              -0.000842721               0.002322520               0.001479799               0.000000000               0.000000000               0.000000000               0.000000000              -0.000161085               0.005895270               0.000124323              -0.000797314               0.002230841               0.001433528               0.000000000               0.000000000               0.000000000               0.000000000              -0.000143458               0.005686416               0.000057864              -0.000764597               0.002150319               0.001385722               0.000000000               0.000000000               0.000000000               0.000000000              -0.000138464               0.005485531               0.000009203              -0.000737614               0.002074363               0.001336750               0.000000000               0.000000000               0.000000000               0.000000000              -0.000126306               0.005301361              -0.000011102              -0.000710033               0.002003780               0.001293747               0.000000000               0.000000000               0.000000000               0.000000000              -0.000111577               0.005209465              -0.000014725              -0.000693023               0.001967478               0.001274456               0.000000000               0.000000000               0.000000000               0.000000000              -0.000165919               0.004432856               0.001925062              -0.000616327               0.001683045               0.001066719               0.000000000               0.000000000               0.000000000               0.000000000              -0.001150029               0.005828241               0.001953575              -0.001159789               0.002329323               0.001169534               0.000000000               0.000000000               0.000000000               0.000000000              -0.002029936               0.007325477               0.001782903              -0.001676907               0.003000770               0.001323863               0.000000000               0.000000000               0.000000000               0.000000000              -0.001994921               0.007687749               0.001455401              -0.001709060               0.003132244               0.001423184               0.000000000               0.000000000               0.000000000               0.000000000              -0.001741470               0.007677725               0.001187819              -0.001612763               0.003096804               0.001484041               0.000000000               0.000000000               0.000000000               0.000000000              -0.001449671               0.007537510               0.000988094              -0.001485812               0.003007749               0.001521937               0.000000000               0.000000000               0.000000000               0.000000000              -0.001161270               0.007356624               0.000834956              -0.001355051               0.002903867               0.001548816               0.000000000               0.000000000               0.000000000               0.000000000              -0.000892935               0.007148982               0.000717562              -0.001228471               0.002792460               0.001563990               0.000000000               0.000000000               0.000000000               0.000000000              -0.000655034               0.006896795               0.000618690              -0.001107734               0.002668153               0.001560419               0.000000000               0.000000000               0.000000000               0.000000000              -0.000455606               0.006616826               0.000526188              -0.000997953               0.002538238               0.001540284               0.000000000               0.000000000               0.000000000               0.000000000              -0.000307519               0.006324581               0.000432906              -0.000905890               0.002410136               0.001504246               0.000000000               0.000000000               0.000000000               0.000000000              -0.000214251               0.006047423               0.000332453              -0.000836270               0.002294544               0.001458274               0.000000000               0.000000000               0.000000000               0.000000000              -0.000173641               0.005798358               0.000230902              -0.000789908               0.002196069               0.001406161               0.000000000               0.000000000               0.000000000               0.000000000              -0.000169586               0.005576571               0.000136587              -0.000760664               0.002112393               0.001351729               0.000000000               0.000000000               0.000000000               0.000000000              -0.000190539               0.005368720               0.000063154              -0.000742540               0.002037069               0.001294529               0.000000000               0.000000000               0.000000000               0.000000000              -0.000224880               0.005171346               0.000020272              -0.000730746               0.001967347               0.001236600               0.000000000               0.000000000               0.000000000               0.000000000              -0.000236994               0.005079805               0.000007086              -0.000723847               0.001934533               0.001210687               0.000000000               0.000000000               0.000000000               0.000000000              -0.001303535               0.002870398               0.001207043              -0.000847624               0.001239331               0.000391707               0.000000000               0.000000000               0.000000000               0.000000000              -0.001646958               0.004472496               0.001758956              -0.001176669               0.001883039               0.000706370               0.000000000               0.000000000               0.000000000               0.000000000              -0.002166245               0.006169287               0.002070295              -0.001583500               0.002584241               0.001000741               0.000000000               0.000000000               0.000000000               0.000000000              -0.002059387               0.006831466               0.001869058              -0.001626200               0.002819199               0.001192999               0.000000000               0.000000000               0.000000000               0.000000000              -0.001783516               0.007066518               0.001604218              -0.001552130               0.002872859               0.001320729               0.000000000               0.000000000               0.000000000               0.000000000              -0.001486071               0.007109282               0.001372125              -0.001445934               0.002851715               0.001405781               0.000000000               0.000000000               0.000000000               0.000000000              -0.001193893               0.007071278               0.001181012              -0.001331617               0.002800941               0.001469325               0.000000000               0.000000000               0.000000000               0.000000000              -0.000924278               0.006971518               0.001026751              -0.001218041               0.002729829               0.001511788               0.000000000               0.000000000               0.000000000               0.000000000              -0.000689043               0.006798324               0.000897284              -0.001108179               0.002635478               0.001527299               0.000000000               0.000000000               0.000000000               0.000000000              -0.000481339               0.006577105               0.000776288              -0.001002638               0.002526559               0.001523921               0.000000000               0.000000000               0.000000000               0.000000000              -0.000313865               0.006324992               0.000654610              -0.000908321               0.002411083               0.001502762               0.000000000               0.000000000               0.000000000               0.000000000              -0.000192731               0.006062877               0.000529503              -0.000830132               0.002297649               0.001467517               0.000000000               0.000000000               0.000000000               0.000000000              -0.000125717               0.005805169               0.000405149              -0.000772788               0.002192633               0.001419845               0.000000000               0.000000000               0.000000000               0.000000000              -0.000112543               0.005567934               0.000284376              -0.000738194               0.002102024               0.001363830               0.000000000               0.000000000               0.000000000               0.000000000              -0.000147993               0.005354063               0.000169915              -0.000724753               0.002026254               0.001301501               0.000000000               0.000000000               0.000000000               0.000000000              -0.000228916               0.005164749               0.000074657              -0.000731435               0.001965377               0.001233942               0.000000000               0.000000000               0.000000000               0.000000000              -0.000295940               0.005067697               0.000026679              -0.000744438               0.001937361               0.001192924               0.000000000               0.000000000               0.000000000               0.000000000              -0.002636692               0.001577957               0.000534750              -0.001186002               0.000921313              -0.000264689               0.000000000               0.000000000               0.000000000               0.000000000              -0.002250740               0.003196281               0.001474285              -0.001243560               0.001479936               0.000236375               0.000000000               0.000000000               0.000000000               0.000000000              -0.002257756               0.004879556               0.002175066              -0.001456601               0.002112035               0.000655435               0.000000000               0.000000000               0.000000000               0.000000000              -0.002018871               0.005754288               0.002137646              -0.001476360               0.002410196               0.000933836               0.000000000               0.000000000               0.000000000               0.000000000              -0.001715718               0.006217063               0.001920404              -0.001420524               0.002545841               0.001125317               0.000000000               0.000000000               0.000000000               0.000000000              -0.001417958               0.006458440               0.001687365              -0.001339037               0.002599137               0.001260100               0.000000000               0.000000000               0.000000000               0.000000000              -0.001134007               0.006581573               0.001481992              -0.001247947               0.002609818               0.001361871               0.000000000               0.000000000               0.000000000               0.000000000              -0.000871865               0.006610629               0.001307813              -0.001153276               0.002587946               0.001434670               0.000000000               0.000000000               0.000000000               0.000000000              -0.000638683               0.006547408               0.001158079              -0.001057930               0.002535090               0.001477161               0.000000000               0.000000000               0.000000000               0.000000000              -0.000432152               0.006416287               0.001016752              -0.000964091               0.002460105               0.001496014               0.000000000               0.000000000               0.000000000               0.000000000              -0.000257341               0.006236742               0.000875438              -0.000876094               0.002370924               0.001494831               0.000000000               0.000000000               0.000000000               0.000000000              -0.000112602               0.006027791               0.000736167              -0.000795698               0.002274476               0.001478778               0.000000000               0.000000000               0.000000000               0.000000000              -0.000006094               0.005794526               0.000596818              -0.000726599               0.002173689               0.001447090               0.000000000               0.000000000               0.000000000               0.000000000               0.000045234               0.005559707               0.000452905              -0.000677999               0.002079217               0.001401218               0.000000000               0.000000000               0.000000000               0.000000000               0.000033774               0.005347250               0.000301512              -0.000655740               0.002000979               0.001345239               0.000000000               0.000000000               0.000000000               0.000000000              -0.000044550               0.005165914               0.000148856              -0.000662444               0.001942769               0.001280325               0.000000000               0.000000000               0.000000000               0.000000000              -0.000129954               0.005065653               0.000063269              -0.000681938               0.001915847               0.001233909               0.000000000               0.000000000               0.000000000               0.000000000              -0.004072083               0.000615429              -0.000003813              -0.001603958               0.000739790              -0.000864167               0.000000000               0.000000000               0.000000000               0.000000000              -0.002924798               0.002065960               0.001136095              -0.001355042               0.001140326              -0.000214716               0.000000000               0.000000000               0.000000000               0.000000000              -0.002328564               0.003561791               0.002073300              -0.001318433               0.001626729               0.000308295               0.000000000               0.000000000               0.000000000               0.000000000              -0.001896728               0.004544871               0.002185197              -0.001279380               0.001941401               0.000662021               0.000000000               0.000000000               0.000000000               0.000000000              -0.001541650               0.005185986               0.002045500              -0.001226365               0.002137432               0.000911067               0.000000000               0.000000000               0.000000000               0.000000000              -0.001235239               0.005610576               0.001846284              -0.001164534               0.002258351               0.001093816               0.000000000               0.000000000               0.000000000               0.000000000              -0.000959817               0.005899460               0.001653056              -0.001097362               0.002332254               0.001234892               0.000000000               0.000000000               0.000000000               0.000000000              -0.000712551               0.006063985               0.001482297              -0.001025203               0.002363042               0.001337839               0.000000000               0.000000000               0.000000000               0.000000000              -0.000491313               0.006121406               0.001330098              -0.000949416               0.002356920               0.001407504               0.000000000               0.000000000               0.000000000               0.000000000              -0.000290811               0.006104445               0.001180121              -0.000872108               0.002325497               0.001453389               0.000000000               0.000000000               0.000000000               0.000000000              -0.000109273               0.006023197               0.001033328              -0.000793875               0.002272337               0.001478462               0.000000000               0.000000000               0.000000000               0.000000000               0.000055184               0.005892563               0.000894396              -0.000715875               0.002202793               0.001486918               0.000000000               0.000000000               0.000000000               0.000000000               0.000199342               0.005723627               0.000752241              -0.000640699               0.002121423               0.001480724               0.000000000               0.000000000               0.000000000               0.000000000               0.000308849               0.005531576               0.000595616              -0.000575627               0.002035716               0.001460089               0.000000000               0.000000000               0.000000000               0.000000000               0.000366748               0.005339705               0.000418967              -0.000529931               0.001956528               0.001426596               0.000000000               0.000000000               0.000000000               0.000000000               0.000355256               0.005165806               0.000220444              -0.000512503               0.001892752               0.001380249               0.000000000               0.000000000               0.000000000               0.000000000               0.000311287               0.005073509               0.000109923              -0.000517455               0.001863638               0.001346183               0.000000000               0.000000000               0.000000000               0.000000000              -0.005462378              -0.000022514              -0.000330792              -0.002045576               0.000674349              -0.001371226               0.000000000               0.000000000               0.000000000               0.000000000              -0.003606326               0.001146330               0.000791014              -0.001495661               0.000880658              -0.000615004               0.000000000               0.000000000               0.000000000               0.000000000              -0.002391729               0.002344780               0.001766311              -0.001189994               0.001178249              -0.000011745               0.000000000               0.000000000               0.000000000               0.000000000              -0.001728506               0.003341166               0.001970432              -0.001065834               0.001468988               0.000403154               0.000000000               0.000000000               0.000000000               0.000000000              -0.001293546               0.004095175               0.001907668              -0.000996975               0.001697369               0.000700394               0.000000000               0.000000000               0.000000000               0.000000000              -0.000965904               0.004661423               0.001762919              -0.000944890               0.001868755               0.000923865               0.000000000               0.000000000               0.000000000               0.000000000              -0.000691886               0.005090059               0.001607126              -0.000895713               0.001995240               0.001099527               0.000000000               0.000000000               0.000000000               0.000000000              -0.000457026               0.005382101               0.001460602              -0.000844146               0.002075397               0.001231251               0.000000000               0.000000000               0.000000000               0.000000000              -0.000252969               0.005562645               0.001322344              -0.000790193               0.002117594               0.001327401               0.000000000               0.000000000               0.000000000               0.000000000              -0.000064040               0.005657528               0.001185655              -0.000731205               0.002129558               0.001398354               0.000000000               0.000000000               0.000000000               0.000000000               0.000121337               0.005679521               0.001054049              -0.000664438               0.002114634               0.001450196               0.000000000               0.000000000               0.000000000               0.000000000               0.000304834               0.005645921               0.000929894              -0.000591426               0.002079097               0.001487671               0.000000000               0.000000000               0.000000000               0.000000000               0.000482222               0.005564602               0.000800239              -0.000514741               0.002026429               0.001511688               0.000000000               0.000000000               0.000000000               0.000000000               0.000652052               0.005448600               0.000651619              -0.000436555               0.001961700               0.001525145               0.000000000               0.000000000               0.000000000               0.000000000               0.000802939               0.005307064               0.000471907              -0.000362280               0.001889764               0.001527483               0.000000000               0.000000000               0.000000000               0.000000000               0.000916458               0.005155505               0.000253857              -0.000300766               0.001818740               0.001517974               0.000000000               0.000000000               0.000000000               0.000000000               0.000975902               0.005084747               0.000137459              -0.000269629               0.001784775               0.001515146               0.000000000               0.000000000               0.000000000               0.000000000              -0.006634699              -0.000388304              -0.000409164              -0.002439472               0.000683718              -0.001755754               0.000000000               0.000000000               0.000000000               0.000000000              -0.004203935               0.000480266               0.000480754              -0.001636507               0.000705586              -0.000930921               0.000000000               0.000000000               0.000000000               0.000000000              -0.002448617               0.001362862               0.001282778              -0.001088588               0.000817144              -0.000271444               0.000000000               0.000000000               0.000000000               0.000000000              -0.001555929               0.002307608               0.001495050              -0.000871923               0.001059835               0.000187912               0.000000000               0.000000000               0.000000000               0.000000000              -0.001029709               0.003113332               0.001484041              -0.000775306               0.001296202               0.000520896               0.000000000               0.000000000               0.000000000               0.000000000              -0.000669797               0.003770672               0.001396528              -0.000722507               0.001497713               0.000775206               0.000000000               0.000000000               0.000000000               0.000000000              -0.000391696               0.004302587               0.001291204              -0.000684708               0.001662417               0.000977709               0.000000000               0.000000000               0.000000000               0.000000000              -0.000169189               0.004698429               0.001184067              -0.000650749               0.001783043               0.001132295               0.000000000               0.000000000               0.000000000               0.000000000               0.000019912               0.004979016               0.001078613              -0.000614909               0.001864625               0.001249716               0.000000000               0.000000000               0.000000000               0.000000000               0.000199646               0.005170671               0.000975670              -0.000571466               0.001914028               0.001342563               0.000000000               0.000000000               0.000000000               0.000000000               0.000384806               0.005288602               0.000877332              -0.000516772               0.001935107               0.001418335               0.000000000               0.000000000               0.000000000               0.000000000               0.000578780               0.005349070               0.000782864              -0.000451591               0.001933536               0.001481945               0.000000000               0.000000000               0.000000000               0.000000000               0.000784491               0.005357570               0.000684139              -0.000375512               0.001911009               0.001535498               0.000000000               0.000000000               0.000000000               0.000000000               0.001006935               0.005322008               0.000567832              -0.000287650               0.001869868               0.001582218               0.000000000               0.000000000               0.000000000               0.000000000               0.001245689               0.005244585               0.000419078              -0.000188440               0.001810991               0.001622551               0.000000000               0.000000000               0.000000000               0.000000000               0.001503337               0.005131368               0.000228946              -0.000077670               0.001736329               0.001658659               0.000000000               0.000000000               0.000000000               0.000000000               0.001695550               0.005089150               0.000130180              -0.000000313               0.001696471               0.001696158               0.000000000               0.000000000               0.000000000               0.000000000              -0.007417333              -0.000561138              -0.000269854              -0.002711356               0.000716734              -0.001994621               0.000000000               0.000000000               0.000000000               0.000000000              -0.004617069               0.000082549               0.000222049              -0.001741718               0.000608085              -0.001133633               0.000000000               0.000000000               0.000000000               0.000000000              -0.002494875               0.000727133               0.000675283              -0.001026468               0.000584530              -0.000441939               0.000000000               0.000000000               0.000000000               0.000000000              -0.001429198               0.001605925               0.000808776              -0.000736689               0.000780865               0.000044177               0.000000000               0.000000000               0.000000000               0.000000000              -0.000826275               0.002423368               0.000814539              -0.000612773               0.001012038               0.000399266               0.000000000               0.000000000               0.000000000               0.000000000              -0.000436414               0.003130012               0.000774760              -0.000554906               0.001228295               0.000673390               0.000000000               0.000000000               0.000000000               0.000000000              -0.000154812               0.003725438               0.000722441              -0.000523733               0.001416378               0.000892645               0.000000000               0.000000000               0.000000000               0.000000000               0.000059711               0.004188333               0.000666336              -0.000501149               0.001563147               0.001061998               0.000000000               0.000000000               0.000000000               0.000000000               0.000241015               0.004533303               0.000609687              -0.000476281               0.001669846               0.001193565               0.000000000               0.000000000               0.000000000               0.000000000               0.000413998               0.004788087               0.000555014              -0.000443261               0.001743766               0.001300506               0.000000000               0.000000000               0.000000000               0.000000000               0.000596762               0.004975799               0.000501482              -0.000398188               0.001791313               0.001393124               0.000000000               0.000000000               0.000000000               0.000000000               0.000797789               0.005107792               0.000449831              -0.000339303               0.001815681               0.001476379               0.000000000               0.000000000               0.000000000               0.000000000               0.001023021               0.005183678               0.000397322              -0.000264326               0.001815984               0.001551658               0.000000000               0.000000000               0.000000000               0.000000000               0.001282641               0.005209186               0.000332117              -0.000170158               0.001793097               0.001622940               0.000000000               0.000000000               0.000000000               0.000000000               0.001589746               0.005183570               0.000248353              -0.000051791               0.001745103               0.001693312               0.000000000               0.000000000               0.000000000               0.000000000               0.001959765               0.005105833               0.000138876               0.000096682               0.001669700               0.001766382               0.000000000               0.000000000               0.000000000               0.000000000               0.002260519               0.005089461               0.000082095               0.000211510               0.001625967               0.001837477               0.000000000               0.000000000               0.000000000               0.000000000              -0.007690089              -0.000606579               0.000000000              -0.002807959               0.000733789              -0.002074171               0.000000000               0.000000000               0.000000000               0.000000000              -0.004764186              -0.000044358               0.000000000              -0.001781024               0.000578885              -0.001202139               0.000000000               0.000000000               0.000000000               0.000000000              -0.002514426               0.000509530               0.000000000              -0.001006600               0.000505373              -0.000501227               0.000000000               0.000000000               0.000000000               0.000000000              -0.001385610               0.001353567               0.000000000              -0.000688798               0.000680783              -0.000008015               0.000000000               0.000000000               0.000000000               0.000000000              -0.000751646               0.002169934               0.000000000              -0.000553108               0.000907673               0.000354566               0.000000000               0.000000000               0.000000000               0.000000000              -0.000349217               0.002894547              -0.000000000              -0.000492774               0.001129097               0.000636324               0.000000000               0.000000000               0.000000000               0.000000000              -0.000065049               0.003515657              -0.000000000              -0.000463849               0.001326490               0.000862641               0.000000000               0.000000000               0.000000000               0.000000000               0.000147816               0.004001846               0.000000000              -0.000444799               0.001482201               0.001037403               0.000000000               0.000000000               0.000000000               0.000000000               0.000326628               0.004365598              -0.000000000              -0.000423213               0.001596256               0.001173043               0.000000000               0.000000000               0.000000000               0.000000000               0.000497719               0.004641688               0.000000000              -0.000393566               0.001678402               0.001284837               0.000000000               0.000000000               0.000000000               0.000000000               0.000678716               0.004854843              -0.000000000              -0.000352336               0.001735710               0.001383374               0.000000000               0.000000000               0.000000000               0.000000000               0.000883425               0.005014108              -0.000000000              -0.000295478               0.001769845               0.001474367               0.000000000               0.000000000               0.000000000               0.000000000               0.001115281               0.005115566               0.000000000              -0.000221215               0.001778910               0.001557695               0.000000000               0.000000000               0.000000000               0.000000000               0.001387673               0.005162524               0.000000000              -0.000124938               0.001762470               0.001637532               0.000000000               0.000000000               0.000000000               0.000000000               0.001722088               0.005155663               0.000000000               0.000001325               0.001718096               0.001719421               0.000000000               0.000000000               0.000000000               0.000000000               0.002133939               0.005094133               0.000000000               0.000163459               0.001643541               0.001807000               0.000000000               0.000000000               0.000000000               0.000000000               0.002475609               0.005090028               0.000000000               0.000292097               0.001599293               0.001891390               0.000000000               0.000000000               0.000000000               0.000000000               0.001830806               0.020383890              -0.000000000              -0.001861429               0.007415039               0.005553609               0.000000000               0.000000000               0.000000000               0.000000000               0.001834065               0.016117067              -0.000000000              -0.001326856               0.005814587               0.004487731               0.000000000               0.000000000               0.000000000               0.000000000               0.002433187               0.012673552               0.000000000              -0.000671747               0.004448391               0.003776644               0.000000000               0.000000000               0.000000000               0.000000000               0.002365406               0.010747032               0.000000000              -0.000456351               0.003734425               0.003278074               0.000000000               0.000000000               0.000000000               0.000000000               0.002092187               0.009560634              -0.000000000              -0.000410508               0.003323682               0.002913174               0.000000000               0.000000000               0.000000000               0.000000000               0.001775031               0.008758177               0.000000000              -0.000429134               0.003062408               0.002633274               0.000000000               0.000000000               0.000000000               0.000000000               0.001473082               0.008176035               0.000000000              -0.000469597               0.002881850               0.002412253               0.000000000               0.000000000               0.000000000               0.000000000               0.001200051               0.007722577               0.000000000              -0.000515302               0.002745934               0.002230632               0.000000000               0.000000000               0.000000000               0.000000000               0.000963206               0.007343406               0.000000000              -0.000556722               0.002633352               0.002076630               0.000000000               0.000000000               0.000000000               0.000000000               0.000758212               0.007006315               0.000000000              -0.000591458               0.002532568               0.001941109               0.000000000               0.000000000               0.000000000               0.000000000               0.000578198               0.006684582               0.000000000              -0.000618747               0.002434421               0.001815674               0.000000000               0.000000000               0.000000000               0.000000000               0.000421852               0.006368170              -0.000000000              -0.000637825               0.002335311               0.001697485               0.000000000               0.000000000               0.000000000               0.000000000               0.000284390               0.006044400              -0.000000000              -0.000648902               0.002231081               0.001582179               0.000000000               0.000000000               0.000000000               0.000000000               0.000175397               0.005697404               0.000000000              -0.000646400               0.002114582               0.001468182               0.000000000               0.000000000               0.000000000               0.000000000               0.000097188               0.005311692               0.000000000              -0.000627514               0.001979718               0.001352203               0.000000000               0.000000000               0.000000000               0.000000000               0.000042460               0.004870430              -0.000000000              -0.000592880               0.001821087               0.001228207               0.000000000               0.000000000               0.000000000               0.000000000              -0.000014637               0.004531203              -0.000000000              -0.000571888               0.001701015               0.001129127               0.000000000               0.000000000               0.000000000               0.000000000               0.001902938               0.019977797              -0.001410594              -0.001783619               0.007253739               0.005470120               0.000000000               0.000000000               0.000000000               0.000000000               0.001809928               0.015852418              -0.000737712              -0.001302826               0.005718362               0.004415536               0.000000000               0.000000000               0.000000000               0.000000000               0.002304196               0.012557050              -0.000067918              -0.000705556               0.004420827               0.003715271               0.000000000               0.000000000               0.000000000               0.000000000               0.002194755               0.010710327               0.000216893              -0.000515756               0.003741992               0.003226236               0.000000000               0.000000000               0.000000000               0.000000000               0.001913022               0.009563755               0.000334996              -0.000478085               0.003347248               0.002869163               0.000000000               0.000000000               0.000000000               0.000000000               0.001602142               0.008784128               0.000377204              -0.000497212               0.003093751               0.002596539               0.000000000               0.000000000               0.000000000               0.000000000               0.001311813               0.008210751               0.000386469              -0.000534413               0.002915027               0.002380615               0.000000000               0.000000000               0.000000000               0.000000000               0.001056142               0.007759900               0.000378489              -0.000573933               0.002777919               0.002203986               0.000000000               0.000000000               0.000000000               0.000000000               0.000837901               0.007381771               0.000363140              -0.000608507               0.002663401               0.002054894               0.000000000               0.000000000               0.000000000               0.000000000               0.000652237               0.007041765               0.000343626              -0.000635630               0.002559108               0.001923478               0.000000000               0.000000000               0.000000000               0.000000000               0.000493309               0.006718766               0.000323393              -0.000654853               0.002457851               0.001802997               0.000000000               0.000000000               0.000000000               0.000000000               0.000354514               0.006403408               0.000304823              -0.000667482               0.002356942               0.001689460               0.000000000               0.000000000               0.000000000               0.000000000               0.000233723               0.006087416               0.000278707              -0.000673279               0.002253545               0.001580266               0.000000000               0.000000000               0.000000000               0.000000000               0.000140668               0.005758235               0.000238134              -0.000667027               0.002141735               0.001474708               0.000000000               0.000000000               0.000000000               0.000000000               0.000074861               0.005400679               0.000183461              -0.000647011               0.002015879               0.001368868               0.000000000               0.000000000               0.000000000               0.000000000               0.000031366               0.005003836               0.000106541              -0.000613716               0.001872500               0.001258785               0.000000000               0.000000000               0.000000000               0.000000000              -0.000015040               0.004708184               0.000066092              -0.000594162               0.001767433               0.001173271               0.000000000               0.000000000               0.000000000               0.000000000               0.002083930               0.018808763              -0.002626584              -0.001569619               0.006792731               0.005223112               0.000000000               0.000000000               0.000000000               0.000000000               0.001722052               0.015096859              -0.001374776              -0.001241335               0.005446014               0.004204679               0.000000000               0.000000000               0.000000000               0.000000000               0.001928349               0.012228640              -0.000138775              -0.000805447               0.004344655               0.003539208               0.000000000               0.000000000               0.000000000               0.000000000               0.001714062               0.010600780               0.000368792              -0.000682323               0.003760999               0.003078676               0.000000000               0.000000000               0.000000000               0.000000000               0.001414712               0.009561893               0.000573480              -0.000664718               0.003408838               0.002744120               0.000000000               0.000000000               0.000000000               0.000000000               0.001128583               0.008837011               0.000642920              -0.000681406               0.003172776               0.002491370               0.000000000               0.000000000               0.000000000               0.000000000               0.000877818               0.008288497               0.000653728              -0.000706879               0.002998431               0.002291552               0.000000000               0.000000000               0.000000000               0.000000000               0.000669863               0.007844987               0.000638477              -0.000729423               0.002858110               0.002128687               0.000000000               0.000000000               0.000000000               0.000000000               0.000506162               0.007466130               0.000610260              -0.000743454               0.002736503               0.001993049               0.000000000               0.000000000               0.000000000               0.000000000               0.000374039               0.007124570               0.000573278              -0.000750305               0.002624934               0.001874629               0.000000000               0.000000000               0.000000000               0.000000000               0.000264310               0.006806392               0.000533895              -0.000751681               0.002519335               0.001767654               0.000000000               0.000000000               0.000000000               0.000000000               0.000175720               0.006502892               0.000495964              -0.000746965               0.002416597               0.001669633               0.000000000               0.000000000               0.000000000               0.000000000               0.000104643               0.006204775               0.000448308              -0.000736354               0.002313689               0.001577335               0.000000000               0.000000000               0.000000000               0.000000000               0.000053945               0.005910084               0.000378137              -0.000718529               0.002209518               0.001490989               0.000000000               0.000000000               0.000000000               0.000000000               0.000021533               0.005618003               0.000285155              -0.000694174               0.002104040               0.001409866               0.000000000               0.000000000               0.000000000               0.000000000               0.000005002               0.005330638               0.000161638              -0.000664452               0.001998346               0.001333893               0.000000000               0.000000000               0.000000000               0.000000000              -0.000016619               0.005139673               0.000096165              -0.000648690               0.001929437               0.001280747               0.000000000               0.000000000               0.000000000               0.000000000               0.002286051               0.017027158              -0.003508365              -0.001271125               0.006099370               0.004828245               0.000000000               0.000000000               0.000000000               0.000000000               0.001547070               0.013957922              -0.001847555              -0.001164587               0.005040790               0.003876203               0.000000000               0.000000000               0.000000000               0.000000000               0.001351023               0.011732412              -0.000227739              -0.000959916               0.004230737               0.003270821               0.000000000               0.000000000               0.000000000               0.000000000               0.001015691               0.010413283               0.000403526              -0.000920774               0.003777984               0.002857210               0.000000000               0.000000000               0.000000000               0.000000000               0.000715781               0.009523772               0.000646038              -0.000922051               0.003481910               0.002559858               0.000000000               0.000000000               0.000000000               0.000000000               0.000478932               0.008867320               0.000724314              -0.000928814               0.003265348               0.002336535               0.000000000               0.000000000               0.000000000               0.000000000               0.000300590               0.008349516               0.000734075              -0.000930966               0.003093466               0.002162500               0.000000000               0.000000000               0.000000000               0.000000000               0.000173961               0.007918503               0.000713386              -0.000924575               0.002947666               0.002023091               0.000000000               0.000000000               0.000000000               0.000000000               0.000084765               0.007540130               0.000677684              -0.000910727               0.002816927               0.001906200               0.000000000               0.000000000               0.000000000               0.000000000               0.000021432               0.007200594               0.000632418              -0.000892035               0.002697519               0.001805484               0.000000000               0.000000000               0.000000000               0.000000000              -0.000022535               0.006890809               0.000584396              -0.000869800               0.002586847               0.001717047               0.000000000               0.000000000               0.000000000               0.000000000              -0.000045533               0.006603465               0.000534392              -0.000842506               0.002481968               0.001639462               0.000000000               0.000000000               0.000000000               0.000000000              -0.000048962               0.006333627               0.000472643              -0.000810062               0.002381208               0.001571146               0.000000000               0.000000000               0.000000000               0.000000000              -0.000037777               0.006088993               0.000391853              -0.000775289               0.002288074               0.001512785               0.000000000               0.000000000               0.000000000               0.000000000              -0.000021440               0.005882888               0.000289817              -0.000743399               0.002208743               0.001465344               0.000000000               0.000000000               0.000000000               0.000000000              -0.000009763               0.005723353               0.000160199              -0.000719078               0.002147458               0.001428380               0.000000000               0.000000000               0.000000000               0.000000000              -0.000008915               0.005644616               0.000088995              -0.000708919               0.002117826               0.001408908               0.000000000               0.000000000               0.000000000               0.000000000               0.002392970               0.014848061              -0.003981316              -0.000958644               0.005268851               0.004310207               0.000000000               0.000000000               0.000000000               0.000000000               0.001260080               0.012583427              -0.002134100              -0.001100397               0.004561232               0.003460836               0.000000000               0.000000000               0.000000000               0.000000000               0.000644441               0.011120515              -0.000356576              -0.001148396               0.004089600               0.002941204               0.000000000               0.000000000               0.000000000               0.000000000               0.000223779               0.010140538               0.000297866              -0.001183647               0.003774694               0.002591047               0.000000000               0.000000000               0.000000000               0.000000000              -0.000038587               0.009409571               0.000538364              -0.001190664               0.003533380               0.002342716               0.000000000               0.000000000               0.000000000               0.000000000              -0.000191990               0.008828028               0.000614983              -0.001175497               0.003334479               0.002158982               0.000000000               0.000000000               0.000000000               0.000000000              -0.000271619               0.008342769               0.000626789              -0.001144700               0.003162462               0.002017761               0.000000000               0.000000000               0.000000000               0.000000000              -0.000303284               0.007922918               0.000608150              -0.001104094               0.003008978               0.001904884               0.000000000               0.000000000               0.000000000               0.000000000              -0.000307830               0.007551974               0.000573031              -0.001059430               0.002870443               0.001811012               0.000000000               0.000000000               0.000000000               0.000000000              -0.000291457               0.007219179               0.000530400              -0.001011691               0.002743599               0.001731908               0.000000000               0.000000000               0.000000000               0.000000000              -0.000255111               0.006919559               0.000484459              -0.000960609               0.002626700               0.001666090               0.000000000               0.000000000               0.000000000               0.000000000              -0.000206835               0.006651397               0.000434097              -0.000908985               0.002520105               0.001611120               0.000000000               0.000000000               0.000000000               0.000000000              -0.000151580               0.006419498               0.000370947              -0.000859278               0.002426237               0.001566959               0.000000000               0.000000000               0.000000000               0.000000000              -0.000094008               0.006231233               0.000295786              -0.000814155               0.002348442               0.001534287               0.000000000               0.000000000               0.000000000               0.000000000              -0.000046346               0.006096264               0.000209813              -0.000779411               0.002291871               0.001512460               0.000000000               0.000000000               0.000000000               0.000000000              -0.000017550               0.006018448               0.000109654              -0.000758885               0.002259091               0.001500206               0.000000000               0.000000000               0.000000000               0.000000000              -0.000006180               0.005995802               0.000055798              -0.000751791               0.002249178               0.001497387               0.000000000               0.000000000               0.000000000               0.000000000               0.002307455               0.012492054              -0.004057136              -0.000696213               0.004396046               0.003699833               0.000000000               0.000000000               0.000000000               0.000000000               0.000860416               0.011119353              -0.002260503              -0.001067262               0.004062167               0.002994905               0.000000000               0.000000000               0.000000000               0.000000000              -0.000100170               0.010448251              -0.000542871              -0.001343592               0.003930580               0.002586988               0.000000000               0.000000000               0.000000000               0.000000000              -0.000530799               0.009787784               0.000063339              -0.001422519               0.003736735               0.002314216               0.000000000               0.000000000               0.000000000               0.000000000              -0.000708190               0.009199082               0.000285781              -0.001415453               0.003538148               0.002122695               0.000000000               0.000000000               0.000000000               0.000000000              -0.000756860               0.008684843               0.000365812              -0.001369424               0.003351393               0.001981969               0.000000000               0.000000000               0.000000000               0.000000000              -0.000733574               0.008237500               0.000385761              -0.001304774               0.003180731               0.001875956               0.000000000               0.000000000               0.000000000               0.000000000              -0.000670674               0.007840473               0.000378095              -0.001231559               0.003023985               0.001792426               0.000000000               0.000000000               0.000000000               0.000000000              -0.000585478               0.007486396               0.000355000              -0.001155351               0.002880557               0.001725207               0.000000000               0.000000000               0.000000000               0.000000000              -0.000489765               0.007166055               0.000322585              -0.001079416               0.002748466               0.001669050               0.000000000               0.000000000               0.000000000               0.000000000              -0.000387680               0.006882553               0.000285691              -0.001005697               0.002629394               0.001623697               0.000000000               0.000000000               0.000000000               0.000000000              -0.000288182               0.006637025               0.000246467              -0.000937694               0.002524884               0.001587190               0.000000000               0.000000000               0.000000000               0.000000000              -0.000198310               0.006431794               0.000199669              -0.000878338               0.002436689               0.001558351               0.000000000               0.000000000               0.000000000               0.000000000              -0.000122647               0.006273290               0.000150149              -0.000830152               0.002367793               0.001537641               0.000000000               0.000000000               0.000000000               0.000000000              -0.000064295               0.006161497               0.000102506              -0.000794296               0.002318577               0.001524281               0.000000000               0.000000000               0.000000000               0.000000000              -0.000024291               0.006084239               0.000050805              -0.000769637               0.002284605               0.001514968               0.000000000               0.000000000               0.000000000               0.000000000              -0.000017230               0.006039369               0.000028478              -0.000761381               0.002266897               0.001505516               0.000000000               0.000000000               0.000000000               0.000000000               0.001973934               0.010159310              -0.003802024              -0.000529691               0.003562965               0.003033274               0.000000000               0.000000000               0.000000000               0.000000000               0.000373145               0.009686165              -0.002266367              -0.001070840               0.003585636               0.002514795               0.000000000               0.000000000               0.000000000               0.000000000              -0.000795781               0.009748152              -0.000785730              -0.001516933               0.003754996               0.002238063               0.000000000               0.000000000               0.000000000               0.000000000              -0.001153146               0.009356483              -0.000263794              -0.001601986               0.003652792               0.002050806               0.000000000               0.000000000               0.000000000               0.000000000              -0.001206751               0.008887802              -0.000053713              -0.001563503               0.003483739               0.001920236               0.000000000               0.000000000               0.000000000               0.000000000              -0.001137721               0.008441717               0.000040636              -0.001481856               0.003307830               0.001825973               0.000000000               0.000000000               0.000000000               0.000000000              -0.001014310               0.008040087               0.000080597              -0.001385374               0.003141793               0.001756420               0.000000000               0.000000000               0.000000000               0.000000000              -0.000868768               0.007675601               0.000092695              -0.001285235               0.002986920               0.001701685               0.000000000               0.000000000               0.000000000               0.000000000              -0.000714513               0.007345869               0.000087928              -0.001186173               0.002843990               0.001657817               0.000000000               0.000000000               0.000000000               0.000000000              -0.000561779               0.007048149               0.000074515              -0.001091683               0.002713254               0.001621571               0.000000000               0.000000000               0.000000000               0.000000000              -0.000418899               0.006779788               0.000062262              -0.001004558               0.002594759               0.001590201               0.000000000               0.000000000               0.000000000               0.000000000              -0.000299182               0.006540409               0.000051531              -0.000929742               0.002490029               0.001560287               0.000000000               0.000000000               0.000000000               0.000000000              -0.000206865               0.006335777               0.000041624              -0.000869544               0.002401753               0.001532208               0.000000000               0.000000000               0.000000000               0.000000000              -0.000137160               0.006170518               0.000037922              -0.000822748               0.002331068               0.001508320               0.000000000               0.000000000               0.000000000               0.000000000              -0.000084798               0.006035946               0.000036811              -0.000786291               0.002274059               0.001487768               0.000000000               0.000000000               0.000000000               0.000000000              -0.000040929               0.005915875               0.000024368              -0.000754831               0.002223549               0.001468718               0.000000000               0.000000000               0.000000000               0.000000000              -0.000039999               0.005829538               0.000025087              -0.000743690               0.002191057               0.001447367               0.000000000               0.000000000               0.000000000               0.000000000               0.001405520               0.007995259              -0.003294200              -0.000472340               0.002822505               0.002350165               0.000000000               0.000000000               0.000000000               0.000000000              -0.000180611               0.008366331              -0.002189849              -0.001113519               0.003159922               0.002046402               0.000000000               0.000000000               0.000000000               0.000000000              -0.001379079               0.009030678              -0.001076415              -0.001645986               0.003558858               0.001912872               0.000000000               0.000000000               0.000000000               0.000000000              -0.001588419               0.008854708              -0.000634120              -0.001702491               0.003519037               0.001816546               0.000000000               0.000000000               0.000000000               0.000000000              -0.001501417               0.008498010              -0.000416517              -0.001625279               0.003374401               0.001749122               0.000000000               0.000000000               0.000000000               0.000000000              -0.001321300               0.008126224              -0.000296929              -0.001511262               0.003212468               0.001701206               0.000000000               0.000000000               0.000000000               0.000000000              -0.001111678               0.007772431              -0.000227990              -0.001388430               0.003053594               0.001665165               0.000000000               0.000000000               0.000000000               0.000000000              -0.000899389               0.007444902              -0.000187257              -0.001267880               0.002904236               0.001636355               0.000000000               0.000000000               0.000000000               0.000000000              -0.000697796               0.007140254              -0.000160476              -0.001154202               0.002764795               0.001610593               0.000000000               0.000000000               0.000000000               0.000000000              -0.000516411               0.006848212              -0.000139997              -0.001049678               0.002632607               0.001582929               0.000000000               0.000000000               0.000000000               0.000000000              -0.000373487               0.006571278              -0.000117660              -0.000961465               0.002510892               0.001549427               0.000000000               0.000000000               0.000000000               0.000000000              -0.000270931               0.006320253              -0.000087971              -0.000891628               0.002403939               0.001512311               0.000000000               0.000000000               0.000000000               0.000000000              -0.000200647               0.006104177              -0.000053077              -0.000838263               0.002314126               0.001475863               0.000000000               0.000000000               0.000000000               0.000000000              -0.000151259               0.005918748              -0.000015745              -0.000796564               0.002238417               0.001441854               0.000000000               0.000000000               0.000000000               0.000000000              -0.000106988               0.005750937               0.000015983              -0.000758986               0.002169955               0.001410969               0.000000000               0.000000000               0.000000000               0.000000000              -0.000058720               0.005599492               0.000022523              -0.000721955               0.002107130               0.001385176               0.000000000               0.000000000               0.000000000               0.000000000              -0.000049387               0.005502875               0.000027283              -0.000706378               0.002069733               0.001363355               0.000000000               0.000000000               0.000000000               0.000000000               0.000697842               0.006153691              -0.002634756              -0.000507522               0.002220383               0.001712861               0.000000000               0.000000000               0.000000000               0.000000000              -0.000714856               0.007185564              -0.002080812              -0.001166265               0.002783919               0.001617654               0.000000000               0.000000000               0.000000000               0.000000000              -0.001809321               0.008333153              -0.001415683              -0.001720136               0.003351068               0.001630933               0.000000000               0.000000000               0.000000000               0.000000000              -0.001857618               0.008379714              -0.001023935              -0.001744067               0.003374566               0.001630499               0.000000000               0.000000000               0.000000000               0.000000000              -0.001655751               0.008152837              -0.000782340              -0.001640007               0.003264254               0.001624247               0.000000000               0.000000000               0.000000000               0.000000000              -0.001393540               0.007862364              -0.000626422              -0.001505369               0.003122551               0.001617182               0.000000000               0.000000000               0.000000000               0.000000000              -0.001123378               0.007564703              -0.000518318              -0.001366851               0.002977159               0.001610308               0.000000000               0.000000000               0.000000000               0.000000000              -0.000861056               0.007279221              -0.000440882              -0.001232796               0.002837315               0.001604519               0.000000000               0.000000000               0.000000000               0.000000000              -0.000627465               0.006981765              -0.000380189              -0.001108017               0.002696571               0.001588554               0.000000000               0.000000000               0.000000000               0.000000000              -0.000435809               0.006676538              -0.000325047              -0.000997993               0.002558155               0.001560162               0.000000000               0.000000000               0.000000000               0.000000000              -0.000293507               0.006386996              -0.000265399              -0.000908437               0.002431790               0.001523352               0.000000000               0.000000000               0.000000000               0.000000000              -0.000205628               0.006124900              -0.000196637              -0.000842721               0.002322520               0.001479799               0.000000000               0.000000000               0.000000000               0.000000000              -0.000161085               0.005895270              -0.000124323              -0.000797314               0.002230841               0.001433528               0.000000000               0.000000000               0.000000000               0.000000000              -0.000143458               0.005686416              -0.000057864              -0.000764597               0.002150319               0.001385722               0.000000000               0.000000000               0.000000000               0.000000000              -0.000138464               0.005485531              -0.000009203              -0.000737614               0.002074363               0.001336750               0.000000000               0.000000000               0.000000000               0.000000000              -0.000126306               0.005301361               0.000011102              -0.000710033               0.002003780               0.001293747               0.000000000               0.000000000               0.000000000               0.000000000              -0.000111577               0.005209465               0.000014725              -0.000693023               0.001967478               0.001274456               0.000000000               0.000000000               0.000000000               0.000000000              -0.000165919               0.004432856              -0.001925062              -0.000616327               0.001683045               0.001066719               0.000000000               0.000000000               0.000000000               0.000000000              -0.001150029               0.005828241              -0.001953575              -0.001159789               0.002329323               0.001169534               0.000000000               0.000000000               0.000000000               0.000000000              -0.002029936               0.007325477              -0.001782903              -0.001676907               0.003000770               0.001323863               0.000000000               0.000000000               0.000000000               0.000000000              -0.001994921               0.007687749              -0.001455401              -0.001709060               0.003132244               0.001423184               0.000000000               0.000000000               0.000000000               0.000000000              -0.001741470               0.007677725              -0.001187819              -0.001612763               0.003096804               0.001484041               0.000000000               0.000000000               0.000000000               0.000000000              -0.001449671               0.007537510              -0.000988094              -0.001485812               0.003007749               0.001521937               0.000000000               0.000000000               0.000000000               0.000000000              -0.001161270               0.007356624              -0.000834956              -0.001355051               0.002903867               0.001548816               0.000000000               0.000000000               0.000000000               0.000000000              -0.000892935               0.007148982              -0.000717562              -0.001228471               0.002792460               0.001563990               0.000000000               0.000000000               0.000000000               0.000000000              -0.000655034               0.006896795              -0.000618690              -0.001107734               0.002668153               0.001560419               0.000000000               0.000000000               0.000000000               0.000000000              -0.000455606               0.006616826              -0.000526188              -0.000997953               0.002538238               0.001540284               0.000000000               0.000000000               0.000000000               0.000000000              -0.000307519               0.006324581              -0.000432906              -0.000905890               0.002410136               0.001504246               0.000000000               0.000000000               0.000000000               0.000000000              -0.000214251               0.006047423              -0.000332453              -0.000836270               0.002294544               0.001458274               0.000000000               0.000000000               0.000000000               0.000000000              -0.000173641               0.005798358              -0.000230902              -0.000789908               0.002196069               0.001406161               0.000000000               0.000000000               0.000000000               0.000000000              -0.000169586               0.005576571              -0.000136587              -0.000760664               0.002112393               0.001351729               0.000000000               0.000000000               0.000000000               0.000000000              -0.000190539               0.005368720              -0.000063154              -0.000742540               0.002037069               0.001294529               0.000000000               0.000000000               0.000000000               0.000000000              -0.000224880               0.005171346              -0.000020272              -0.000730746               0.001967347               0.001236600               0.000000000               0.000000000               0.000000000               0.000000000              -0.000236994               0.005079805              -0.000007086              -0.000723847               0.001934533               0.001210687               0.000000000               0.000000000               0.000000000               0.000000000              -0.001303535               0.002870398              -0.001207043              -0.000847624               0.001239331               0.000391707               0.000000000               0.000000000               0.000000000               0.000000000              -0.001646958               0.004472496              -0.001758956              -0.001176669               0.001883039               0.000706370               0.000000000               0.000000000               0.000000000               0.000000000              -0.002166245               0.006169287              -0.002070295              -0.001583500               0.002584241               0.001000741               0.000000000               0.000000000               0.000000000               0.000000000              -0.002059387               0.006831466              -0.001869058              -0.001626200               0.002819199               0.001192999               0.000000000               0.000000000               0.000000000               0.000000000              -0.001783516               0.007066518              -0.001604218              -0.001552130               0.002872859               0.001320729               0.000000000               0.000000000               0.000000000               0.000000000              -0.001486071               0.007109282              -0.001372125              -0.001445934               0.002851715               0.001405781               0.000000000               0.000000000               0.000000000               0.000000000              -0.001193893               0.007071278              -0.001181012              -0.001331617               0.002800941               0.001469325               0.000000000               0.000000000               0.000000000               0.000000000              -0.000924278               0.006971518              -0.001026751              -0.001218041               0.002729829               0.001511788               0.000000000               0.000000000               0.000000000               0.000000000              -0.000689043               0.006798324              -0.000897284              -0.001108179               0.002635478               0.001527299               0.000000000               0.000000000               0.000000000               0.000000000              -0.000481339               0.006577105              -0.000776288              -0.001002638               0.002526559               0.001523921               0.000000000               0.000000000               0.000000000               0.000000000              -0.000313865               0.006324992              -0.000654610              -0.000908321               0.002411083               0.001502762               0.000000000               0.000000000               0.000000000               0.000000000              -0.000192731               0.006062877              -0.000529503              -0.000830132               0.002297649               0.001467517               0.000000000               0.000000000               0.000000000               0.000000000              -0.000125717               0.005805169              -0.000405149              -0.000772788               0.002192633               0.001419845               0.000000000               0.000000000               0.000000000               0.000000000              -0.000112543               0.005567934              -0.000284376              -0.000738194               0.002102024               0.001363830               0.000000000               0.000000000               0.000000000               0.000000000              -0.000147993               0.005354063              -0.000169915              -0.000724753               0.002026254               0.001301501               0.000000000               0.000000000               0.000000000               0.000000000              -0.000228916               0.005164749              -0.000074657              -0.000731435               0.001965377               0.001233942               0.000000000               0.000000000               0.000000000               0.000000000              -0.000295940               0.005067697              -0.000026679              -0.000744438               0.001937361               0.001192924               0.000000000               0.000000000               0.000000000               0.000000000              -0.002636692               0.001577957              -0.000534750              -0.001186002               0.000921313              -0.000264689               0.000000000               0.000000000               0.000000000               0.000000000              -0.002250740               0.003196281              -0.001474285              -0.001243560               0.001479936               0.000236375               0.000000000               0.000000000               0.000000000               0.000000000              -0.002257756               0.004879556              -0.002175066              -0.001456601               0.002112035               0.000655435               0.000000000               0.000000000               0.000000000               0.000000000              -0.002018871               0.005754288              -0.002137646              -0.001476360               0.002410196               0.000933836               0.000000000               0.000000000               0.000000000               0.000000000              -0.001715718               0.006217063              -0.001920404              -0.001420524               0.002545841               0.001125317               0.000000000               0.000000000               0.000000000               0.000000000              -0.001417958               0.006458440              -0.001687365              -0.001339037               0.002599137               0.001260100               0.000000000               0.000000000               0.000000000               0.000000000              -0.001134007               0.006581573              -0.001481992              -0.001247947               0.002609818               0.001361871               0.000000000               0.000000000               0.000000000               0.000000000              -0.000871865               0.006610629              -0.001307813              -0.001153276               0.002587946               0.001434670               0.000000000               0.000000000               0.000000000               0.000000000              -0.000638683               0.006547408              -0.001158079              -0.001057930               0.002535090               0.001477161               0.000000000               0.000000000               0.000000000               0.000000000              -0.000432152               0.006416287              -0.001016752              -0.000964091               0.002460105               0.001496014               0.000000000               0.000000000               0.000000000               0.000000000              -0.000257341               0.006236742              -0.000875438              -0.000876094               0.002370924               0.001494831               0.000000000               0.000000000               0.000000000               0.000000000              -0.000112602               0.006027791              -0.000736167              -0.000795698               0.002274476               0.001478778               0.000000000               0.000000000               0.000000000               0.000000000              -0.000006094               0.005794526              -0.000596818              -0.000726599               0.002173689               0.001447090               0.000000000               0.000000000               0.000000000               0.000000000               0.000045234               0.005559707              -0.000452905              -0.000677999               0.002079217               0.001401218               0.000000000               0.000000000               0.000000000               0.000000000               0.000033774               0.005347250              -0.000301512              -0.000655740               0.002000979               0.001345239               0.000000000               0.000000000               0.000000000               0.000000000              -0.000044550               0.005165914              -0.000148856              -0.000662444               0.001942769               0.001280325               0.000000000               0.000000000               0.000000000               0.000000000              -0.000129954               0.005065653              -0.000063269              -0.000681938               0.001915847               0.001233909               0.000000000               0.000000000               0.000000000               0.000000000              -0.004072083               0.000615429               0.000003813              -0.001603958               0.000739790              -0.000864167               0.000000000               0.000000000               0.000000000               0.000000000              -0.002924798               0.002065960              -0.001136095              -0.001355042               0.001140326              -0.000214716               0.000000000               0.000000000               0.000000000               0.000000000              -0.002328564               0.003561791              -0.002073300              -0.001318433               0.001626729               0.000308295               0.000000000               0.000000000               0.000000000               0.000000000              -0.001896728               0.004544871              -0.002185197              -0.001279380               0.001941401               0.000662021               0.000000000               0.000000000               0.000000000               0.000000000              -0.001541650               0.005185986              -0.002045500              -0.001226365               0.002137432               0.000911067               0.000000000               0.000000000               0.000000000               0.000000000              -0.001235239               0.005610576              -0.001846284              -0.001164534               0.002258351               0.001093816               0.000000000               0.000000000               0.000000000               0.000000000              -0.000959817               0.005899460              -0.001653056              -0.001097362               0.002332254               0.001234892               0.000000000               0.000000000               0.000000000               0.000000000              -0.000712551               0.006063985              -0.001482297              -0.001025203               0.002363042               0.001337839               0.000000000               0.000000000               0.000000000               0.000000000              -0.000491313               0.006121406              -0.001330098              -0.000949416               0.002356920               0.001407504               0.000000000               0.000000000               0.000000000               0.000000000              -0.000290811               0.006104445              -0.001180121              -0.000872108               0.002325497               0.001453389               0.000000000               0.000000000               0.000000000               0.000000000              -0.000109273               0.006023197              -0.001033328              -0.000793875               0.002272337               0.001478462               0.000000000               0.000000000               0.000000000               0.000000000               0.000055184               0.005892563              -0.000894396              -0.000715875               0.002202793               0.001486918               0.000000000               0.000000000               0.000000000               0.000000000               0.000199342               0.005723627              -0.000752241              -0.000640699               0.002121423               0.001480724               0.000000000               0.000000000               0.000000000               0.000000000               0.000308849               0.005531576              -0.000595616              -0.000575627               0.002035716               0.001460089               0.000000000               0.000000000               0.000000000               0.000000000               0.000366748               0.005339705              -0.000418967              -0.000529931               0.001956528               0.001426596               0.000000000               0.000000000               0.000000000               0.000000000               0.000355256               0.005165806              -0.000220444              -0.000512503               0.001892752               0.001380249               0.000000000               0.000000000               0.000000000               0.000000000               0.000311287               0.005073509              -0.000109923              -0.000517455               0.001863638               0.001346183               0.000000000               0.000000000               0.000000000               0.000000000              -0.005462378              -0.000022514               0.000330792              -0.002045576               0.000674349              -0.001371226               0.000000000               0.000000000               0.000000000               0.000000000              -0.003606326               0.001146330              -0.000791014              -0.001495661               0.000880658              -0.000615004               0.000000000               0.000000000               0.000000000               0.000000000              -0.002391729               0.002344780              -0.001766311              -0.001189994               0.001178249              -0.000011745               0.000000000               0.000000000               0.000000000               0.000000000              -0.001728506               0.003341166              -0.001970432              -0.001065834               0.001468988               0.000403154               0.000000000               0.000000000               0.000000000               0.000000000              -0.001293546               0.004095175              -0.001907668              -0.000996975               0.001697369               0.000700394               0.000000000               0.000000000               0.000000000               0.000000000              -0.000965904               0.004661423              -0.001762919              -0.000944890               0.001868755               0.000923865               0.000000000               0.000000000               0.000000000               0.000000000              -0.000691886               0.005090059              -0.001607126              -0.000895713               0.001995240               0.001099527               0.000000000               0.000000000               0.000000000               0.000000000              -0.000457026               0.005382101              -0.001460602              -0.000844146               0.002075397               0.001231251               0.000000000               0.000000000               0.000000000               0.000000000              -0.000252969               0.005562645              -0.001322344              -0.000790193               0.002117594               0.001327401               0.000000000               0.000000000               0.000000000               0.000000000              -0.000064040               0.005657528              -0.001185655              -0.000731205               0.002129558               0.001398354               0.000000000               0.000000000               0.000000000               0.000000000               0.000121337               0.005679521              -0.001054049              -0.000664438               0.002114634               0.001450196               0.000000000               0.000000000               0.000000000               0.000000000               0.000304834               0.005645921              -0.000929894              -0.000591426               0.002079097               0.001487671               0.000000000               0.000000000               0.000000000               0.000000000               0.000482222               0.005564602              -0.000800239              -0.000514741               0.002026429               0.001511688               0.000000000               0.000000000               0.000000000               0.000000000               0.000652052               0.005448600              -0.000651619              -0.000436555               0.001961700               0.001525145               0.000000000               0.000000000               0.000000000               0.000000000               0.000802939               0.005307064              -0.000471907              -0.000362280               0.001889764               0.001527483               0.000000000               0.000000000               0.000000000               0.000000000               0.000916458               0.005155505              -0.000253857              -0.000300766               0.001818740               0.001517974               0.000000000               0.000000000               0.000000000               0.000000000               0.000975902               0.005084747              -0.000137459              -0.000269629               0.001784775               0.001515146               0.000000000               0.000000000               0.000000000               0.000000000              -0.006634699              -0.000388304               0.000409164              -0.002439472               0.000683718              -0.001755754               0.000000000               0.000000000               0.000000000               0.000000000              -0.004203935               0.000480266              -0.000480754              -0.001636507               0.000705586              -0.000930921               0.000000000               0.000000000               0.000000000               0.000000000              -0.002448617               0.001362862              -0.001282778              -0.001088588               0.000817144              -0.000271444               0.000000000               0.000000000               0.000000000               0.000000000              -0.001555929               0.002307608              -0.001495050              -0.000871923               0.001059835               0.000187912               0.000000000               0.000000000               0.000000000               0.000000000              -0.001029709               0.003113332              -0.001484041              -0.000775306               0.001296202               0.000520896               0.000000000               0.000000000               0.000000000               0.000000000              -0.000669797               0.003770672              -0.001396528              -0.000722507               0.001497713               0.000775206               0.000000000               0.000000000               0.000000000               0.000000000              -0.000391696               0.004302587              -0.001291204              -0.000684708               0.001662417               0.000977709               0.000000000               0.000000000               0.000000000               0.000000000              -0.000169189               0.004698429              -0.001184067              -0.000650749               0.001783043               0.001132295               0.000000000               0.000000000               0.000000000               0.000000000               0.000019912               0.004979016              -0.001078613              -0.000614909               0.001864625               0.001249716               0.000000000               0.000000000               0.000000000               0.000000000               0.000199646               0.005170671              -0.000975670              -0.000571466               0.001914028               0.001342563               0.000000000               0.000000000               0.000000000               0.000000000               0.000384806               0.005288602              -0.000877332              -0.000516772               0.001935107               0.001418335               0.000000000               0.000000000               0.000000000               0.000000000               0.000578780               0.005349070              -0.000782864              -0.000451591               0.001933536               0.001481945               0.000000000               0.000000000               0.000000000               0.000000000               0.000784491               0.005357570              -0.000684139              -0.000375512               0.001911009               0.001535498               0.000000000               0.000000000               0.000000000               0.000000000               0.001006935               0.005322008              -0.000567832              -0.000287650               0.001869868               0.001582218               0.000000000               0.000000000               0.000000000               0.000000000               0.001245689               0.005244585              -0.000419078              -0.000188440               0.001810991               0.001622551               0.000000000               0.000000000               0.000000000               0.000000000               0.001503337               0.005131368              -0.000228946              -0.000077670               0.001736329               0.001658659               0.000000000               0.000000000               0.000000000               0.000000000               0.001695550               0.005089150              -0.000130180              -0.000000313               0.001696471               0.001696158               0.000000000               0.000000000               0.000000000               0.000000000              -0.007417333              -0.000561138               0.000269854              -0.002711356               0.000716734              -0.001994621               0.000000000               0.000000000               0.000000000               0.000000000              -0.004617069               0.000082549              -0.000222049              -0.001741718               0.000608085              -0.001133633               0.000000000               0.000000000               0.000000000               0.000000000              -0.002494875               0.000727133              -0.000675283              -0.001026468               0.000584530              -0.000441939               0.000000000               0.000000000               0.000000000               0.000000000              -0.001429198               0.001605925              -0.000808776              -0.000736689               0.000780865               0.000044177               0.000000000               0.000000000               0.000000000               0.000000000              -0.000826275               0.002423368              -0.000814539              -0.000612773               0.001012038               0.000399266               0.000000000               0.000000000               0.000000000               0.000000000              -0.000436414               0.003130012              -0.000774760              -0.000554906               0.001228295               0.000673390               0.000000000               0.000000000               0.000000000               0.000000000              -0.000154812               0.003725438              -0.000722441              -0.000523733               0.001416378               0.000892645               0.000000000               0.000000000               0.000000000               0.000000000               0.000059711               0.004188333              -0.000666336              -0.000501149               0.001563147               0.001061998               0.000000000               0.000000000               0.000000000               0.000000000               0.000241015               0.004533303              -0.000609687              -0.000476281               0.001669846               0.001193565               0.000000000               0.000000000               0.000000000               0.000000000               0.000413998               0.004788087              -0.000555014              -0.000443261               0.001743766               0.001300506               0.000000000               0.000000000               0.000000000               0.000000000               0.000596762               0.004975799              -0.000501482              -0.000398188               0.001791313               0.001393124               0.000000000               0.000000000               0.000000000               0.000000000               0.000797789               0.005107792              -0.000449831              -0.000339303               0.001815681               0.001476379               0.000000000               0.000000000               0.000000000               0.000000000               0.001023021               0.005183678              -0.000397322              -0.000264326               0.001815984               0.001551658               0.000000000               0.000000000               0.000000000               0.000000000               0.001282641               0.005209186              -0.000332117              -0.000170158               0.001793097               0.001622940               0.000000000               0.000000000               0.000000000               0.000000000               0.001589746               0.005183570              -0.000248353              -0.000051791               0.001745103               0.001693312               0.000000000               0.000000000               0.000000000               0.000000000               0.001959765               0.005105833              -0.000138876               0.000096682               0.001669700               0.001766382               0.000000000               0.000000000               0.000000000               0.000000000               0.002260519               0.005089461              -0.000082095               0.000211510               0.001625967               0.001837477               0.000000000               0.000000000               0.000000000               0.000000000               0.000000000               0.000000000               0.000000000               0.000000000               0.000000000               0.000000000               0.000000000               0.000000000               0.000000000               0.000000000               0.000000000               0.000000000               0.000000000               0.000000000               0.000000000               0.000000000               0.000000000               0.000000000               0.000000000               0.000000000               0.000000000               0.000000000               0.000000000               0.000000000               0.000000000               0.000000000               0.000000000               0.000000000               0.000000000               0.000000000               0.000000000               0.000000000               0.000000000               0.000000000               0.000000000               0.000000000               0.000000000               0.000000000               0.000000000               0.000000000               0.000000000               0.000000000               0.000000000               0.000000000               0.000000000               0.000000000               0.000000000               0.000000000               0.000000000               0.000000000               0.000000000               0.000000000               0.000000000               0.000000000               0.000000000               0.000000000               0.000000000               0.000000000               0.000000000               0.000000000               0.000000000               0.000000000               0.000000000               0.000000000               0.000000000               0.000000000               0.000000000               0.000000000               0.000000000               0.000000000               0.000000000               0.000000000               0.000000000               0.000000000               0.000000000               0.000000000               0.000000000               0.000000000               0.000000000               0.000000000               0.000000000               0.000000000               0.000000000               0.000000000               0.000000000               0.000000000               0.000000000               0.000000000               0.000000000               0.000000000               0.000000000               0.000000000               0.000000000               0.000000000               0.000000000               0.000000000               0.000000000               0.000000000               0.000000000               0.000000000               0.000000000               0.000000000               0.000000000               0.000000000               0.000000000               0.000000000               0.000000000               0.000000000               0.000000000               0.000000000               0.000000000               0.000000000               0.000000000               0.000000000               0.000000000               0.000000000               0.000000000               0.000000000               0.000000000               0.000000000               0.000000000               0.000000000               0.000000000               0.000000000               0.000000000               0.000000000               0.000000000               0.000000000               0.000000000               0.000000000               0.000000000               0.000000000               0.000000000               0.000000000               0.000000000               0.000000000               0.000000000               0.000000000               0.000000000               0.000000000               0.000000000               0.000000000               0.000000000               0.000000000               0.000000000               0.000000000               0.000000000               0.000000000               0.000000000               0.000000000               0.000000000               0.000000000               0.000000000               0.000000000               0.000000000               0.000000000               0.000000000               0.000000000               0.000000000               0.000000000               0.000000000               0.000000000               0.000000000               0.000000000               0.000000000               0.000000000               0.000000000               0.000000000               0.000000000               0.000000000               0.000000000               0.000000000               0.000000000               0.000000000               0.000000000               0.000000000               0.000000000               0.000000000               0.000000000               0.000000000               0.000000000               0.000000000               0.000000000               0.000000000               0.000000000               0.000000000               0.000000000               0.000000000               0.000000000               0.000000000               0.000000000               0.000000000               0.000000000               0.000000000               0.000000000               0.000000000               0.000000000               0.000000000               0.000000000               0.000000000               0.000000000               0.000000000               0.000000000               0.000000000               0.000000000               0.000000000               0.000000000               0.000000000               0.000000000               0.000000000               0.000000000               0.000000000               0.000000000               0.000000000               0.000000000               0.000000000               0.000000000               0.000000000               0.000000000               0.000000000               0.000000000               0.000000000               0.000000000               0.000000000               0.000000000               0.000000000               0.000000000               0.000000000               0.000000000               0.000000000               0.000000000               0.000000000               0.000000000               0.000000000               0.000000000               0.000000000               0.000000000               0.000000000               0.000000000               0.000000000               0.000000000               0.000000000               0.000000000               0.000000000               0.000000000               0.000000000               0.000000000               0.000000000               0.000000000               0.000000000               0.000000000               0.000000000               0.000000000               0.000000000               0.000000000               0.000000000               0.000000000               0.000000000               0.000000000               0.000000000               0.000000000               0.000000000               0.000000000               0.000000000               0.000000000               0.000000000               0.000000000               0.000000000               0.000000000               0.000000000               0.000000000               0.000000000               0.000000000               0.000000000               0.000000000               0.000000000               0.000000000               0.000000000               0.000000000               0.000000000               0.000000000               0.000000000               0.000000000               0.000000000               0.000000000               0.000000000               0.000000000               0.000000000               0.000000000               0.000000000               0.000000000               0.000000000               0.000000000               0.000000000               0.000000000               0.000000000               0.000000000               0.000000000               0.000000000               0.000000000               0.000000000               0.000000000               0.000000000               0.000000000               0.000000000               0.000000000               0.000000000               0.000000000               0.000000000               0.000000000               0.000000000               0.000000000               0.000000000               0.000000000               0.000000000               0.000000000               0.000000000               0.000000000               0.000000000               0.000000000               0.000000000               0.000000000               0.000000000               0.000000000               0.000000000               0.000000000               0.000000000               0.000000000               0.000000000               0.000000000               0.000000000               0.000000000               0.000000000               0.000000000               0.000000000               0.000000000               0.000000000               0.000000000               0.000000000               0.000000000               0.001902938               0.019977797               0.001410594              -0.001783619               0.007253739               0.005470120               0.000000000               0.000000000               0.000000000               0.000000000               0.001809928               0.015852418               0.000737712              -0.001302826               0.005718362               0.004415536               0.000000000               0.000000000               0.000000000               0.000000000               0.002304196               0.012557050               0.000067918              -0.000705556               0.004420827               0.003715271               0.000000000               0.000000000               0.000000000               0.000000000               0.002194755               0.010710327              -0.000216893              -0.000515756               0.003741992               0.003226236               0.000000000               0.000000000               0.000000000               0.000000000               0.001913022               0.009563755              -0.000334996              -0.000478085               0.003347248               0.002869163               0.000000000               0.000000000               0.000000000               0.000000000               0.001602142               0.008784128              -0.000377204              -0.000497212               0.003093751               0.002596539               0.000000000               0.000000000               0.000000000               0.000000000               0.001311813               0.008210751              -0.000386469              -0.000534413               0.002915027               0.002380615               0.000000000               0.000000000               0.000000000               0.000000000               0.001056142               0.007759900              -0.000378489              -0.000573933               0.002777919               0.002203986               0.000000000               0.000000000               0.000000000               0.000000000               0.000837901               0.007381771              -0.000363140              -0.000608507               0.002663401               0.002054894               0.000000000               0.000000000               0.000000000               0.000000000               0.000652237               0.007041765              -0.000343626              -0.000635630               0.002559108               0.001923478               0.000000000               0.000000000               0.000000000               0.000000000               0.000493309               0.006718766              -0.000323393              -0.000654853               0.002457851               0.001802997               0.000000000               0.000000000               0.000000000               0.000000000               0.000354514               0.006403408              -0.000304823              -0.000667482               0.002356942               0.001689460               0.000000000               0.000000000               0.000000000               0.000000000               0.000233723               0.006087416              -0.000278707              -0.000673279               0.002253545               0.001580266               0.000000000               0.000000000               0.000000000               0.000000000               0.000140668               0.005758235              -0.000238134              -0.000667027               0.002141735               0.001474708               0.000000000               0.000000000               0.000000000               0.000000000               0.000074861               0.005400679              -0.000183461              -0.000647011               0.002015879               0.001368868               0.000000000               0.000000000               0.000000000               0.000000000               0.000031366               0.005003836              -0.000106541              -0.000613716               0.001872500               0.001258785               0.000000000               0.000000000               0.000000000               0.000000000              -0.000015040               0.004708184              -0.000066092              -0.000594162               0.001767433               0.001173271               0.000000000               0.000000000               0.000000000               0.000000000               0.002083930               0.018808763               0.002626584              -0.001569619               0.006792731               0.005223112               0.000000000               0.000000000               0.000000000               0.000000000               0.001722052               0.015096859               0.001374776              -0.001241335               0.005446014               0.004204679               0.000000000               0.000000000               0.000000000               0.000000000               0.001928349               0.012228640               0.000138775              -0.000805447               0.004344655               0.003539208               0.000000000               0.000000000               0.000000000               0.000000000               0.001714062               0.010600780              -0.000368792              -0.000682323               0.003760999               0.003078676               0.000000000               0.000000000               0.000000000               0.000000000               0.001414712               0.009561893              -0.000573480              -0.000664718               0.003408838               0.002744120               0.000000000               0.000000000               0.000000000               0.000000000               0.001128583               0.008837011              -0.000642920              -0.000681406               0.003172776               0.002491370               0.000000000               0.000000000               0.000000000               0.000000000               0.000877818               0.008288497              -0.000653728              -0.000706879               0.002998431               0.002291552               0.000000000               0.000000000               0.000000000               0.000000000               0.000669863               0.007844987              -0.000638477              -0.000729423               0.002858110               0.002128687               0.000000000               0.000000000               0.000000000               0.000000000               0.000506162               0.007466130              -0.000610260              -0.000743454               0.002736503               0.001993049               0.000000000               0.000000000               0.000000000               0.000000000               0.000374039               0.007124570              -0.000573278              -0.000750305               0.002624934               0.001874629               0.000000000               0.000000000               0.000000000               0.000000000               0.000264310               0.006806392              -0.000533895              -0.000751681               0.002519335               0.001767654               0.000000000               0.000000000               0.000000000               0.000000000               0.000175720               0.006502892              -0.000495964              -0.000746965               0.002416597               0.001669633               0.000000000               0.000000000               0.000000000               0.000000000               0.000104643               0.006204775              -0.000448308              -0.000736354               0.002313689               0.001577335               0.000000000               0.000000000               0.000000000               0.000000000               0.000053945               0.005910084              -0.000378137              -0.000718529               0.002209518               0.001490989               0.000000000               0.000000000               0.000000000               0.000000000               0.000021533               0.005618003              -0.000285155              -0.000694174               0.002104040               0.001409866               0.000000000               0.000000000               0.000000000               0.000000000               0.000005002               0.005330638              -0.000161638              -0.000664452               0.001998346               0.001333893               0.000000000               0.000000000               0.000000000               0.000000000              -0.000016619               0.005139673              -0.000096165              -0.000648690               0.001929437               0.001280747               0.000000000               0.000000000               0.000000000               0.000000000               0.002286051               0.017027158               0.003508365              -0.001271125               0.006099370               0.004828245               0.000000000               0.000000000               0.000000000               0.000000000               0.001547070               0.013957922               0.001847555              -0.001164587               0.005040790               0.003876203               0.000000000               0.000000000               0.000000000               0.000000000               0.001351023               0.011732412               0.000227739              -0.000959916               0.004230737               0.003270821               0.000000000               0.000000000               0.000000000               0.000000000               0.001015691               0.010413283              -0.000403526              -0.000920774               0.003777984               0.002857210               0.000000000               0.000000000               0.000000000               0.000000000               0.000715781               0.009523772              -0.000646038              -0.000922051               0.003481910               0.002559858               0.000000000               0.000000000               0.000000000               0.000000000               0.000478932               0.008867320              -0.000724314              -0.000928814               0.003265348               0.002336535               0.000000000               0.000000000               0.000000000               0.000000000               0.000300590               0.008349516              -0.000734075              -0.000930966               0.003093466               0.002162500               0.000000000               0.000000000               0.000000000               0.000000000               0.000173961               0.007918503              -0.000713386              -0.000924575               0.002947666               0.002023091               0.000000000               0.000000000               0.000000000               0.000000000               0.000084765               0.007540130              -0.000677684              -0.000910727               0.002816927               0.001906200               0.000000000               0.000000000               0.000000000               0.000000000               0.000021432               0.007200594              -0.000632418              -0.000892035               0.002697519               0.001805484               0.000000000               0.000000000               0.000000000               0.000000000              -0.000022535               0.006890809              -0.000584396              -0.000869800               0.002586847               0.001717047               0.000000000               0.000000000               0.000000000               0.000000000              -0.000045533               0.006603465              -0.000534392              -0.000842506               0.002481968               0.001639462               0.000000000               0.000000000               0.000000000               0.000000000              -0.000048962               0.006333627              -0.000472643              -0.000810062               0.002381208               0.001571146               0.000000000               0.000000000               0.000000000               0.000000000              -0.000037777               0.006088993              -0.000391853              -0.000775289               0.002288074               0.001512785               0.000000000               0.000000000               0.000000000               0.000000000              -0.000021440               0.005882888              -0.000289817              -0.000743399               0.002208743               0.001465344               0.000000000               0.000000000               0.000000000               0.000000000              -0.000009763               0.005723353              -0.000160199              -0.000719078               0.002147458               0.001428380               0.000000000               0.000000000               0.000000000               0.000000000              -0.000008915               0.005644616              -0.000088995              -0.000708919               0.002117826               0.001408908               0.000000000               0.000000000               0.000000000               0.000000000               0.002392970               0.014848061               0.003981316              -0.000958644               0.005268851               0.004310207               0.000000000               0.000000000               0.000000000               0.000000000               0.001260080               0.012583427               0.002134100              -0.001100397               0.004561232               0.003460836               0.000000000               0.000000000               0.000000000               0.000000000               0.000644441               0.011120515               0.000356576              -0.001148396               0.004089600               0.002941204               0.000000000               0.000000000               0.000000000               0.000000000               0.000223779               0.010140538              -0.000297866              -0.001183647               0.003774694               0.002591047               0.000000000               0.000000000               0.000000000               0.000000000              -0.000038587               0.009409571              -0.000538364              -0.001190664               0.003533380               0.002342716               0.000000000               0.000000000               0.000000000               0.000000000              -0.000191990               0.008828028              -0.000614983              -0.001175497               0.003334479               0.002158982               0.000000000               0.000000000               0.000000000               0.000000000              -0.000271619               0.008342769              -0.000626789              -0.001144700               0.003162462               0.002017761               0.000000000               0.000000000               0.000000000               0.000000000              -0.000303284               0.007922918              -0.000608150              -0.001104094               0.003008978               0.001904884               0.000000000               0.000000000               0.000000000               0.000000000              -0.000307830               0.007551974              -0.000573031              -0.001059430               0.002870443               0.001811012               0.000000000               0.000000000               0.000000000               0.000000000              -0.000291457               0.007219179              -0.000530400              -0.001011691               0.002743599               0.001731908               0.000000000               0.000000000               0.000000000               0.000000000              -0.000255111               0.006919559              -0.000484459              -0.000960609               0.002626700               0.001666090               0.000000000               0.000000000               0.000000000               0.000000000              -0.000206835               0.006651397              -0.000434097              -0.000908985               0.002520105               0.001611120               0.000000000               0.000000000               0.000000000               0.000000000              -0.000151580               0.006419498              -0.000370947              -0.000859278               0.002426237               0.001566959               0.000000000               0.000000000               0.000000000               0.000000000              -0.000094008               0.006231233              -0.000295786              -0.000814155               0.002348442               0.001534287               0.000000000               0.000000000               0.000000000               0.000000000              -0.000046346               0.006096264              -0.000209813              -0.000779411               0.002291871               0.001512460               0.000000000               0.000000000               0.000000000               0.000000000              -0.000017550               0.006018448              -0.000109654              -0.000758885               0.002259091               0.001500206               0.000000000               0.000000000               0.000000000               0.000000000              -0.000006180               0.005995802              -0.000055798              -0.000751791               0.002249178               0.001497387               0.000000000               0.000000000               0.000000000               0.000000000               0.002307455               0.012492054               0.004057136              -0.000696213               0.004396046               0.003699833               0.000000000               0.000000000               0.000000000               0.000000000               0.000860416               0.011119353               0.002260503              -0.001067262               0.004062167               0.002994905               0.000000000               0.000000000               0.000000000               0.000000000              -0.000100170               0.010448251               0.000542871              -0.001343592               0.003930580               0.002586988               0.000000000               0.000000000               0.000000000               0.000000000              -0.000530799               0.009787784              -0.000063339              -0.001422519               0.003736735               0.002314216               0.000000000               0.000000000               0.000000000               0.000000000              -0.000708190               0.009199082              -0.000285781              -0.001415453               0.003538148               0.002122695               0.000000000               0.000000000               0.000000000               0.000000000              -0.000756860               0.008684843              -0.000365812              -0.001369424               0.003351393               0.001981969               0.000000000               0.000000000               0.000000000               0.000000000              -0.000733574               0.008237500              -0.000385761              -0.001304774               0.003180731               0.001875956               0.000000000               0.000000000               0.000000000               0.000000000              -0.000670674               0.007840473              -0.000378095              -0.001231559               0.003023985               0.001792426               0.000000000               0.000000000               0.000000000               0.000000000              -0.000585478               0.007486396              -0.000355000              -0.001155351               0.002880557               0.001725207               0.000000000               0.000000000               0.000000000               0.000000000              -0.000489765               0.007166055              -0.000322585              -0.001079416               0.002748466               0.001669050               0.000000000               0.000000000               0.000000000               0.000000000              -0.000387680               0.006882553              -0.000285691              -0.001005697               0.002629394               0.001623697               0.000000000               0.000000000               0.000000000               0.000000000              -0.000288182               0.006637025              -0.000246467              -0.000937694               0.002524884               0.001587190               0.000000000               0.000000000               0.000000000               0.000000000              -0.000198310               0.006431794              -0.000199669              -0.000878338               0.002436689               0.001558351               0.000000000               0.000000000               0.000000000               0.000000000              -0.000122647               0.006273290              -0.000150149              -0.000830152               0.002367793               0.001537641               0.000000000               0.000000000               0.000000000               0.000000000              -0.000064295               0.006161497              -0.000102506              -0.000794296               0.002318577               0.001524281               0.000000000               0.000000000               0.000000000               0.000000000              -0.000024291               0.006084239              -0.000050805              -0.000769637               0.002284605               0.001514968               0.000000000               0.000000000               0.000000000               0.000000000              -0.000017230               0.006039369              -0.000028478              -0.000761381               0.002266897               0.001505516               0.000000000               0.000000000               0.000000000               0.000000000               0.001973934               0.010159310               0.003802024              -0.000529691               0.003562965               0.003033274               0.000000000               0.000000000               0.000000000               0.000000000               0.000373145               0.009686165               0.002266367              -0.001070840               0.003585636               0.002514795               0.000000000               0.000000000               0.000000000               0.000000000              -0.000795781               0.009748152               0.000785730              -0.001516933               0.003754996               0.002238063               0.000000000               0.000000000               0.000000000               0.000000000              -0.001153146               0.009356483               0.000263794              -0.001601986               0.003652792               0.002050806               0.000000000               0.000000000               0.000000000               0.000000000              -0.001206751               0.008887802               0.000053713              -0.001563503               0.003483739               0.001920236               0.000000000               0.000000000               0.000000000               0.000000000              -0.001137721               0.008441717              -0.000040636              -0.001481856               0.003307830               0.001825973               0.000000000               0.000000000               0.000000000               0.000000000              -0.001014310               0.008040087              -0.000080597              -0.001385374               0.003141793               0.001756420               0.000000000               0.000000000               0.000000000               0.000000000              -0.000868768               0.007675601              -0.000092695              -0.001285235               0.002986920               0.001701685               0.000000000               0.000000000               0.000000000               0.000000000              -0.000714513               0.007345869              -0.000087928              -0.001186173               0.002843990               0.001657817               0.000000000               0.000000000               0.000000000               0.000000000              -0.000561779               0.007048149              -0.000074515              -0.001091683               0.002713254               0.001621571               0.000000000               0.000000000               0.000000000               0.000000000              -0.000418899               0.006779788              -0.000062262              -0.001004558               0.002594759               0.001590201               0.000000000               0.000000000               0.000000000               0.000000000              -0.000299182               0.006540409              -0.000051531              -0.000929742               0.002490029               0.001560287               0.000000000               0.000000000               0.000000000               0.000000000              -0.000206865               0.006335777              -0.000041624              -0.000869544               0.002401753               0.001532208               0.000000000               0.000000000               0.000000000               0.000000000              -0.000137160               0.006170518              -0.000037922              -0.000822748               0.002331068               0.001508320               0.000000000               0.000000000               0.000000000               0.000000000              -0.000084798               0.006035946              -0.000036811              -0.000786291               0.002274059               0.001487768               0.000000000               0.000000000               0.000000000               0.000000000              -0.000040929               0.005915875              -0.000024368              -0.000754831               0.002223549               0.001468718               0.000000000               0.000000000               0.000000000               0.000000000              -0.000039999               0.005829538              -0.000025087              -0.000743690               0.002191057               0.001447367               0.000000000               0.000000000               0.000000000               0.000000000               0.001405520               0.007995259               0.003294200              -0.000472340               0.002822505               0.002350165               0.000000000               0.000000000               0.000000000               0.000000000              -0.000180611               0.008366331               0.002189849              -0.001113519               0.003159922               0.002046402               0.000000000               0.000000000               0.000000000               0.000000000              -0.001379079               0.009030678               0.001076415              -0.001645986               0.003558858               0.001912872               0.000000000               0.000000000               0.000000000               0.000000000              -0.001588419               0.008854708               0.000634120              -0.001702491               0.003519037               0.001816546               0.000000000               0.000000000               0.000000000               0.000000000              -0.001501417               0.008498010               0.000416517              -0.001625279               0.003374401               0.001749122               0.000000000               0.000000000               0.000000000               0.000000000              -0.001321300               0.008126224               0.000296929              -0.001511262               0.003212468               0.001701206               0.000000000               0.000000000               0.000000000               0.000000000              -0.001111678               0.007772431               0.000227990              -0.001388430               0.003053594               0.001665165               0.000000000               0.000000000               0.000000000               0.000000000              -0.000899389               0.007444902               0.000187257              -0.001267880               0.002904236               0.001636355               0.000000000               0.000000000               0.000000000               0.000000000              -0.000697796               0.007140254               0.000160476              -0.001154202               0.002764795               0.001610593               0.000000000               0.000000000               0.000000000               0.000000000              -0.000516411               0.006848212               0.000139997              -0.001049678               0.002632607               0.001582929               0.000000000               0.000000000               0.000000000               0.000000000              -0.000373487               0.006571278               0.000117660              -0.000961465               0.002510892               0.001549427               0.000000000               0.000000000               0.000000000               0.000000000              -0.000270931               0.006320253               0.000087971              -0.000891628               0.002403939               0.001512311               0.000000000               0.000000000               0.000000000               0.000000000              -0.000200647               0.006104177               0.000053077              -0.000838263               0.002314126               0.001475863               0.000000000               0.000000000               0.000000000               0.000000000              -0.000151259               0.005918748               0.000015745              -0.000796564               0.002238417               0.001441854               0.000000000               0.000000000               0.000000000               0.000000000              -0.000106988               0.005750937              -0.000015983              -0.000758986               0.002169955               0.001410969               0.000000000               0.000000000               0.000000000               0.000000000              -0.000058720               0.005599492              -0.000022523              -0.000721955               0.002107130               0.001385176               0.000000000               0.000000000               0.000000000               0.000000000              -0.000049387               0.005502875              -0.000027283              -0.000706378               0.002069733               0.001363355               0.000000000               0.000000000               0.000000000               0.000000000               0.000697842               0.006153691               0.002634756              -0.000507522               0.002220383               0.001712861               0.000000000               0.000000000               0.000000000               0.000000000              -0.000714856               0.007185564               0.002080812              -0.001166265               0.002783919               0.001617654               0.000000000               0.000000000               0.000000000               0.000000000              -0.001809321               0.008333153               0.001415683              -0.001720136               0.003351068               0.001630933               0.000000000               0.000000000               0.000000000               0.000000000              -0.001857618               0.008379714               0.001023935              -0.001744067               0.003374566               0.001630499               0.000000000               0.000000000               0.000000000               0.000000000              -0.001655751               0.008152837               0.000782340              -0.001640007               0.003264254               0.001624247               0.000000000               0.000000000               0.000000000               0.000000000              -0.001393540               0.007862364               0.000626422              -0.001505369               0.003122551               0.001617182               0.000000000               0.000000000               0.000000000               0.000000000              -0.001123378               0.007564703               0.000518318              -0.001366851               0.002977159               0.001610308               0.000000000               0.000000000               0.000000000               0.000000000              -0.000861056               0.007279221               0.000440882              -0.001232796               0.002837315               0.001604519               0.000000000               0.000000000               0.000000000               0.000000000              -0.000627465               0.006981765               0.000380189              -0.001108017               0.002696571               0.001588554               0.000000000               0.000000000               0.000000000               0.000000000              -0.000435809               0.006676538               0.000325047              -0.000997993               0.002558155               0.001560162               0.000000000               0.000000000               0.000000000               0.000000000              -0.000293507               0.006386996               0.000265399              -0.000908437               0.002431790               0.001523352               0.000000000               0.000000000               0.000000000               0.000000000              -0.000205628               0.006124900               0.000196637              -0.000842721               0.002322520               0.001479799               0.000000000               0.000000000               0.000000000               0.000000000              -0.000161085               0.005895270               0.000124323              -0.000797314               0.002230841               0.001433528               0.000000000               0.000000000               0.000000000               0.000000000              -0.000143458               0.005686416               0.000057864              -0.000764597               0.002150319               0.001385722               0.000000000               0.000000000               0.000000000               0.000000000              -0.000138464               0.005485531               0.000009203              -0.000737614               0.002074363               0.001336750               0.000000000               0.000000000               0.000000000               0.000000000              -0.000126306               0.005301361              -0.000011102              -0.000710033               0.002003780               0.001293747               0.000000000               0.000000000               0.000000000               0.000000000              -0.000111577               0.005209465              -0.000014725              -0.000693023               0.001967478               0.001274456               0.000000000               0.000000000               0.000000000               0.000000000              -0.000165919               0.004432856               0.001925062              -0.000616327               0.001683045               0.001066719               0.000000000               0.000000000               0.000000000               0.000000000              -0.001150029               0.005828241               0.001953575              -0.001159789               0.002329323               0.001169534               0.000000000               0.000000000               0.000000000               0.000000000              -0.002029936               0.007325477               0.001782903              -0.001676907               0.003000770               0.001323863               0.000000000               0.000000000               0.000000000               0.000000000              -0.001994921               0.007687749               0.001455401              -0.001709060               0.003132244               0.001423184               0.000000000               0.000000000               0.000000000               0.000000000              -0.001741470               0.007677725               0.001187819              -0.001612763               0.003096804               0.001484041               0.000000000               0.000000000               0.000000000               0.000000000              -0.001449671               0.007537510               0.000988094              -0.001485812               0.003007749               0.001521937               0.000000000               0.000000000               0.000000000               0.000000000              -0.001161270               0.007356624               0.000834956              -0.001355051               0.002903867               0.001548816               0.000000000               0.000000000               0.000000000               0.000000000              -0.000892935               0.007148982               0.000717562              -0.001228471               0.002792460               0.001563990               0.000000000               0.000000000               0.000000000               0.000000000              -0.000655034               0.006896795               0.000618690              -0.001107734               0.002668153               0.001560419               0.000000000               0.000000000               0.000000000               0.000000000              -0.000455606               0.006616826               0.000526188              -0.000997953               0.002538238               0.001540284               0.000000000               0.000000000               0.000000000               0.000000000              -0.000307519               0.006324581               0.000432906              -0.000905890               0.002410136               0.001504246               0.000000000               0.000000000               0.000000000               0.000000000              -0.000214251               0.006047423               0.000332453              -0.000836270               0.002294544               0.001458274               0.000000000               0.000000000               0.000000000               0.000000000              -0.000173641               0.005798358               0.000230902              -0.000789908               0.002196069               0.001406161               0.000000000               0.000000000               0.000000000               0.000000000              -0.000169586               0.005576571               0.000136587              -0.000760664               0.002112393               0.001351729               0.000000000               0.000000000               0.000000000               0.000000000              -0.000190539               0.005368720               0.000063154              -0.000742540               0.002037069               0.001294529               0.000000000               0.000000000               0.000000000               0.000000000              -0.000224880               0.005171346               0.000020272              -0.000730746               0.001967347               0.001236600               0.000000000               0.000000000               0.000000000               0.000000000              -0.000236994               0.005079805               0.000007086              -0.000723847               0.001934533               0.001210687               0.000000000               0.000000000               0.000000000               0.000000000              -0.001303535               0.002870398               0.001207043              -0.000847624               0.001239331               0.000391707               0.000000000               0.000000000               0.000000000               0.000000000              -0.001646958               0.004472496               0.001758956              -0.001176669               0.001883039               0.000706370               0.000000000               0.000000000               0.000000000               0.000000000              -0.002166245               0.006169287               0.002070295              -0.001583500               0.002584241               0.001000741               0.000000000               0.000000000               0.000000000               0.000000000              -0.002059387               0.006831466               0.001869058              -0.001626200               0.002819199               0.001192999               0.000000000               0.000000000               0.000000000               0.000000000              -0.001783516               0.007066518               0.001604218              -0.001552130               0.002872859               0.001320729               0.000000000               0.000000000               0.000000000               0.000000000              -0.001486071               0.007109282               0.001372125              -0.001445934               0.002851715               0.001405781               0.000000000               0.000000000               0.000000000               0.000000000              -0.001193893               0.007071278               0.001181012              -0.001331617               0.002800941               0.001469325               0.000000000               0.000000000               0.000000000               0.000000000              -0.000924278               0.006971518               0.001026751              -0.001218041               0.002729829               0.001511788               0.000000000               0.000000000               0.000000000               0.000000000              -0.000689043               0.006798324               0.000897284              -0.001108179               0.002635478               0.001527299               0.000000000               0.000000000               0.000000000               0.000000000              -0.000481339               0.006577105               0.000776288              -0.001002638               0.002526559               0.001523921               0.000000000               0.000000000               0.000000000               0.000000000              -0.000313865               0.006324992               0.000654610              -0.000908321               0.002411083               0.001502762               0.000000000               0.000000000               0.000000000               0.000000000              -0.000192731               0.006062877               0.000529503              -0.000830132               0.002297649               0.001467517               0.000000000               0.000000000               0.000000000               0.000000000              -0.000125717               0.005805169               0.000405149              -0.000772788               0.002192633               0.001419845               0.000000000               0.000000000               0.000000000               0.000000000              -0.000112543               0.005567934               0.000284376              -0.000738194               0.002102024               0.001363830               0.000000000               0.000000000               0.000000000               0.000000000              -0.000147993               0.005354063               0.000169915              -0.000724753               0.002026254               0.001301501               0.000000000               0.000000000               0.000000000               0.000000000              -0.000228916               0.005164749               0.000074657              -0.000731435               0.001965377               0.001233942               0.000000000               0.000000000               0.000000000               0.000000000              -0.000295940               0.005067697               0.000026679              -0.000744438               0.001937361               0.001192924               0.000000000               0.000000000               0.000000000               0.000000000              -0.002636692               0.001577957               0.000534750              -0.001186002               0.000921313              -0.000264689               0.000000000               0.000000000               0.000000000               0.000000000              -0.002250740               0.003196281               0.001474285              -0.001243560               0.001479936               0.000236375               0.000000000               0.000000000               0.000000000               0.000000000              -0.002257756               0.004879556               0.002175066              -0.001456601               0.002112035               0.000655435               0.000000000               0.000000000               0.000000000               0.000000000              -0.002018871               0.005754288               0.002137646              -0.001476360               0.002410196               0.000933836               0.000000000               0.000000000               0.000000000               0.000000000              -0.001715718               0.006217063               0.001920404              -0.001420524               0.002545841               0.001125317               0.000000000               0.000000000               0.000000000               0.000000000              -0.001417958               0.006458440               0.001687365              -0.001339037               0.002599137               0.001260100               0.000000000               0.000000000               0.000000000               0.000000000              -0.001134007               0.006581573               0.001481992              -0.001247947               0.002609818               0.001361871               0.000000000               0.000000000               0.000000000               0.000000000              -0.000871865               0.006610629               0.001307813              -0.001153276               0.002587946               0.001434670               0.000000000               0.000000000               0.000000000               0.000000000              -0.000638683               0.006547408               0.001158079              -0.001057930               0.002535090               0.001477161               0.000000000               0.000000000               0.000000000               0.000000000              -0.000432152               0.006416287               0.001016752              -0.000964091               0.002460105               0.001496014               0.000000000               0.000000000               0.000000000               0.000000000              -0.000257341               0.006236742               0.000875438              -0.000876094               0.002370924               0.001494831               0.000000000               0.000000000               0.000000000               0.000000000              -0.000112602               0.006027791               0.000736167              -0.000795698               0.002274476               0.001478778               0.000000000               0.000000000               0.000000000               0.000000000              -0.000006094               0.005794526               0.000596818              -0.000726599               0.002173689               0.001447090               0.000000000               0.000000000               0.000000000               0.000000000               0.000045234               0.005559707               0.000452905              -0.000677999               0.002079217               0.001401218               0.000000000               0.000000000               0.000000000               0.000000000               0.000033774               0.005347250               0.000301512              -0.000655740               0.002000979               0.001345239               0.000000000               0.000000000               0.000000000               0.000000000              -0.000044550               0.005165914               0.000148856              -0.000662444               0.001942769               0.001280325               0.000000000               0.000000000               0.000000000               0.000000000              -0.000129954               0.005065653               0.000063269              -0.000681938               0.001915847               0.001233909               0.000000000               0.000000000               0.000000000               0.000000000              -0.004072083               0.000615429              -0.000003813              -0.001603958               0.000739790              -0.000864167               0.000000000               0.000000000               0.000000000               0.000000000              -0.002924798               0.002065960               0.001136095              -0.001355042               0.001140326              -0.000214716               0.000000000               0.000000000               0.000000000               0.000000000              -0.002328564               0.003561791               0.002073300              -0.001318433               0.001626729               0.000308295               0.000000000               0.000000000               0.000000000               0.000000000              -0.001896728               0.004544871               0.002185197              -0.001279380               0.001941401               0.000662021               0.000000000               0.000000000               0.000000000               0.000000000              -0.001541650               0.005185986               0.002045500              -0.001226365               0.002137432               0.000911067               0.000000000               0.000000000               0.000000000               0.000000000              -0.001235239               0.005610576               0.001846284              -0.001164534               0.002258351               0.001093816               0.000000000               0.000000000               0.000000000               0.000000000              -0.000959817               0.005899460               0.001653056              -0.001097362               0.002332254               0.001234892               0.000000000               0.000000000               0.000000000               0.000000000              -0.000712551               0.006063985               0.001482297              -0.001025203               0.002363042               0.001337839               0.000000000               0.000000000               0.000000000               0.000000000              -0.000491313               0.006121406               0.001330098              -0.000949416               0.002356920               0.001407504               0.000000000               0.000000000               0.000000000               0.000000000              -0.000290811               0.006104445               0.001180121              -0.000872108               0.002325497               0.001453389               0.000000000               0.000000000               0.000000000               0.000000000              -0.000109273               0.006023197               0.001033328              -0.000793875               0.002272337               0.001478462               0.000000000               0.000000000               0.000000000               0.000000000               0.000055184               0.005892563               0.000894396              -0.000715875               0.002202793               0.001486918               0.000000000               0.000000000               0.000000000               0.000000000               0.000199342               0.005723627               0.000752241              -0.000640699               0.002121423               0.001480724               0.000000000               0.000000000               0.000000000               0.000000000               0.000308849               0.005531576               0.000595616              -0.000575627               0.002035716               0.001460089               0.000000000               0.000000000               0.000000000               0.000000000               0.000366748               0.005339705               0.000418967              -0.000529931               0.001956528               0.001426596               0.000000000               0.000000000               0.000000000               0.000000000               0.000355256               0.005165806               0.000220444              -0.000512503               0.001892752               0.001380249               0.000000000               0.000000000               0.000000000               0.000000000               0.000311287               0.005073509               0.000109923              -0.000517455               0.001863638               0.001346183               0.000000000               0.000000000               0.000000000               0.000000000              -0.005462378              -0.000022514              -0.000330792              -0.002045576               0.000674349              -0.001371226               0.000000000               0.000000000               0.000000000               0.000000000              -0.003606326               0.001146330               0.000791014              -0.001495661               0.000880658              -0.000615004               0.000000000               0.000000000               0.000000000               0.000000000              -0.002391729               0.002344780               0.001766311              -0.001189994               0.001178249              -0.000011745               0.000000000               0.000000000               0.000000000               0.000000000              -0.001728506               0.003341166               0.001970432              -0.001065834               0.001468988               0.000403154               0.000000000               0.000000000               0.000000000               0.000000000              -0.001293546               0.004095175               0.001907668              -0.000996975               0.001697369               0.000700394               0.000000000               0.000000000               0.000000000               0.000000000              -0.000965904               0.004661423               0.001762919              -0.000944890               0.001868755               0.000923865               0.000000000               0.000000000               0.000000000               0.000000000              -0.000691886               0.005090059               0.001607126              -0.000895713               0.001995240               0.001099527               0.000000000               0.000000000               0.000000000               0.000000000              -0.000457026               0.005382101               0.001460602              -0.000844146               0.002075397               0.001231251               0.000000000               0.000000000               0.000000000               0.000000000              -0.000252969               0.005562645               0.001322344              -0.000790193               0.002117594               0.001327401               0.000000000               0.000000000               0.000000000               0.000000000              -0.000064040               0.005657528               0.001185655              -0.000731205               0.002129558               0.001398354               0.000000000               0.000000000               0.000000000               0.000000000               0.000121337               0.005679521               0.001054049              -0.000664438               0.002114634               0.001450196               0.000000000               0.000000000               0.000000000               0.000000000               0.000304834               0.005645921               0.000929894              -0.000591426               0.002079097               0.001487671               0.000000000               0.000000000               0.000000000               0.000000000               0.000482222               0.005564602               0.000800239              -0.000514741               0.002026429               0.001511688               0.000000000               0.000000000               0.000000000               0.000000000               0.000652052               0.005448600               0.000651619              -0.000436555               0.001961700               0.001525145               0.000000000               0.000000000               0.000000000               0.000000000               0.000802939               0.005307064               0.000471907              -0.000362280               0.001889764               0.001527483               0.000000000               0.000000000               0.000000000               0.000000000               0.000916458               0.005155505               0.000253857              -0.000300766               0.001818740               0.001517974               0.000000000               0.000000000               0.000000000               0.000000000               0.000975902               0.005084747               0.000137459              -0.000269629               0.001784775               0.001515146               0.000000000               0.000000000               0.000000000               0.000000000              -0.006634699              -0.000388304              -0.000409164              -0.002439472               0.000683718              -0.001755754               0.000000000               0.000000000               0.000000000               0.000000000              -0.004203935               0.000480266               0.000480754              -0.001636507               0.000705586              -0.000930921               0.000000000               0.000000000               0.000000000               0.000000000              -0.002448617               0.001362862               0.001282778              -0.001088588               0.000817144              -0.000271444               0.000000000               0.000000000               0.000000000               0.000000000              -0.001555929               0.002307608               0.001495050              -0.000871923               0.001059835               0.000187912               0.000000000               0.000000000               0.000000000               0.000000000              -0.001029709               0.003113332               0.001484041              -0.000775306               0.001296202               0.000520896               0.000000000               0.000000000               0.000000000               0.000000000              -0.000669797               0.003770672               0.001396528              -0.000722507               0.001497713               0.000775206               0.000000000               0.000000000               0.000000000               0.000000000              -0.000391696               0.004302587               0.001291204              -0.000684708               0.001662417               0.000977709               0.000000000               0.000000000               0.000000000               0.000000000              -0.000169189               0.004698429               0.001184067              -0.000650749               0.001783043               0.001132295               0.000000000               0.000000000               0.000000000               0.000000000               0.000019912               0.004979016               0.001078613              -0.000614909               0.001864625               0.001249716               0.000000000               0.000000000               0.000000000               0.000000000               0.000199646               0.005170671               0.000975670              -0.000571466               0.001914028               0.001342563               0.000000000               0.000000000               0.000000000               0.000000000               0.000384806               0.005288602               0.000877332              -0.000516772               0.001935107               0.001418335               0.000000000               0.000000000               0.000000000               0.000000000               0.000578780               0.005349070               0.000782864              -0.000451591               0.001933536               0.001481945               0.000000000               0.000000000               0.000000000               0.000000000               0.000784491               0.005357570               0.000684139              -0.000375512               0.001911009               0.001535498               0.000000000               0.000000000               0.000000000               0.000000000               0.001006935               0.005322008               0.000567832              -0.000287650               0.001869868               0.001582218               0.000000000               0.000000000               0.000000000               0.000000000               0.001245689               0.005244585               0.000419078              -0.000188440               0.001810991               0.001622551               0.000000000               0.000000000               0.000000000               0.000000000               0.001503337               0.005131368               0.000228946              -0.000077670               0.001736329               0.001658659               0.000000000               0.000000000               0.000000000               0.000000000               0.001695550               0.005089150               0.000130180              -0.000000313               0.001696471               0.001696158               0.000000000               0.000000000               0.000000000               0.000000000              -0.007417333              -0.000561138              -0.000269854              -0.002711356               0.000716734              -0.001994621               0.000000000               0.000000000               0.000000000               0.000000000              -0.004617069               0.000082549               0.000222049              -0.001741718               0.000608085              -0.001133633               0.000000000               0.000000000               0.000000000               0.000000000              -0.002494875               0.000727133               0.000675283              -0.001026468               0.000584530              -0.000441939               0.000000000               0.000000000               0.000000000               0.000000000              -0.001429198               0.001605925               0.000808776              -0.000736689               0.000780865               0.000044177               0.000000000               0.000000000               0.000000000               0.000000000              -0.000826275               0.002423368               0.000814539              -0.000612773               0.001012038               0.000399266               0.000000000               0.000000000               0.000000000               0.000000000              -0.000436414               0.003130012               0.000774760              -0.000554906               0.001228295               0.000673390               0.000000000               0.000000000               0.000000000               0.000000000              -0.000154812               0.003725438               0.000722441              -0.000523733               0.001416378               0.000892645               0.000000000               0.000000000               0.000000000               0.000000000               0.000059711               0.004188333               0.000666336              -0.000501149               0.001563147               0.001061998               0.000000000               0.000000000               0.000000000               0.000000000               0.000241015               0.004533303               0.000609687              -0.000476281               0.001669846               0.001193565               0.000000000               0.000000000               0.000000000               0.000000000               0.000413998               0.004788087               0.000555014              -0.000443261               0.001743766               0.001300506               0.000000000               0.000000000               0.000000000               0.000000000               0.000596762               0.004975799               0.000501482              -0.000398188               0.001791313               0.001393124               0.000000000               0.000000000               0.000000000               0.000000000               0.000797789               0.005107792               0.000449831              -0.000339303               0.001815681               0.001476379               0.000000000               0.000000000               0.000000000               0.000000000               0.001023021               0.005183678               0.000397322              -0.000264326               0.001815984               0.001551658               0.000000000               0.000000000               0.000000000               0.000000000               0.001282641               0.005209186               0.000332117              -0.000170158               0.001793097               0.001622940               0.000000000               0.000000000               0.000000000               0.000000000               0.001589746               0.005183570               0.000248353              -0.000051791               0.001745103               0.001693312               0.000000000               0.000000000               0.000000000               0.000000000               0.001959765               0.005105833               0.000138876               0.000096682               0.001669700               0.001766382               0.000000000               0.000000000               0.000000000               0.000000000               0.002260519               0.005089461               0.000082095               0.000211510               0.001625967               0.001837477               0.000000000               0.000000000               0.000000000               0.000000000               0.000000000               0.000000000               0.000000000               0.000000000               0.000000000               0.000000000               0.000000000               0.000000000               0.000000000               0.000000000               0.000000000               0.000000000               0.000000000               0.000000000               0.000000000               0.000000000               0.000000000               0.000000000               0.000000000               0.000000000               0.000000000               0.000000000               0.000000000               0.000000000               0.000000000               0.000000000               0.000000000               0.000000000               0.000000000               0.000000000               0.000000000               0.000000000               0.000000000               0.000000000               0.000000000               0.000000000               0.000000000               0.000000000               0.000000000               0.000000000               0.000000000               0.000000000               0.000000000               0.000000000               0.000000000               0.000000000               0.000000000               0.000000000               0.000000000               0.000000000               0.000000000               0.000000000               0.000000000               0.000000000               0.000000000               0.000000000               0.000000000               0.000000000               0.000000000               0.000000000               0.000000000               0.000000000               0.000000000               0.000000000               0.000000000               0.000000000               0.000000000               0.000000000               0.000000000               0.000000000               0.000000000               0.000000000               0.000000000               0.000000000               0.000000000               0.000000000               0.000000000               0.000000000               0.000000000               0.000000000               0.000000000               0.000000000               0.000000000               0.000000000               0.000000000               0.000000000               0.000000000               0.000000000               0.000000000               0.000000000               0.000000000               0.000000000               0.000000000               0.000000000               0.000000000               0.000000000               0.000000000               0.000000000               0.000000000               0.000000000               0.000000000               0.000000000               0.000000000               0.000000000               0.000000000               0.000000000               0.000000000               0.000000000               0.000000000               0.000000000               0.000000000               0.000000000               0.000000000               0.000000000               0.000000000               0.000000000               0.000000000               0.000000000               0.000000000               0.000000000               0.000000000               0.000000000               0.000000000               0.000000000               0.000000000               0.000000000               0.000000000               0.000000000               0.000000000               0.000000000               0.000000000               0.000000000               0.000000000               0.000000000               0.000000000               0.000000000               0.000000000               0.000000000               0.000000000               0.000000000               0.000000000               0.000000000               0.000000000               0.000000000               0.000000000               0.000000000               0.000000000               0.000000000               0.000000000               0.000000000               0.000000000               0.000000000               0.000000000               0.000000000               0.000000000               0.000000000               0.000000000               0.000000000               0.000000000               0.000000000               0.000000000               0.000000000               0.000000000               0.000000000               0.000000000               0.000000000               0.000000000               0.000000000               0.000000000               0.000000000 </DataArray>
</PointData>
</Piece>
</UnstructuredGrid> </VTKFile>
