<?xml version="1.0"?>
<VTKFile type="UnstructuredGrid" version="0.1">
<UnstructuredGrid>
<Piece NumberOfPoints="      1156" NumberOfCells="      1024">
<Points>
<DataArray type="Float64"                                    Name="coordinates"                                                      NumberOfComponents=" 3" format="ascii">
              0.133000000               0.000000000               0.000000000               0.155937500               0.000000000               0.000000000               0.178875000               0.000000000               0.000000000               0.201812500               0.000000000               0.000000000               0.224750000               0.000000000               0.000000000               0.247687500               0.000000000               0.000000000               0.270625000               0.000000000               0.000000000               0.293562500               0.000000000               0.000000000               0.316500000               0.000000000               0.000000000               0.339437500               0.000000000               0.000000000               0.362375000               0.000000000               0.000000000               0.385312500               0.000000000               0.000000000               0.408250000               0.000000000               0.000000000               0.431187500               0.000000000               0.000000000               0.454125000               0.000000000               0.000000000               0.477062500               0.000000000               0.000000000               0.500000000               0.000000000               0.000000000               0.132359569               0.013036280               0.000000000               0.155337096               0.016127762               0.000000000               0.178314623               0.019219245               0.000000000               0.201292150               0.022310727               0.000000000               0.224269676               0.025402210               0.000000000               0.247247203               0.028493692               0.000000000               0.270224730               0.031585175               0.000000000               0.293202257               0.034676657               0.000000000               0.316179784               0.037768140               0.000000000               0.339157311               0.040859622               0.000000000               0.362134838               0.043951105               0.000000000               0.385112365               0.047042587               0.000000000               0.408089892               0.050134070               0.000000000               0.431067419               0.053225552               0.000000000               0.454044946               0.056317035               0.000000000               0.477022473               0.059408517               0.000000000               0.500000000               0.062500000               0.000000000               0.130444442               0.025947013               0.000000000               0.153541665               0.032137825               0.000000000               0.176638887               0.038328636               0.000000000               0.199736109               0.044519448               0.000000000               0.222833332               0.050710260               0.000000000               0.245930554               0.056901071               0.000000000               0.269027776               0.063091883               0.000000000               0.292124999               0.069282695               0.000000000               0.315222221               0.075473506               0.000000000               0.338319444               0.081664318               0.000000000               0.361416666               0.087855130               0.000000000               0.384513888               0.094045942               0.000000000               0.407611111               0.100236753               0.000000000               0.430708333               0.106427565               0.000000000               0.453805555               0.112618377               0.000000000               0.476902778               0.118809188               0.000000000               0.500000000               0.125000000               0.000000000               0.127273065               0.038607862               0.000000000               0.150568498               0.047913621               0.000000000               0.173863932               0.057219379               0.000000000               0.197159365               0.066525138               0.000000000               0.220454798               0.075830897               0.000000000               0.243750232               0.085136655               0.000000000               0.267045665               0.094442414               0.000000000               0.290341099               0.103748172               0.000000000               0.313636532               0.113053931               0.000000000               0.336931966               0.122359690               0.000000000               0.360227399               0.131665448               0.000000000               0.383522833               0.140971207               0.000000000               0.406818266               0.150276966               0.000000000               0.430113700               0.159582724               0.000000000               0.453409133               0.168888483               0.000000000               0.476704567               0.178194241               0.000000000               0.500000000               0.187500000               0.000000000               0.122875978               0.050896897               0.000000000               0.146446229               0.063340840               0.000000000               0.170016481               0.075784784               0.000000000               0.193586732               0.088228728               0.000000000               0.217156983               0.100672672               0.000000000               0.240727235               0.113116616               0.000000000               0.264297486               0.125560560               0.000000000               0.287867738               0.138004504               0.000000000               0.311437989               0.150448448               0.000000000               0.335008240               0.162892392               0.000000000               0.358578492               0.175336336               0.000000000               0.382148743               0.187780280               0.000000000               0.405718994               0.200224224               0.000000000               0.429289246               0.212668168               0.000000000               0.452859497               0.225112112               0.000000000               0.476429749               0.237556056               0.000000000               0.500000000               0.250000000               0.000000000               0.117295528               0.062695766               0.000000000               0.141214558               0.078308531               0.000000000               0.165133587               0.093921295               0.000000000               0.189052617               0.109534060               0.000000000               0.212971646               0.125146824               0.000000000               0.236890676               0.140759589               0.000000000               0.260809705               0.156372354               0.000000000               0.284728735               0.171985118               0.000000000               0.308647764               0.187597883               0.000000000               0.332566794               0.203210648               0.000000000               0.356485823               0.218823412               0.000000000               0.380404853               0.234436177               0.000000000               0.404323882               0.250048941               0.000000000               0.428242912               0.265661706               0.000000000               0.452161941               0.281274471               0.000000000               0.476080971               0.296887235               0.000000000               0.500000000               0.312500000               0.000000000               0.110585458               0.073890841               0.000000000               0.134923867               0.092710163               0.000000000               0.159262276               0.111529486               0.000000000               0.183600685               0.130348808               0.000000000               0.207939094               0.149168131               0.000000000               0.232277503               0.167987453               0.000000000               0.256615912               0.186806776               0.000000000               0.280954320               0.205626098               0.000000000               0.305292729               0.224445420               0.000000000               0.329631138               0.243264743               0.000000000               0.353969547               0.262084065               0.000000000               0.378307956               0.280903388               0.000000000               0.402646365               0.299722710               0.000000000               0.426984773               0.318542033               0.000000000               0.451323182               0.337361355               0.000000000               0.475661591               0.356180678               0.000000000               0.500000000               0.375000000               0.000000000               0.102810390               0.084374307               0.000000000               0.127634741               0.106444663               0.000000000               0.152459092               0.128515018               0.000000000               0.177283442               0.150585374               0.000000000               0.202107793               0.172655730               0.000000000               0.226932143               0.194726086               0.000000000               0.251756494               0.216796442               0.000000000               0.276580845               0.238866798               0.000000000               0.301405195               0.260937153               0.000000000               0.326229546               0.283007509               0.000000000               0.351053896               0.305077865               0.000000000               0.375878247               0.327148221               0.000000000               0.400702598               0.349218577               0.000000000               0.425526948               0.371288933               0.000000000               0.450351299               0.393359288               0.000000000               0.475175649               0.415429644               0.000000000               0.500000000               0.437500000               0.000000000               0.094045202               0.094045202               0.000000000               0.119417377               0.119417377               0.000000000               0.144789552               0.144789552               0.000000000               0.170161727               0.170161727               0.000000000               0.195533901               0.195533901               0.000000000               0.220906076               0.220906076               0.000000000               0.246278251               0.246278251               0.000000000               0.271650426               0.271650426               0.000000000               0.297022601               0.297022601               0.000000000               0.322394776               0.322394776               0.000000000               0.347766951               0.347766951               0.000000000               0.373139126               0.373139126               0.000000000               0.398511300               0.398511300               0.000000000               0.423883475               0.423883475               0.000000000               0.449255650               0.449255650               0.000000000               0.474627825               0.474627825               0.000000000               0.500000000               0.500000000               0.000000000               0.084374307               0.102810390               0.000000000               0.106444663               0.127634741               0.000000000               0.128515018               0.152459092               0.000000000               0.150585374               0.177283442               0.000000000               0.172655730               0.202107793               0.000000000               0.194726086               0.226932143               0.000000000               0.216796442               0.251756494               0.000000000               0.238866798               0.276580845               0.000000000               0.260937153               0.301405195               0.000000000               0.283007509               0.326229546               0.000000000               0.305077865               0.351053896               0.000000000               0.327148221               0.375878247               0.000000000               0.349218577               0.400702598               0.000000000               0.371288933               0.425526948               0.000000000               0.393359288               0.450351299               0.000000000               0.415429644               0.475175649               0.000000000               0.437500000               0.500000000               0.000000000               0.073890841               0.110585458               0.000000000               0.092710163               0.134923867               0.000000000               0.111529486               0.159262276               0.000000000               0.130348808               0.183600685               0.000000000               0.149168131               0.207939094               0.000000000               0.167987453               0.232277503               0.000000000               0.186806776               0.256615912               0.000000000               0.205626098               0.280954320               0.000000000               0.224445420               0.305292729               0.000000000               0.243264743               0.329631138               0.000000000               0.262084065               0.353969547               0.000000000               0.280903388               0.378307956               0.000000000               0.299722710               0.402646365               0.000000000               0.318542033               0.426984773               0.000000000               0.337361355               0.451323182               0.000000000               0.356180678               0.475661591               0.000000000               0.375000000               0.500000000               0.000000000               0.062695766               0.117295528               0.000000000               0.078308531               0.141214558               0.000000000               0.093921295               0.165133587               0.000000000               0.109534060               0.189052617               0.000000000               0.125146824               0.212971646               0.000000000               0.140759589               0.236890676               0.000000000               0.156372354               0.260809705               0.000000000               0.171985118               0.284728735               0.000000000               0.187597883               0.308647764               0.000000000               0.203210648               0.332566794               0.000000000               0.218823412               0.356485823               0.000000000               0.234436177               0.380404853               0.000000000               0.250048941               0.404323882               0.000000000               0.265661706               0.428242912               0.000000000               0.281274471               0.452161941               0.000000000               0.296887235               0.476080971               0.000000000               0.312500000               0.500000000               0.000000000               0.050896897               0.122875978               0.000000000               0.063340840               0.146446229               0.000000000               0.075784784               0.170016481               0.000000000               0.088228728               0.193586732               0.000000000               0.100672672               0.217156983               0.000000000               0.113116616               0.240727235               0.000000000               0.125560560               0.264297486               0.000000000               0.138004504               0.287867738               0.000000000               0.150448448               0.311437989               0.000000000               0.162892392               0.335008240               0.000000000               0.175336336               0.358578492               0.000000000               0.187780280               0.382148743               0.000000000               0.200224224               0.405718994               0.000000000               0.212668168               0.429289246               0.000000000               0.225112112               0.452859497               0.000000000               0.237556056               0.476429749               0.000000000               0.250000000               0.500000000               0.000000000               0.038607862               0.127273065               0.000000000               0.047913621               0.150568498               0.000000000               0.057219379               0.173863932               0.000000000               0.066525138               0.197159365               0.000000000               0.075830897               0.220454798               0.000000000               0.085136655               0.243750232               0.000000000               0.094442414               0.267045665               0.000000000               0.103748172               0.290341099               0.000000000               0.113053931               0.313636532               0.000000000               0.122359690               0.336931966               0.000000000               0.131665448               0.360227399               0.000000000               0.140971207               0.383522833               0.000000000               0.150276966               0.406818266               0.000000000               0.159582724               0.430113700               0.000000000               0.168888483               0.453409133               0.000000000               0.178194241               0.476704567               0.000000000               0.187500000               0.500000000               0.000000000               0.025947013               0.130444442               0.000000000               0.032137825               0.153541665               0.000000000               0.038328636               0.176638887               0.000000000               0.044519448               0.199736109               0.000000000               0.050710260               0.222833332               0.000000000               0.056901071               0.245930554               0.000000000               0.063091883               0.269027776               0.000000000               0.069282695               0.292124999               0.000000000               0.075473506               0.315222221               0.000000000               0.081664318               0.338319444               0.000000000               0.087855130               0.361416666               0.000000000               0.094045942               0.384513888               0.000000000               0.100236753               0.407611111               0.000000000               0.106427565               0.430708333               0.000000000               0.112618377               0.453805555               0.000000000               0.118809188               0.476902778               0.000000000               0.125000000               0.500000000               0.000000000               0.013036280               0.132359569               0.000000000               0.016127762               0.155337096               0.000000000               0.019219245               0.178314623               0.000000000               0.022310727               0.201292150               0.000000000               0.025402210               0.224269676               0.000000000               0.028493692               0.247247203               0.000000000               0.031585175               0.270224730               0.000000000               0.034676657               0.293202257               0.000000000               0.037768140               0.316179784               0.000000000               0.040859622               0.339157311               0.000000000               0.043951105               0.362134838               0.000000000               0.047042587               0.385112365               0.000000000               0.050134070               0.408089892               0.000000000               0.053225552               0.431067419               0.000000000               0.056317035               0.454044946               0.000000000               0.059408517               0.477022473               0.000000000               0.062500000               0.500000000               0.000000000               0.000000000               0.133000000               0.000000000               0.000000000               0.155937500               0.000000000               0.000000000               0.178875000               0.000000000               0.000000000               0.201812500               0.000000000               0.000000000               0.224750000               0.000000000               0.000000000               0.247687500               0.000000000               0.000000000               0.270625000               0.000000000               0.000000000               0.293562500               0.000000000               0.000000000               0.316500000               0.000000000               0.000000000               0.339437500               0.000000000               0.000000000               0.362375000               0.000000000               0.000000000               0.385312500               0.000000000               0.000000000               0.408250000               0.000000000               0.000000000               0.431187500               0.000000000               0.000000000               0.454125000               0.000000000               0.000000000               0.477062500               0.000000000               0.000000000               0.500000000               0.000000000               0.133000000               0.000000000               0.000000000               0.155937500               0.000000000               0.000000000               0.178875000               0.000000000               0.000000000               0.201812500               0.000000000               0.000000000               0.224750000               0.000000000               0.000000000               0.247687500               0.000000000               0.000000000               0.270625000               0.000000000               0.000000000               0.293562500               0.000000000               0.000000000               0.316500000               0.000000000               0.000000000               0.339437500               0.000000000               0.000000000               0.362375000               0.000000000               0.000000000               0.385312500               0.000000000               0.000000000               0.408250000               0.000000000               0.000000000               0.431187500               0.000000000               0.000000000               0.454125000               0.000000000               0.000000000               0.477062500               0.000000000               0.000000000               0.500000000               0.000000000               0.000000000               0.132359569              -0.013036280               0.000000000               0.155337096              -0.016127762               0.000000000               0.178314623              -0.019219245               0.000000000               0.201292150              -0.022310727               0.000000000               0.224269676              -0.025402210               0.000000000               0.247247203              -0.028493692               0.000000000               0.270224730              -0.031585175               0.000000000               0.293202257              -0.034676657               0.000000000               0.316179784              -0.037768140               0.000000000               0.339157311              -0.040859622               0.000000000               0.362134838              -0.043951105               0.000000000               0.385112365              -0.047042587               0.000000000               0.408089892              -0.050134070               0.000000000               0.431067419              -0.053225552               0.000000000               0.454044946              -0.056317035               0.000000000               0.477022473              -0.059408517               0.000000000               0.500000000              -0.062500000               0.000000000               0.130444442              -0.025947013               0.000000000               0.153541665              -0.032137825               0.000000000               0.176638887              -0.038328636               0.000000000               0.199736109              -0.044519448               0.000000000               0.222833332              -0.050710260               0.000000000               0.245930554              -0.056901071               0.000000000               0.269027776              -0.063091883               0.000000000               0.292124999              -0.069282695               0.000000000               0.315222221              -0.075473506               0.000000000               0.338319444              -0.081664318               0.000000000               0.361416666              -0.087855130               0.000000000               0.384513888              -0.094045942               0.000000000               0.407611111              -0.100236753               0.000000000               0.430708333              -0.106427565               0.000000000               0.453805555              -0.112618377               0.000000000               0.476902778              -0.118809188               0.000000000               0.500000000              -0.125000000               0.000000000               0.127273065              -0.038607862               0.000000000               0.150568498              -0.047913621               0.000000000               0.173863932              -0.057219379               0.000000000               0.197159365              -0.066525138               0.000000000               0.220454798              -0.075830897               0.000000000               0.243750232              -0.085136655               0.000000000               0.267045665              -0.094442414               0.000000000               0.290341099              -0.103748172               0.000000000               0.313636532              -0.113053931               0.000000000               0.336931966              -0.122359690               0.000000000               0.360227399              -0.131665448               0.000000000               0.383522833              -0.140971207               0.000000000               0.406818266              -0.150276966               0.000000000               0.430113700              -0.159582724               0.000000000               0.453409133              -0.168888483               0.000000000               0.476704567              -0.178194241               0.000000000               0.500000000              -0.187500000               0.000000000               0.122875978              -0.050896897               0.000000000               0.146446229              -0.063340840               0.000000000               0.170016481              -0.075784784               0.000000000               0.193586732              -0.088228728               0.000000000               0.217156983              -0.100672672               0.000000000               0.240727235              -0.113116616               0.000000000               0.264297486              -0.125560560               0.000000000               0.287867738              -0.138004504               0.000000000               0.311437989              -0.150448448               0.000000000               0.335008240              -0.162892392               0.000000000               0.358578492              -0.175336336               0.000000000               0.382148743              -0.187780280               0.000000000               0.405718994              -0.200224224               0.000000000               0.429289246              -0.212668168               0.000000000               0.452859497              -0.225112112               0.000000000               0.476429749              -0.237556056               0.000000000               0.500000000              -0.250000000               0.000000000               0.117295528              -0.062695766               0.000000000               0.141214558              -0.078308531               0.000000000               0.165133587              -0.093921295               0.000000000               0.189052617              -0.109534060               0.000000000               0.212971646              -0.125146824               0.000000000               0.236890676              -0.140759589               0.000000000               0.260809705              -0.156372354               0.000000000               0.284728735              -0.171985118               0.000000000               0.308647764              -0.187597883               0.000000000               0.332566794              -0.203210648               0.000000000               0.356485823              -0.218823412               0.000000000               0.380404853              -0.234436177               0.000000000               0.404323882              -0.250048941               0.000000000               0.428242912              -0.265661706               0.000000000               0.452161941              -0.281274471               0.000000000               0.476080971              -0.296887235               0.000000000               0.500000000              -0.312500000               0.000000000               0.110585458              -0.073890841               0.000000000               0.134923867              -0.092710163               0.000000000               0.159262276              -0.111529486               0.000000000               0.183600685              -0.130348808               0.000000000               0.207939094              -0.149168131               0.000000000               0.232277503              -0.167987453               0.000000000               0.256615912              -0.186806776               0.000000000               0.280954320              -0.205626098               0.000000000               0.305292729              -0.224445420               0.000000000               0.329631138              -0.243264743               0.000000000               0.353969547              -0.262084065               0.000000000               0.378307956              -0.280903388               0.000000000               0.402646365              -0.299722710               0.000000000               0.426984773              -0.318542033               0.000000000               0.451323182              -0.337361355               0.000000000               0.475661591              -0.356180678               0.000000000               0.500000000              -0.375000000               0.000000000               0.102810390              -0.084374307               0.000000000               0.127634741              -0.106444663               0.000000000               0.152459092              -0.128515018               0.000000000               0.177283442              -0.150585374               0.000000000               0.202107793              -0.172655730               0.000000000               0.226932143              -0.194726086               0.000000000               0.251756494              -0.216796442               0.000000000               0.276580845              -0.238866798               0.000000000               0.301405195              -0.260937153               0.000000000               0.326229546              -0.283007509               0.000000000               0.351053896              -0.305077865               0.000000000               0.375878247              -0.327148221               0.000000000               0.400702598              -0.349218577               0.000000000               0.425526948              -0.371288933               0.000000000               0.450351299              -0.393359288               0.000000000               0.475175649              -0.415429644               0.000000000               0.500000000              -0.437500000               0.000000000               0.094045202              -0.094045202               0.000000000               0.119417377              -0.119417377               0.000000000               0.144789552              -0.144789552               0.000000000               0.170161727              -0.170161727               0.000000000               0.195533901              -0.195533901               0.000000000               0.220906076              -0.220906076               0.000000000               0.246278251              -0.246278251               0.000000000               0.271650426              -0.271650426               0.000000000               0.297022601              -0.297022601               0.000000000               0.322394776              -0.322394776               0.000000000               0.347766951              -0.347766951               0.000000000               0.373139126              -0.373139126               0.000000000               0.398511300              -0.398511300               0.000000000               0.423883475              -0.423883475               0.000000000               0.449255650              -0.449255650               0.000000000               0.474627825              -0.474627825               0.000000000               0.500000000              -0.500000000               0.000000000               0.084374307              -0.102810390               0.000000000               0.106444663              -0.127634741               0.000000000               0.128515018              -0.152459092               0.000000000               0.150585374              -0.177283442               0.000000000               0.172655730              -0.202107793               0.000000000               0.194726086              -0.226932143               0.000000000               0.216796442              -0.251756494               0.000000000               0.238866798              -0.276580845               0.000000000               0.260937153              -0.301405195               0.000000000               0.283007509              -0.326229546               0.000000000               0.305077865              -0.351053896               0.000000000               0.327148221              -0.375878247               0.000000000               0.349218577              -0.400702598               0.000000000               0.371288933              -0.425526948               0.000000000               0.393359288              -0.450351299               0.000000000               0.415429644              -0.475175649               0.000000000               0.437500000              -0.500000000               0.000000000               0.073890841              -0.110585458               0.000000000               0.092710163              -0.134923867               0.000000000               0.111529486              -0.159262276               0.000000000               0.130348808              -0.183600685               0.000000000               0.149168131              -0.207939094               0.000000000               0.167987453              -0.232277503               0.000000000               0.186806776              -0.256615912               0.000000000               0.205626098              -0.280954320               0.000000000               0.224445420              -0.305292729               0.000000000               0.243264743              -0.329631138               0.000000000               0.262084065              -0.353969547               0.000000000               0.280903388              -0.378307956               0.000000000               0.299722710              -0.402646365               0.000000000               0.318542033              -0.426984773               0.000000000               0.337361355              -0.451323182               0.000000000               0.356180678              -0.475661591               0.000000000               0.375000000              -0.500000000               0.000000000               0.062695766              -0.117295528               0.000000000               0.078308531              -0.141214558               0.000000000               0.093921295              -0.165133587               0.000000000               0.109534060              -0.189052617               0.000000000               0.125146824              -0.212971646               0.000000000               0.140759589              -0.236890676               0.000000000               0.156372354              -0.260809705               0.000000000               0.171985118              -0.284728735               0.000000000               0.187597883              -0.308647764               0.000000000               0.203210648              -0.332566794               0.000000000               0.218823412              -0.356485823               0.000000000               0.234436177              -0.380404853               0.000000000               0.250048941              -0.404323882               0.000000000               0.265661706              -0.428242912               0.000000000               0.281274471              -0.452161941               0.000000000               0.296887235              -0.476080971               0.000000000               0.312500000              -0.500000000               0.000000000               0.050896897              -0.122875978               0.000000000               0.063340840              -0.146446229               0.000000000               0.075784784              -0.170016481               0.000000000               0.088228728              -0.193586732               0.000000000               0.100672672              -0.217156983               0.000000000               0.113116616              -0.240727235               0.000000000               0.125560560              -0.264297486               0.000000000               0.138004504              -0.287867738               0.000000000               0.150448448              -0.311437989               0.000000000               0.162892392              -0.335008240               0.000000000               0.175336336              -0.358578492               0.000000000               0.187780280              -0.382148743               0.000000000               0.200224224              -0.405718994               0.000000000               0.212668168              -0.429289246               0.000000000               0.225112112              -0.452859497               0.000000000               0.237556056              -0.476429749               0.000000000               0.250000000              -0.500000000               0.000000000               0.038607862              -0.127273065               0.000000000               0.047913621              -0.150568498               0.000000000               0.057219379              -0.173863932               0.000000000               0.066525138              -0.197159365               0.000000000               0.075830897              -0.220454798               0.000000000               0.085136655              -0.243750232               0.000000000               0.094442414              -0.267045665               0.000000000               0.103748172              -0.290341099               0.000000000               0.113053931              -0.313636532               0.000000000               0.122359690              -0.336931966               0.000000000               0.131665448              -0.360227399               0.000000000               0.140971207              -0.383522833               0.000000000               0.150276966              -0.406818266               0.000000000               0.159582724              -0.430113700               0.000000000               0.168888483              -0.453409133               0.000000000               0.178194241              -0.476704567               0.000000000               0.187500000              -0.500000000               0.000000000               0.025947013              -0.130444442               0.000000000               0.032137825              -0.153541665               0.000000000               0.038328636              -0.176638887               0.000000000               0.044519448              -0.199736109               0.000000000               0.050710260              -0.222833332               0.000000000               0.056901071              -0.245930554               0.000000000               0.063091883              -0.269027776               0.000000000               0.069282695              -0.292124999               0.000000000               0.075473506              -0.315222221               0.000000000               0.081664318              -0.338319444               0.000000000               0.087855130              -0.361416666               0.000000000               0.094045942              -0.384513888               0.000000000               0.100236753              -0.407611111               0.000000000               0.106427565              -0.430708333               0.000000000               0.112618377              -0.453805555               0.000000000               0.118809188              -0.476902778               0.000000000               0.125000000              -0.500000000               0.000000000               0.013036280              -0.132359569               0.000000000               0.016127762              -0.155337096               0.000000000               0.019219245              -0.178314623               0.000000000               0.022310727              -0.201292150               0.000000000               0.025402210              -0.224269676               0.000000000               0.028493692              -0.247247203               0.000000000               0.031585175              -0.270224730               0.000000000               0.034676657              -0.293202257               0.000000000               0.037768140              -0.316179784               0.000000000               0.040859622              -0.339157311               0.000000000               0.043951105              -0.362134838               0.000000000               0.047042587              -0.385112365               0.000000000               0.050134070              -0.408089892               0.000000000               0.053225552              -0.431067419               0.000000000               0.056317035              -0.454044946               0.000000000               0.059408517              -0.477022473               0.000000000               0.062500000              -0.500000000               0.000000000               0.000000000              -0.133000000               0.000000000               0.000000000              -0.155937500               0.000000000               0.000000000              -0.178875000               0.000000000               0.000000000              -0.201812500               0.000000000               0.000000000              -0.224750000               0.000000000               0.000000000              -0.247687500               0.000000000               0.000000000              -0.270625000               0.000000000               0.000000000              -0.293562500               0.000000000               0.000000000              -0.316500000               0.000000000               0.000000000              -0.339437500               0.000000000               0.000000000              -0.362375000               0.000000000               0.000000000              -0.385312500               0.000000000               0.000000000              -0.408250000               0.000000000               0.000000000              -0.431187500               0.000000000               0.000000000              -0.454125000               0.000000000               0.000000000              -0.477062500               0.000000000               0.000000000              -0.500000000               0.000000000              -0.133000000               0.000000000               0.000000000              -0.155937500               0.000000000               0.000000000              -0.178875000               0.000000000               0.000000000              -0.201812500               0.000000000               0.000000000              -0.224750000               0.000000000               0.000000000              -0.247687500               0.000000000               0.000000000              -0.270625000               0.000000000               0.000000000              -0.293562500               0.000000000               0.000000000              -0.316500000               0.000000000               0.000000000              -0.339437500               0.000000000               0.000000000              -0.362375000               0.000000000               0.000000000              -0.385312500               0.000000000               0.000000000              -0.408250000               0.000000000               0.000000000              -0.431187500               0.000000000               0.000000000              -0.454125000               0.000000000               0.000000000              -0.477062500               0.000000000               0.000000000              -0.500000000               0.000000000               0.000000000              -0.132359569              -0.013036280               0.000000000              -0.155337096              -0.016127762               0.000000000              -0.178314623              -0.019219245               0.000000000              -0.201292150              -0.022310727               0.000000000              -0.224269676              -0.025402210               0.000000000              -0.247247203              -0.028493692               0.000000000              -0.270224730              -0.031585175               0.000000000              -0.293202257              -0.034676657               0.000000000              -0.316179784              -0.037768140               0.000000000              -0.339157311              -0.040859622               0.000000000              -0.362134838              -0.043951105               0.000000000              -0.385112365              -0.047042587               0.000000000              -0.408089892              -0.050134070               0.000000000              -0.431067419              -0.053225552               0.000000000              -0.454044946              -0.056317035               0.000000000              -0.477022473              -0.059408517               0.000000000              -0.500000000              -0.062500000               0.000000000              -0.130444442              -0.025947013               0.000000000              -0.153541665              -0.032137825               0.000000000              -0.176638887              -0.038328636               0.000000000              -0.199736109              -0.044519448               0.000000000              -0.222833332              -0.050710260               0.000000000              -0.245930554              -0.056901071               0.000000000              -0.269027776              -0.063091883               0.000000000              -0.292124999              -0.069282695               0.000000000              -0.315222221              -0.075473506               0.000000000              -0.338319444              -0.081664318               0.000000000              -0.361416666              -0.087855130               0.000000000              -0.384513888              -0.094045942               0.000000000              -0.407611111              -0.100236753               0.000000000              -0.430708333              -0.106427565               0.000000000              -0.453805555              -0.112618377               0.000000000              -0.476902778              -0.118809188               0.000000000              -0.500000000              -0.125000000               0.000000000              -0.127273065              -0.038607862               0.000000000              -0.150568498              -0.047913621               0.000000000              -0.173863932              -0.057219379               0.000000000              -0.197159365              -0.066525138               0.000000000              -0.220454798              -0.075830897               0.000000000              -0.243750232              -0.085136655               0.000000000              -0.267045665              -0.094442414               0.000000000              -0.290341099              -0.103748172               0.000000000              -0.313636532              -0.113053931               0.000000000              -0.336931966              -0.122359690               0.000000000              -0.360227399              -0.131665448               0.000000000              -0.383522833              -0.140971207               0.000000000              -0.406818266              -0.150276966               0.000000000              -0.430113700              -0.159582724               0.000000000              -0.453409133              -0.168888483               0.000000000              -0.476704567              -0.178194241               0.000000000              -0.500000000              -0.187500000               0.000000000              -0.122875978              -0.050896897               0.000000000              -0.146446229              -0.063340840               0.000000000              -0.170016481              -0.075784784               0.000000000              -0.193586732              -0.088228728               0.000000000              -0.217156983              -0.100672672               0.000000000              -0.240727235              -0.113116616               0.000000000              -0.264297486              -0.125560560               0.000000000              -0.287867738              -0.138004504               0.000000000              -0.311437989              -0.150448448               0.000000000              -0.335008240              -0.162892392               0.000000000              -0.358578492              -0.175336336               0.000000000              -0.382148743              -0.187780280               0.000000000              -0.405718994              -0.200224224               0.000000000              -0.429289246              -0.212668168               0.000000000              -0.452859497              -0.225112112               0.000000000              -0.476429749              -0.237556056               0.000000000              -0.500000000              -0.250000000               0.000000000              -0.117295528              -0.062695766               0.000000000              -0.141214558              -0.078308531               0.000000000              -0.165133587              -0.093921295               0.000000000              -0.189052617              -0.109534060               0.000000000              -0.212971646              -0.125146824               0.000000000              -0.236890676              -0.140759589               0.000000000              -0.260809705              -0.156372354               0.000000000              -0.284728735              -0.171985118               0.000000000              -0.308647764              -0.187597883               0.000000000              -0.332566794              -0.203210648               0.000000000              -0.356485823              -0.218823412               0.000000000              -0.380404853              -0.234436177               0.000000000              -0.404323882              -0.250048941               0.000000000              -0.428242912              -0.265661706               0.000000000              -0.452161941              -0.281274471               0.000000000              -0.476080971              -0.296887235               0.000000000              -0.500000000              -0.312500000               0.000000000              -0.110585458              -0.073890841               0.000000000              -0.134923867              -0.092710163               0.000000000              -0.159262276              -0.111529486               0.000000000              -0.183600685              -0.130348808               0.000000000              -0.207939094              -0.149168131               0.000000000              -0.232277503              -0.167987453               0.000000000              -0.256615912              -0.186806776               0.000000000              -0.280954320              -0.205626098               0.000000000              -0.305292729              -0.224445420               0.000000000              -0.329631138              -0.243264743               0.000000000              -0.353969547              -0.262084065               0.000000000              -0.378307956              -0.280903388               0.000000000              -0.402646365              -0.299722710               0.000000000              -0.426984773              -0.318542033               0.000000000              -0.451323182              -0.337361355               0.000000000              -0.475661591              -0.356180678               0.000000000              -0.500000000              -0.375000000               0.000000000              -0.102810390              -0.084374307               0.000000000              -0.127634741              -0.106444663               0.000000000              -0.152459092              -0.128515018               0.000000000              -0.177283442              -0.150585374               0.000000000              -0.202107793              -0.172655730               0.000000000              -0.226932143              -0.194726086               0.000000000              -0.251756494              -0.216796442               0.000000000              -0.276580845              -0.238866798               0.000000000              -0.301405195              -0.260937153               0.000000000              -0.326229546              -0.283007509               0.000000000              -0.351053896              -0.305077865               0.000000000              -0.375878247              -0.327148221               0.000000000              -0.400702598              -0.349218577               0.000000000              -0.425526948              -0.371288933               0.000000000              -0.450351299              -0.393359288               0.000000000              -0.475175649              -0.415429644               0.000000000              -0.500000000              -0.437500000               0.000000000              -0.094045202              -0.094045202               0.000000000              -0.119417377              -0.119417377               0.000000000              -0.144789552              -0.144789552               0.000000000              -0.170161727              -0.170161727               0.000000000              -0.195533901              -0.195533901               0.000000000              -0.220906076              -0.220906076               0.000000000              -0.246278251              -0.246278251               0.000000000              -0.271650426              -0.271650426               0.000000000              -0.297022601              -0.297022601               0.000000000              -0.322394776              -0.322394776               0.000000000              -0.347766951              -0.347766951               0.000000000              -0.373139126              -0.373139126               0.000000000              -0.398511300              -0.398511300               0.000000000              -0.423883475              -0.423883475               0.000000000              -0.449255650              -0.449255650               0.000000000              -0.474627825              -0.474627825               0.000000000              -0.500000000              -0.500000000               0.000000000              -0.084374307              -0.102810390               0.000000000              -0.106444663              -0.127634741               0.000000000              -0.128515018              -0.152459092               0.000000000              -0.150585374              -0.177283442               0.000000000              -0.172655730              -0.202107793               0.000000000              -0.194726086              -0.226932143               0.000000000              -0.216796442              -0.251756494               0.000000000              -0.238866798              -0.276580845               0.000000000              -0.260937153              -0.301405195               0.000000000              -0.283007509              -0.326229546               0.000000000              -0.305077865              -0.351053896               0.000000000              -0.327148221              -0.375878247               0.000000000              -0.349218577              -0.400702598               0.000000000              -0.371288933              -0.425526948               0.000000000              -0.393359288              -0.450351299               0.000000000              -0.415429644              -0.475175649               0.000000000              -0.437500000              -0.500000000               0.000000000              -0.073890841              -0.110585458               0.000000000              -0.092710163              -0.134923867               0.000000000              -0.111529486              -0.159262276               0.000000000              -0.130348808              -0.183600685               0.000000000              -0.149168131              -0.207939094               0.000000000              -0.167987453              -0.232277503               0.000000000              -0.186806776              -0.256615912               0.000000000              -0.205626098              -0.280954320               0.000000000              -0.224445420              -0.305292729               0.000000000              -0.243264743              -0.329631138               0.000000000              -0.262084065              -0.353969547               0.000000000              -0.280903388              -0.378307956               0.000000000              -0.299722710              -0.402646365               0.000000000              -0.318542033              -0.426984773               0.000000000              -0.337361355              -0.451323182               0.000000000              -0.356180678              -0.475661591               0.000000000              -0.375000000              -0.500000000               0.000000000              -0.062695766              -0.117295528               0.000000000              -0.078308531              -0.141214558               0.000000000              -0.093921295              -0.165133587               0.000000000              -0.109534060              -0.189052617               0.000000000              -0.125146824              -0.212971646               0.000000000              -0.140759589              -0.236890676               0.000000000              -0.156372354              -0.260809705               0.000000000              -0.171985118              -0.284728735               0.000000000              -0.187597883              -0.308647764               0.000000000              -0.203210648              -0.332566794               0.000000000              -0.218823412              -0.356485823               0.000000000              -0.234436177              -0.380404853               0.000000000              -0.250048941              -0.404323882               0.000000000              -0.265661706              -0.428242912               0.000000000              -0.281274471              -0.452161941               0.000000000              -0.296887235              -0.476080971               0.000000000              -0.312500000              -0.500000000               0.000000000              -0.050896897              -0.122875978               0.000000000              -0.063340840              -0.146446229               0.000000000              -0.075784784              -0.170016481               0.000000000              -0.088228728              -0.193586732               0.000000000              -0.100672672              -0.217156983               0.000000000              -0.113116616              -0.240727235               0.000000000              -0.125560560              -0.264297486               0.000000000              -0.138004504              -0.287867738               0.000000000              -0.150448448              -0.311437989               0.000000000              -0.162892392              -0.335008240               0.000000000              -0.175336336              -0.358578492               0.000000000              -0.187780280              -0.382148743               0.000000000              -0.200224224              -0.405718994               0.000000000              -0.212668168              -0.429289246               0.000000000              -0.225112112              -0.452859497               0.000000000              -0.237556056              -0.476429749               0.000000000              -0.250000000              -0.500000000               0.000000000              -0.038607862              -0.127273065               0.000000000              -0.047913621              -0.150568498               0.000000000              -0.057219379              -0.173863932               0.000000000              -0.066525138              -0.197159365               0.000000000              -0.075830897              -0.220454798               0.000000000              -0.085136655              -0.243750232               0.000000000              -0.094442414              -0.267045665               0.000000000              -0.103748172              -0.290341099               0.000000000              -0.113053931              -0.313636532               0.000000000              -0.122359690              -0.336931966               0.000000000              -0.131665448              -0.360227399               0.000000000              -0.140971207              -0.383522833               0.000000000              -0.150276966              -0.406818266               0.000000000              -0.159582724              -0.430113700               0.000000000              -0.168888483              -0.453409133               0.000000000              -0.178194241              -0.476704567               0.000000000              -0.187500000              -0.500000000               0.000000000              -0.025947013              -0.130444442               0.000000000              -0.032137825              -0.153541665               0.000000000              -0.038328636              -0.176638887               0.000000000              -0.044519448              -0.199736109               0.000000000              -0.050710260              -0.222833332               0.000000000              -0.056901071              -0.245930554               0.000000000              -0.063091883              -0.269027776               0.000000000              -0.069282695              -0.292124999               0.000000000              -0.075473506              -0.315222221               0.000000000              -0.081664318              -0.338319444               0.000000000              -0.087855130              -0.361416666               0.000000000              -0.094045942              -0.384513888               0.000000000              -0.100236753              -0.407611111               0.000000000              -0.106427565              -0.430708333               0.000000000              -0.112618377              -0.453805555               0.000000000              -0.118809188              -0.476902778               0.000000000              -0.125000000              -0.500000000               0.000000000              -0.013036280              -0.132359569               0.000000000              -0.016127762              -0.155337096               0.000000000              -0.019219245              -0.178314623               0.000000000              -0.022310727              -0.201292150               0.000000000              -0.025402210              -0.224269676               0.000000000              -0.028493692              -0.247247203               0.000000000              -0.031585175              -0.270224730               0.000000000              -0.034676657              -0.293202257               0.000000000              -0.037768140              -0.316179784               0.000000000              -0.040859622              -0.339157311               0.000000000              -0.043951105              -0.362134838               0.000000000              -0.047042587              -0.385112365               0.000000000              -0.050134070              -0.408089892               0.000000000              -0.053225552              -0.431067419               0.000000000              -0.056317035              -0.454044946               0.000000000              -0.059408517              -0.477022473               0.000000000              -0.062500000              -0.500000000               0.000000000               0.000000000              -0.133000000               0.000000000               0.000000000              -0.155937500               0.000000000               0.000000000              -0.178875000               0.000000000               0.000000000              -0.201812500               0.000000000               0.000000000              -0.224750000               0.000000000               0.000000000              -0.247687500               0.000000000               0.000000000              -0.270625000               0.000000000               0.000000000              -0.293562500               0.000000000               0.000000000              -0.316500000               0.000000000               0.000000000              -0.339437500               0.000000000               0.000000000              -0.362375000               0.000000000               0.000000000              -0.385312500               0.000000000               0.000000000              -0.408250000               0.000000000               0.000000000              -0.431187500               0.000000000               0.000000000              -0.454125000               0.000000000               0.000000000              -0.477062500               0.000000000               0.000000000              -0.500000000               0.000000000              -0.133000000               0.000000000               0.000000000              -0.155937500               0.000000000               0.000000000              -0.178875000               0.000000000               0.000000000              -0.201812500               0.000000000               0.000000000              -0.224750000               0.000000000               0.000000000              -0.247687500               0.000000000               0.000000000              -0.270625000               0.000000000               0.000000000              -0.293562500               0.000000000               0.000000000              -0.316500000               0.000000000               0.000000000              -0.339437500               0.000000000               0.000000000              -0.362375000               0.000000000               0.000000000              -0.385312500               0.000000000               0.000000000              -0.408250000               0.000000000               0.000000000              -0.431187500               0.000000000               0.000000000              -0.454125000               0.000000000               0.000000000              -0.477062500               0.000000000               0.000000000              -0.500000000               0.000000000               0.000000000              -0.132359569               0.013036280               0.000000000              -0.155337096               0.016127762               0.000000000              -0.178314623               0.019219245               0.000000000              -0.201292150               0.022310727               0.000000000              -0.224269676               0.025402210               0.000000000              -0.247247203               0.028493692               0.000000000              -0.270224730               0.031585175               0.000000000              -0.293202257               0.034676657               0.000000000              -0.316179784               0.037768140               0.000000000              -0.339157311               0.040859622               0.000000000              -0.362134838               0.043951105               0.000000000              -0.385112365               0.047042587               0.000000000              -0.408089892               0.050134070               0.000000000              -0.431067419               0.053225552               0.000000000              -0.454044946               0.056317035               0.000000000              -0.477022473               0.059408517               0.000000000              -0.500000000               0.062500000               0.000000000              -0.130444442               0.025947013               0.000000000              -0.153541665               0.032137825               0.000000000              -0.176638887               0.038328636               0.000000000              -0.199736109               0.044519448               0.000000000              -0.222833332               0.050710260               0.000000000              -0.245930554               0.056901071               0.000000000              -0.269027776               0.063091883               0.000000000              -0.292124999               0.069282695               0.000000000              -0.315222221               0.075473506               0.000000000              -0.338319444               0.081664318               0.000000000              -0.361416666               0.087855130               0.000000000              -0.384513888               0.094045942               0.000000000              -0.407611111               0.100236753               0.000000000              -0.430708333               0.106427565               0.000000000              -0.453805555               0.112618377               0.000000000              -0.476902778               0.118809188               0.000000000              -0.500000000               0.125000000               0.000000000              -0.127273065               0.038607862               0.000000000              -0.150568498               0.047913621               0.000000000              -0.173863932               0.057219379               0.000000000              -0.197159365               0.066525138               0.000000000              -0.220454798               0.075830897               0.000000000              -0.243750232               0.085136655               0.000000000              -0.267045665               0.094442414               0.000000000              -0.290341099               0.103748172               0.000000000              -0.313636532               0.113053931               0.000000000              -0.336931966               0.122359690               0.000000000              -0.360227399               0.131665448               0.000000000              -0.383522833               0.140971207               0.000000000              -0.406818266               0.150276966               0.000000000              -0.430113700               0.159582724               0.000000000              -0.453409133               0.168888483               0.000000000              -0.476704567               0.178194241               0.000000000              -0.500000000               0.187500000               0.000000000              -0.122875978               0.050896897               0.000000000              -0.146446229               0.063340840               0.000000000              -0.170016481               0.075784784               0.000000000              -0.193586732               0.088228728               0.000000000              -0.217156983               0.100672672               0.000000000              -0.240727235               0.113116616               0.000000000              -0.264297486               0.125560560               0.000000000              -0.287867738               0.138004504               0.000000000              -0.311437989               0.150448448               0.000000000              -0.335008240               0.162892392               0.000000000              -0.358578492               0.175336336               0.000000000              -0.382148743               0.187780280               0.000000000              -0.405718994               0.200224224               0.000000000              -0.429289246               0.212668168               0.000000000              -0.452859497               0.225112112               0.000000000              -0.476429749               0.237556056               0.000000000              -0.500000000               0.250000000               0.000000000              -0.117295528               0.062695766               0.000000000              -0.141214558               0.078308531               0.000000000              -0.165133587               0.093921295               0.000000000              -0.189052617               0.109534060               0.000000000              -0.212971646               0.125146824               0.000000000              -0.236890676               0.140759589               0.000000000              -0.260809705               0.156372354               0.000000000              -0.284728735               0.171985118               0.000000000              -0.308647764               0.187597883               0.000000000              -0.332566794               0.203210648               0.000000000              -0.356485823               0.218823412               0.000000000              -0.380404853               0.234436177               0.000000000              -0.404323882               0.250048941               0.000000000              -0.428242912               0.265661706               0.000000000              -0.452161941               0.281274471               0.000000000              -0.476080971               0.296887235               0.000000000              -0.500000000               0.312500000               0.000000000              -0.110585458               0.073890841               0.000000000              -0.134923867               0.092710163               0.000000000              -0.159262276               0.111529486               0.000000000              -0.183600685               0.130348808               0.000000000              -0.207939094               0.149168131               0.000000000              -0.232277503               0.167987453               0.000000000              -0.256615912               0.186806776               0.000000000              -0.280954320               0.205626098               0.000000000              -0.305292729               0.224445420               0.000000000              -0.329631138               0.243264743               0.000000000              -0.353969547               0.262084065               0.000000000              -0.378307956               0.280903388               0.000000000              -0.402646365               0.299722710               0.000000000              -0.426984773               0.318542033               0.000000000              -0.451323182               0.337361355               0.000000000              -0.475661591               0.356180678               0.000000000              -0.500000000               0.375000000               0.000000000              -0.102810390               0.084374307               0.000000000              -0.127634741               0.106444663               0.000000000              -0.152459092               0.128515018               0.000000000              -0.177283442               0.150585374               0.000000000              -0.202107793               0.172655730               0.000000000              -0.226932143               0.194726086               0.000000000              -0.251756494               0.216796442               0.000000000              -0.276580845               0.238866798               0.000000000              -0.301405195               0.260937153               0.000000000              -0.326229546               0.283007509               0.000000000              -0.351053896               0.305077865               0.000000000              -0.375878247               0.327148221               0.000000000              -0.400702598               0.349218577               0.000000000              -0.425526948               0.371288933               0.000000000              -0.450351299               0.393359288               0.000000000              -0.475175649               0.415429644               0.000000000              -0.500000000               0.437500000               0.000000000              -0.094045202               0.094045202               0.000000000              -0.119417377               0.119417377               0.000000000              -0.144789552               0.144789552               0.000000000              -0.170161727               0.170161727               0.000000000              -0.195533901               0.195533901               0.000000000              -0.220906076               0.220906076               0.000000000              -0.246278251               0.246278251               0.000000000              -0.271650426               0.271650426               0.000000000              -0.297022601               0.297022601               0.000000000              -0.322394776               0.322394776               0.000000000              -0.347766951               0.347766951               0.000000000              -0.373139126               0.373139126               0.000000000              -0.398511300               0.398511300               0.000000000              -0.423883475               0.423883475               0.000000000              -0.449255650               0.449255650               0.000000000              -0.474627825               0.474627825               0.000000000              -0.500000000               0.500000000               0.000000000              -0.084374307               0.102810390               0.000000000              -0.106444663               0.127634741               0.000000000              -0.128515018               0.152459092               0.000000000              -0.150585374               0.177283442               0.000000000              -0.172655730               0.202107793               0.000000000              -0.194726086               0.226932143               0.000000000              -0.216796442               0.251756494               0.000000000              -0.238866798               0.276580845               0.000000000              -0.260937153               0.301405195               0.000000000              -0.283007509               0.326229546               0.000000000              -0.305077865               0.351053896               0.000000000              -0.327148221               0.375878247               0.000000000              -0.349218577               0.400702598               0.000000000              -0.371288933               0.425526948               0.000000000              -0.393359288               0.450351299               0.000000000              -0.415429644               0.475175649               0.000000000              -0.437500000               0.500000000               0.000000000              -0.073890841               0.110585458               0.000000000              -0.092710163               0.134923867               0.000000000              -0.111529486               0.159262276               0.000000000              -0.130348808               0.183600685               0.000000000              -0.149168131               0.207939094               0.000000000              -0.167987453               0.232277503               0.000000000              -0.186806776               0.256615912               0.000000000              -0.205626098               0.280954320               0.000000000              -0.224445420               0.305292729               0.000000000              -0.243264743               0.329631138               0.000000000              -0.262084065               0.353969547               0.000000000              -0.280903388               0.378307956               0.000000000              -0.299722710               0.402646365               0.000000000              -0.318542033               0.426984773               0.000000000              -0.337361355               0.451323182               0.000000000              -0.356180678               0.475661591               0.000000000              -0.375000000               0.500000000               0.000000000              -0.062695766               0.117295528               0.000000000              -0.078308531               0.141214558               0.000000000              -0.093921295               0.165133587               0.000000000              -0.109534060               0.189052617               0.000000000              -0.125146824               0.212971646               0.000000000              -0.140759589               0.236890676               0.000000000              -0.156372354               0.260809705               0.000000000              -0.171985118               0.284728735               0.000000000              -0.187597883               0.308647764               0.000000000              -0.203210648               0.332566794               0.000000000              -0.218823412               0.356485823               0.000000000              -0.234436177               0.380404853               0.000000000              -0.250048941               0.404323882               0.000000000              -0.265661706               0.428242912               0.000000000              -0.281274471               0.452161941               0.000000000              -0.296887235               0.476080971               0.000000000              -0.312500000               0.500000000               0.000000000              -0.050896897               0.122875978               0.000000000              -0.063340840               0.146446229               0.000000000              -0.075784784               0.170016481               0.000000000              -0.088228728               0.193586732               0.000000000              -0.100672672               0.217156983               0.000000000              -0.113116616               0.240727235               0.000000000              -0.125560560               0.264297486               0.000000000              -0.138004504               0.287867738               0.000000000              -0.150448448               0.311437989               0.000000000              -0.162892392               0.335008240               0.000000000              -0.175336336               0.358578492               0.000000000              -0.187780280               0.382148743               0.000000000              -0.200224224               0.405718994               0.000000000              -0.212668168               0.429289246               0.000000000              -0.225112112               0.452859497               0.000000000              -0.237556056               0.476429749               0.000000000              -0.250000000               0.500000000               0.000000000              -0.038607862               0.127273065               0.000000000              -0.047913621               0.150568498               0.000000000              -0.057219379               0.173863932               0.000000000              -0.066525138               0.197159365               0.000000000              -0.075830897               0.220454798               0.000000000              -0.085136655               0.243750232               0.000000000              -0.094442414               0.267045665               0.000000000              -0.103748172               0.290341099               0.000000000              -0.113053931               0.313636532               0.000000000              -0.122359690               0.336931966               0.000000000              -0.131665448               0.360227399               0.000000000              -0.140971207               0.383522833               0.000000000              -0.150276966               0.406818266               0.000000000              -0.159582724               0.430113700               0.000000000              -0.168888483               0.453409133               0.000000000              -0.178194241               0.476704567               0.000000000              -0.187500000               0.500000000               0.000000000              -0.025947013               0.130444442               0.000000000              -0.032137825               0.153541665               0.000000000              -0.038328636               0.176638887               0.000000000              -0.044519448               0.199736109               0.000000000              -0.050710260               0.222833332               0.000000000              -0.056901071               0.245930554               0.000000000              -0.063091883               0.269027776               0.000000000              -0.069282695               0.292124999               0.000000000              -0.075473506               0.315222221               0.000000000              -0.081664318               0.338319444               0.000000000              -0.087855130               0.361416666               0.000000000              -0.094045942               0.384513888               0.000000000              -0.100236753               0.407611111               0.000000000              -0.106427565               0.430708333               0.000000000              -0.112618377               0.453805555               0.000000000              -0.118809188               0.476902778               0.000000000              -0.125000000               0.500000000               0.000000000              -0.013036280               0.132359569               0.000000000              -0.016127762               0.155337096               0.000000000              -0.019219245               0.178314623               0.000000000              -0.022310727               0.201292150               0.000000000              -0.025402210               0.224269676               0.000000000              -0.028493692               0.247247203               0.000000000              -0.031585175               0.270224730               0.000000000              -0.034676657               0.293202257               0.000000000              -0.037768140               0.316179784               0.000000000              -0.040859622               0.339157311               0.000000000              -0.043951105               0.362134838               0.000000000              -0.047042587               0.385112365               0.000000000              -0.050134070               0.408089892               0.000000000              -0.053225552               0.431067419               0.000000000              -0.056317035               0.454044946               0.000000000              -0.059408517               0.477022473               0.000000000              -0.062500000               0.500000000               0.000000000               0.000000000               0.133000000               0.000000000               0.000000000               0.155937500               0.000000000               0.000000000               0.178875000               0.000000000               0.000000000               0.201812500               0.000000000               0.000000000               0.224750000               0.000000000               0.000000000               0.247687500               0.000000000               0.000000000               0.270625000               0.000000000               0.000000000               0.293562500               0.000000000               0.000000000               0.316500000               0.000000000               0.000000000               0.339437500               0.000000000               0.000000000               0.362375000               0.000000000               0.000000000               0.385312500               0.000000000               0.000000000               0.408250000               0.000000000               0.000000000               0.431187500               0.000000000               0.000000000               0.454125000               0.000000000               0.000000000               0.477062500               0.000000000               0.000000000               0.500000000               0.000000000 </DataArray>
</Points>
<Cells>
<DataArray type="Int32"                                    Name="connectivity"                                                      NumberOfComponents=" 1" format="ascii">
         0          1         18         17          1          2         19         18          2          3         20         19          3          4         21         20          4          5         22         21          5          6         23         22          6          7         24         23          7          8         25         24          8          9         26         25          9         10         27         26         10         11         28         27         11         12         29         28         12         13         30         29         13         14         31         30         14         15         32         31         15         16         33         32         17         18         35         34         18         19         36         35         19         20         37         36         20         21         38         37         21         22         39         38         22         23         40         39         23         24         41         40         24         25         42         41         25         26         43         42         26         27         44         43         27         28         45         44         28         29         46         45         29         30         47         46         30         31         48         47         31         32         49         48         32         33         50         49         34         35         52         51         35         36         53         52         36         37         54         53         37         38         55         54         38         39         56         55         39         40         57         56         40         41         58         57         41         42         59         58         42         43         60         59         43         44         61         60         44         45         62         61         45         46         63         62         46         47         64         63         47         48         65         64         48         49         66         65         49         50         67         66         51         52         69         68         52         53         70         69         53         54         71         70         54         55         72         71         55         56         73         72         56         57         74         73         57         58         75         74         58         59         76         75         59         60         77         76         60         61         78         77         61         62         79         78         62         63         80         79         63         64         81         80         64         65         82         81         65         66         83         82         66         67         84         83         68         69         86         85         69         70         87         86         70         71         88         87         71         72         89         88         72         73         90         89         73         74         91         90         74         75         92         91         75         76         93         92         76         77         94         93         77         78         95         94         78         79         96         95         79         80         97         96         80         81         98         97         81         82         99         98         82         83        100         99         83         84        101        100         85         86        103        102         86         87        104        103         87         88        105        104         88         89        106        105         89         90        107        106         90         91        108        107         91         92        109        108         92         93        110        109         93         94        111        110         94         95        112        111         95         96        113        112         96         97        114        113         97         98        115        114         98         99        116        115         99        100        117        116        100        101        118        117        102        103        120        119        103        104        121        120        104        105        122        121        105        106        123        122        106        107        124        123        107        108        125        124        108        109        126        125        109        110        127        126        110        111        128        127        111        112        129        128        112        113        130        129        113        114        131        130        114        115        132        131        115        116        133        132        116        117        134        133        117        118        135        134        119        120        137        136        120        121        138        137        121        122        139        138        122        123        140        139        123        124        141        140        124        125        142        141        125        126        143        142        126        127        144        143        127        128        145        144        128        129        146        145        129        130        147        146        130        131        148        147        131        132        149        148        132        133        150        149        133        134        151        150        134        135        152        151        136        137        154        153        137        138        155        154        138        139        156        155        139        140        157        156        140        141        158        157        141        142        159        158        142        143        160        159        143        144        161        160        144        145        162        161        145        146        163        162        146        147        164        163        147        148        165        164        148        149        166        165        149        150        167        166        150        151        168        167        151        152        169        168        153        154        171        170        154        155        172        171        155        156        173        172        156        157        174        173        157        158        175        174        158        159        176        175        159        160        177        176        160        161        178        177        161        162        179        178        162        163        180        179        163        164        181        180        164        165        182        181        165        166        183        182        166        167        184        183        167        168        185        184        168        169        186        185        170        171        188        187        171        172        189        188        172        173        190        189        173        174        191        190        174        175        192        191        175        176        193        192        176        177        194        193        177        178        195        194        178        179        196        195        179        180        197        196        180        181        198        197        181        182        199        198        182        183        200        199        183        184        201        200        184        185        202        201        185        186        203        202        187        188        205        204        188        189        206        205        189        190        207        206        190        191        208        207        191        192        209        208        192        193        210        209        193        194        211        210        194        195        212        211        195        196        213        212        196        197        214        213        197        198        215        214        198        199        216        215        199        200        217        216        200        201        218        217        201        202        219        218        202        203        220        219        204        205        222        221        205        206        223        222        206        207        224        223        207        208        225        224        208        209        226        225        209        210        227        226        210        211        228        227        211        212        229        228        212        213        230        229        213        214        231        230        214        215        232        231        215        216        233        232        216        217        234        233        217        218        235        234        218        219        236        235        219        220        237        236        221        222        239        238        222        223        240        239        223        224        241        240        224        225        242        241        225        226        243        242        226        227        244        243        227        228        245        244        228        229        246        245        229        230        247        246        230        231        248        247        231        232        249        248        232        233        250        249        233        234        251        250        234        235        252        251        235        236        253        252        236        237        254        253        238        239        256        255        239        240        257        256        240        241        258        257        241        242        259        258        242        243        260        259        243        244        261        260        244        245        262        261        245        246        263        262        246        247        264        263        247        248        265        264        248        249        266        265        249        250        267        266        250        251        268        267        251        252        269        268        252        253        270        269        253        254        271        270        255        256        273        272        256        257        274        273        257        258        275        274        258        259        276        275        259        260        277        276        260        261        278        277        261        262        279        278        262        263        280        279        263        264        281        280        264        265        282        281        265        266        283        282        266        267        284        283        267        268        285        284        268        269        286        285        269        270        287        286        270        271        288        287        306        307          1          0        307        308          2          1        308        309          3          2        309        310          4          3        310        311          5          4        311        312          6          5        312        313          7          6        313        314          8          7        314        315          9          8        315        316         10          9        316        317         11         10        317        318         12         11        318        319         13         12        319        320         14         13        320        321         15         14        321        322         16         15        323        324        307        306        324        325        308        307        325        326        309        308        326        327        310        309        327        328        311        310        328        329        312        311        329        330        313        312        330        331        314        313        331        332        315        314        332        333        316        315        333        334        317        316        334        335        318        317        335        336        319        318        336        337        320        319        337        338        321        320        338        339        322        321        340        341        324        323        341        342        325        324        342        343        326        325        343        344        327        326        344        345        328        327        345        346        329        328        346        347        330        329        347        348        331        330        348        349        332        331        349        350        333        332        350        351        334        333        351        352        335        334        352        353        336        335        353        354        337        336        354        355        338        337        355        356        339        338        357        358        341        340        358        359        342        341        359        360        343        342        360        361        344        343        361        362        345        344        362        363        346        345        363        364        347        346        364        365        348        347        365        366        349        348        366        367        350        349        367        368        351        350        368        369        352        351        369        370        353        352        370        371        354        353        371        372        355        354        372        373        356        355        374        375        358        357        375        376        359        358        376        377        360        359        377        378        361        360        378        379        362        361        379        380        363        362        380        381        364        363        381        382        365        364        382        383        366        365        383        384        367        366        384        385        368        367        385        386        369        368        386        387        370        369        387        388        371        370        388        389        372        371        389        390        373        372        391        392        375        374        392        393        376        375        393        394        377        376        394        395        378        377        395        396        379        378        396        397        380        379        397        398        381        380        398        399        382        381        399        400        383        382        400        401        384        383        401        402        385        384        402        403        386        385        403        404        387        386        404        405        388        387        405        406        389        388        406        407        390        389        408        409        392        391        409        410        393        392        410        411        394        393        411        412        395        394        412        413        396        395        413        414        397        396        414        415        398        397        415        416        399        398        416        417        400        399        417        418        401        400        418        419        402        401        419        420        403        402        420        421        404        403        421        422        405        404        422        423        406        405        423        424        407        406        425        426        409        408        426        427        410        409        427        428        411        410        428        429        412        411        429        430        413        412        430        431        414        413        431        432        415        414        432        433        416        415        433        434        417        416        434        435        418        417        435        436        419        418        436        437        420        419        437        438        421        420        438        439        422        421        439        440        423        422        440        441        424        423        442        443        426        425        443        444        427        426        444        445        428        427        445        446        429        428        446        447        430        429        447        448        431        430        448        449        432        431        449        450        433        432        450        451        434        433        451        452        435        434        452        453        436        435        453        454        437        436        454        455        438        437        455        456        439        438        456        457        440        439        457        458        441        440        459        460        443        442        460        461        444        443        461        462        445        444        462        463        446        445        463        464        447        446        464        465        448        447        465        466        449        448        466        467        450        449        467        468        451        450        468        469        452        451        469        470        453        452        470        471        454        453        471        472        455        454        472        473        456        455        473        474        457        456        474        475        458        457        476        477        460        459        477        478        461        460        478        479        462        461        479        480        463        462        480        481        464        463        481        482        465        464        482        483        466        465        483        484        467        466        484        485        468        467        485        486        469        468        486        487        470        469        487        488        471        470        488        489        472        471        489        490        473        472        490        491        474        473        491        492        475        474        493        494        477        476        494        495        478        477        495        496        479        478        496        497        480        479        497        498        481        480        498        499        482        481        499        500        483        482        500        501        484        483        501        502        485        484        502        503        486        485        503        504        487        486        504        505        488        487        505        506        489        488        506        507        490        489        507        508        491        490        508        509        492        491        510        511        494        493        511        512        495        494        512        513        496        495        513        514        497        496        514        515        498        497        515        516        499        498        516        517        500        499        517        518        501        500        518        519        502        501        519        520        503        502        520        521        504        503        521        522        505        504        522        523        506        505        523        524        507        506        524        525        508        507        525        526        509        508        527        528        511        510        528        529        512        511        529        530        513        512        530        531        514        513        531        532        515        514        532        533        516        515        533        534        517        516        534        535        518        517        535        536        519        518        536        537        520        519        537        538        521        520        538        539        522        521        539        540        523        522        540        541        524        523        541        542        525        524        542        543        526        525        544        545        528        527        545        546        529        528        546        547        530        529        547        548        531        530        548        549        532        531        549        550        533        532        550        551        534        533        551        552        535        534        552        553        536        535        553        554        537        536        554        555        538        537        555        556        539        538        556        557        540        539        557        558        541        540        558        559        542        541        559        560        543        542        561        562        545        544        562        563        546        545        563        564        547        546        564        565        548        547        565        566        549        548        566        567        550        549        567        568        551        550        568        569        552        551        569        570        553        552        570        571        554        553        571        572        555        554        572        573        556        555        573        574        557        556        574        575        558        557        575        576        559        558        576        577        560        559        578        579        596        595        579        580        597        596        580        581        598        597        581        582        599        598        582        583        600        599        583        584        601        600        584        585        602        601        585        586        603        602        586        587        604        603        587        588        605        604        588        589        606        605        589        590        607        606        590        591        608        607        591        592        609        608        592        593        610        609        593        594        611        610        595        596        613        612        596        597        614        613        597        598        615        614        598        599        616        615        599        600        617        616        600        601        618        617        601        602        619        618        602        603        620        619        603        604        621        620        604        605        622        621        605        606        623        622        606        607        624        623        607        608        625        624        608        609        626        625        609        610        627        626        610        611        628        627        612        613        630        629        613        614        631        630        614        615        632        631        615        616        633        632        616        617        634        633        617        618        635        634        618        619        636        635        619        620        637        636        620        621        638        637        621        622        639        638        622        623        640        639        623        624        641        640        624        625        642        641        625        626        643        642        626        627        644        643        627        628        645        644        629        630        647        646        630        631        648        647        631        632        649        648        632        633        650        649        633        634        651        650        634        635        652        651        635        636        653        652        636        637        654        653        637        638        655        654        638        639        656        655        639        640        657        656        640        641        658        657        641        642        659        658        642        643        660        659        643        644        661        660        644        645        662        661        646        647        664        663        647        648        665        664        648        649        666        665        649        650        667        666        650        651        668        667        651        652        669        668        652        653        670        669        653        654        671        670        654        655        672        671        655        656        673        672        656        657        674        673        657        658        675        674        658        659        676        675        659        660        677        676        660        661        678        677        661        662        679        678        663        664        681        680        664        665        682        681        665        666        683        682        666        667        684        683        667        668        685        684        668        669        686        685        669        670        687        686        670        671        688        687        671        672        689        688        672        673        690        689        673        674        691        690        674        675        692        691        675        676        693        692        676        677        694        693        677        678        695        694        678        679        696        695        680        681        698        697        681        682        699        698        682        683        700        699        683        684        701        700        684        685        702        701        685        686        703        702        686        687        704        703        687        688        705        704        688        689        706        705        689        690        707        706        690        691        708        707        691        692        709        708        692        693        710        709        693        694        711        710        694        695        712        711        695        696        713        712        697        698        715        714        698        699        716        715        699        700        717        716        700        701        718        717        701        702        719        718        702        703        720        719        703        704        721        720        704        705        722        721        705        706        723        722        706        707        724        723        707        708        725        724        708        709        726        725        709        710        727        726        710        711        728        727        711        712        729        728        712        713        730        729        714        715        732        731        715        716        733        732        716        717        734        733        717        718        735        734        718        719        736        735        719        720        737        736        720        721        738        737        721        722        739        738        722        723        740        739        723        724        741        740        724        725        742        741        725        726        743        742        726        727        744        743        727        728        745        744        728        729        746        745        729        730        747        746        731        732        749        748        732        733        750        749        733        734        751        750        734        735        752        751        735        736        753        752        736        737        754        753        737        738        755        754        738        739        756        755        739        740        757        756        740        741        758        757        741        742        759        758        742        743        760        759        743        744        761        760        744        745        762        761        745        746        763        762        746        747        764        763        748        749        766        765        749        750        767        766        750        751        768        767        751        752        769        768        752        753        770        769        753        754        771        770        754        755        772        771        755        756        773        772        756        757        774        773        757        758        775        774        758        759        776        775        759        760        777        776        760        761        778        777        761        762        779        778        762        763        780        779        763        764        781        780        765        766        783        782        766        767        784        783        767        768        785        784        768        769        786        785        769        770        787        786        770        771        788        787        771        772        789        788        772        773        790        789        773        774        791        790        774        775        792        791        775        776        793        792        776        777        794        793        777        778        795        794        778        779        796        795        779        780        797        796        780        781        798        797        782        783        800        799        783        784        801        800        784        785        802        801        785        786        803        802        786        787        804        803        787        788        805        804        788        789        806        805        789        790        807        806        790        791        808        807        791        792        809        808        792        793        810        809        793        794        811        810        794        795        812        811        795        796        813        812        796        797        814        813        797        798        815        814        799        800        817        816        800        801        818        817        801        802        819        818        802        803        820        819        803        804        821        820        804        805        822        821        805        806        823        822        806        807        824        823        807        808        825        824        808        809        826        825        809        810        827        826        810        811        828        827        811        812        829        828        812        813        830        829        813        814        831        830        814        815        832        831        816        817        834        833        817        818        835        834        818        819        836        835        819        820        837        836        820        821        838        837        821        822        839        838        822        823        840        839        823        824        841        840        824        825        842        841        825        826        843        842        826        827        844        843        827        828        845        844        828        829        846        845        829        830        847        846        830        831        848        847        831        832        849        848        833        834        562        561        834        835        563        562        835        836        564        563        836        837        565        564        837        838        566        565        838        839        567        566        839        840        568        567        840        841        569        568        841        842        570        569        842        843        571        570        843        844        572        571        844        845        573        572        845        846        574        573        846        847        575        574        847        848        576        575        848        849        577        576        884        885        579        578        885        886        580        579        886        887        581        580        887        888        582        581        888        889        583        582        889        890        584        583        890        891        585        584        891        892        586        585        892        893        587        586        893        894        588        587        894        895        589        588        895        896        590        589        896        897        591        590        897        898        592        591        898        899        593        592        899        900        594        593        901        902        885        884        902        903        886        885        903        904        887        886        904        905        888        887        905        906        889        888        906        907        890        889        907        908        891        890        908        909        892        891        909        910        893        892        910        911        894        893        911        912        895        894        912        913        896        895        913        914        897        896        914        915        898        897        915        916        899        898        916        917        900        899        918        919        902        901        919        920        903        902        920        921        904        903        921        922        905        904        922        923        906        905        923        924        907        906        924        925        908        907        925        926        909        908        926        927        910        909        927        928        911        910        928        929        912        911        929        930        913        912        930        931        914        913        931        932        915        914        932        933        916        915        933        934        917        916        935        936        919        918        936        937        920        919        937        938        921        920        938        939        922        921        939        940        923        922        940        941        924        923        941        942        925        924        942        943        926        925        943        944        927        926        944        945        928        927        945        946        929        928        946        947        930        929        947        948        931        930        948        949        932        931        949        950        933        932        950        951        934        933        952        953        936        935        953        954        937        936        954        955        938        937        955        956        939        938        956        957        940        939        957        958        941        940        958        959        942        941        959        960        943        942        960        961        944        943        961        962        945        944        962        963        946        945        963        964        947        946        964        965        948        947        965        966        949        948        966        967        950        949        967        968        951        950        969        970        953        952        970        971        954        953        971        972        955        954        972        973        956        955        973        974        957        956        974        975        958        957        975        976        959        958        976        977        960        959        977        978        961        960        978        979        962        961        979        980        963        962        980        981        964        963        981        982        965        964        982        983        966        965        983        984        967        966        984        985        968        967        986        987        970        969        987        988        971        970        988        989        972        971        989        990        973        972        990        991        974        973        991        992        975        974        992        993        976        975        993        994        977        976        994        995        978        977        995        996        979        978        996        997        980        979        997        998        981        980        998        999        982        981        999       1000        983        982       1000       1001        984        983       1001       1002        985        984       1003       1004        987        986       1004       1005        988        987       1005       1006        989        988       1006       1007        990        989       1007       1008        991        990       1008       1009        992        991       1009       1010        993        992       1010       1011        994        993       1011       1012        995        994       1012       1013        996        995       1013       1014        997        996       1014       1015        998        997       1015       1016        999        998       1016       1017       1000        999       1017       1018       1001       1000       1018       1019       1002       1001       1020       1021       1004       1003       1021       1022       1005       1004       1022       1023       1006       1005       1023       1024       1007       1006       1024       1025       1008       1007       1025       1026       1009       1008       1026       1027       1010       1009       1027       1028       1011       1010       1028       1029       1012       1011       1029       1030       1013       1012       1030       1031       1014       1013       1031       1032       1015       1014       1032       1033       1016       1015       1033       1034       1017       1016       1034       1035       1018       1017       1035       1036       1019       1018       1037       1038       1021       1020       1038       1039       1022       1021       1039       1040       1023       1022       1040       1041       1024       1023       1041       1042       1025       1024       1042       1043       1026       1025       1043       1044       1027       1026       1044       1045       1028       1027       1045       1046       1029       1028       1046       1047       1030       1029       1047       1048       1031       1030       1048       1049       1032       1031       1049       1050       1033       1032       1050       1051       1034       1033       1051       1052       1035       1034       1052       1053       1036       1035       1054       1055       1038       1037       1055       1056       1039       1038       1056       1057       1040       1039       1057       1058       1041       1040       1058       1059       1042       1041       1059       1060       1043       1042       1060       1061       1044       1043       1061       1062       1045       1044       1062       1063       1046       1045       1063       1064       1047       1046       1064       1065       1048       1047       1065       1066       1049       1048       1066       1067       1050       1049       1067       1068       1051       1050       1068       1069       1052       1051       1069       1070       1053       1052       1071       1072       1055       1054       1072       1073       1056       1055       1073       1074       1057       1056       1074       1075       1058       1057       1075       1076       1059       1058       1076       1077       1060       1059       1077       1078       1061       1060       1078       1079       1062       1061       1079       1080       1063       1062       1080       1081       1064       1063       1081       1082       1065       1064       1082       1083       1066       1065       1083       1084       1067       1066       1084       1085       1068       1067       1085       1086       1069       1068       1086       1087       1070       1069       1088       1089       1072       1071       1089       1090       1073       1072       1090       1091       1074       1073       1091       1092       1075       1074       1092       1093       1076       1075       1093       1094       1077       1076       1094       1095       1078       1077       1095       1096       1079       1078       1096       1097       1080       1079       1097       1098       1081       1080       1098       1099       1082       1081       1099       1100       1083       1082       1100       1101       1084       1083       1101       1102       1085       1084       1102       1103       1086       1085       1103       1104       1087       1086       1105       1106       1089       1088       1106       1107       1090       1089       1107       1108       1091       1090       1108       1109       1092       1091       1109       1110       1093       1092       1110       1111       1094       1093       1111       1112       1095       1094       1112       1113       1096       1095       1113       1114       1097       1096       1114       1115       1098       1097       1115       1116       1099       1098       1116       1117       1100       1099       1117       1118       1101       1100       1118       1119       1102       1101       1119       1120       1103       1102       1120       1121       1104       1103       1122       1123       1106       1105       1123       1124       1107       1106       1124       1125       1108       1107       1125       1126       1109       1108       1126       1127       1110       1109       1127       1128       1111       1110       1128       1129       1112       1111       1129       1130       1113       1112       1130       1131       1114       1113       1131       1132       1115       1114       1132       1133       1116       1115       1133       1134       1117       1116       1134       1135       1118       1117       1135       1136       1119       1118       1136       1137       1120       1119       1137       1138       1121       1120        272        273       1123       1122        273        274       1124       1123        274        275       1125       1124        275        276       1126       1125        276        277       1127       1126        277        278       1128       1127        278        279       1129       1128        279        280       1130       1129        280        281       1131       1130        281        282       1132       1131        282        283       1133       1132        283        284       1134       1133        284        285       1135       1134        285        286       1136       1135        286        287       1137       1136        287        288       1138       1137 </DataArray>
<DataArray type="Int32"                                    Name="offsets"                                                      NumberOfComponents=" 1" format="ascii">
         4          8         12         16         20         24         28         32         36         40         44         48         52         56         60         64         68         72         76         80         84         88         92         96        100        104        108        112        116        120        124        128        132        136        140        144        148        152        156        160        164        168        172        176        180        184        188        192        196        200        204        208        212        216        220        224        228        232        236        240        244        248        252        256        260        264        268        272        276        280        284        288        292        296        300        304        308        312        316        320        324        328        332        336        340        344        348        352        356        360        364        368        372        376        380        384        388        392        396        400        404        408        412        416        420        424        428        432        436        440        444        448        452        456        460        464        468        472        476        480        484        488        492        496        500        504        508        512        516        520        524        528        532        536        540        544        548        552        556        560        564        568        572        576        580        584        588        592        596        600        604        608        612        616        620        624        628        632        636        640        644        648        652        656        660        664        668        672        676        680        684        688        692        696        700        704        708        712        716        720        724        728        732        736        740        744        748        752        756        760        764        768        772        776        780        784        788        792        796        800        804        808        812        816        820        824        828        832        836        840        844        848        852        856        860        864        868        872        876        880        884        888        892        896        900        904        908        912        916        920        924        928        932        936        940        944        948        952        956        960        964        968        972        976        980        984        988        992        996       1000       1004       1008       1012       1016       1020       1024       1028       1032       1036       1040       1044       1048       1052       1056       1060       1064       1068       1072       1076       1080       1084       1088       1092       1096       1100       1104       1108       1112       1116       1120       1124       1128       1132       1136       1140       1144       1148       1152       1156       1160       1164       1168       1172       1176       1180       1184       1188       1192       1196       1200       1204       1208       1212       1216       1220       1224       1228       1232       1236       1240       1244       1248       1252       1256       1260       1264       1268       1272       1276       1280       1284       1288       1292       1296       1300       1304       1308       1312       1316       1320       1324       1328       1332       1336       1340       1344       1348       1352       1356       1360       1364       1368       1372       1376       1380       1384       1388       1392       1396       1400       1404       1408       1412       1416       1420       1424       1428       1432       1436       1440       1444       1448       1452       1456       1460       1464       1468       1472       1476       1480       1484       1488       1492       1496       1500       1504       1508       1512       1516       1520       1524       1528       1532       1536       1540       1544       1548       1552       1556       1560       1564       1568       1572       1576       1580       1584       1588       1592       1596       1600       1604       1608       1612       1616       1620       1624       1628       1632       1636       1640       1644       1648       1652       1656       1660       1664       1668       1672       1676       1680       1684       1688       1692       1696       1700       1704       1708       1712       1716       1720       1724       1728       1732       1736       1740       1744       1748       1752       1756       1760       1764       1768       1772       1776       1780       1784       1788       1792       1796       1800       1804       1808       1812       1816       1820       1824       1828       1832       1836       1840       1844       1848       1852       1856       1860       1864       1868       1872       1876       1880       1884       1888       1892       1896       1900       1904       1908       1912       1916       1920       1924       1928       1932       1936       1940       1944       1948       1952       1956       1960       1964       1968       1972       1976       1980       1984       1988       1992       1996       2000       2004       2008       2012       2016       2020       2024       2028       2032       2036       2040       2044       2048       2052       2056       2060       2064       2068       2072       2076       2080       2084       2088       2092       2096       2100       2104       2108       2112       2116       2120       2124       2128       2132       2136       2140       2144       2148       2152       2156       2160       2164       2168       2172       2176       2180       2184       2188       2192       2196       2200       2204       2208       2212       2216       2220       2224       2228       2232       2236       2240       2244       2248       2252       2256       2260       2264       2268       2272       2276       2280       2284       2288       2292       2296       2300       2304       2308       2312       2316       2320       2324       2328       2332       2336       2340       2344       2348       2352       2356       2360       2364       2368       2372       2376       2380       2384       2388       2392       2396       2400       2404       2408       2412       2416       2420       2424       2428       2432       2436       2440       2444       2448       2452       2456       2460       2464       2468       2472       2476       2480       2484       2488       2492       2496       2500       2504       2508       2512       2516       2520       2524       2528       2532       2536       2540       2544       2548       2552       2556       2560       2564       2568       2572       2576       2580       2584       2588       2592       2596       2600       2604       2608       2612       2616       2620       2624       2628       2632       2636       2640       2644       2648       2652       2656       2660       2664       2668       2672       2676       2680       2684       2688       2692       2696       2700       2704       2708       2712       2716       2720       2724       2728       2732       2736       2740       2744       2748       2752       2756       2760       2764       2768       2772       2776       2780       2784       2788       2792       2796       2800       2804       2808       2812       2816       2820       2824       2828       2832       2836       2840       2844       2848       2852       2856       2860       2864       2868       2872       2876       2880       2884       2888       2892       2896       2900       2904       2908       2912       2916       2920       2924       2928       2932       2936       2940       2944       2948       2952       2956       2960       2964       2968       2972       2976       2980       2984       2988       2992       2996       3000       3004       3008       3012       3016       3020       3024       3028       3032       3036       3040       3044       3048       3052       3056       3060       3064       3068       3072       3076       3080       3084       3088       3092       3096       3100       3104       3108       3112       3116       3120       3124       3128       3132       3136       3140       3144       3148       3152       3156       3160       3164       3168       3172       3176       3180       3184       3188       3192       3196       3200       3204       3208       3212       3216       3220       3224       3228       3232       3236       3240       3244       3248       3252       3256       3260       3264       3268       3272       3276       3280       3284       3288       3292       3296       3300       3304       3308       3312       3316       3320       3324       3328       3332       3336       3340       3344       3348       3352       3356       3360       3364       3368       3372       3376       3380       3384       3388       3392       3396       3400       3404       3408       3412       3416       3420       3424       3428       3432       3436       3440       3444       3448       3452       3456       3460       3464       3468       3472       3476       3480       3484       3488       3492       3496       3500       3504       3508       3512       3516       3520       3524       3528       3532       3536       3540       3544       3548       3552       3556       3560       3564       3568       3572       3576       3580       3584       3588       3592       3596       3600       3604       3608       3612       3616       3620       3624       3628       3632       3636       3640       3644       3648       3652       3656       3660       3664       3668       3672       3676       3680       3684       3688       3692       3696       3700       3704       3708       3712       3716       3720       3724       3728       3732       3736       3740       3744       3748       3752       3756       3760       3764       3768       3772       3776       3780       3784       3788       3792       3796       3800       3804       3808       3812       3816       3820       3824       3828       3832       3836       3840       3844       3848       3852       3856       3860       3864       3868       3872       3876       3880       3884       3888       3892       3896       3900       3904       3908       3912       3916       3920       3924       3928       3932       3936       3940       3944       3948       3952       3956       3960       3964       3968       3972       3976       3980       3984       3988       3992       3996       4000       4004       4008       4012       4016       4020       4024       4028       4032       4036       4040       4044       4048       4052       4056       4060       4064       4068       4072       4076       4080       4084       4088       4092       4096 </DataArray>
<DataArray type="UInt8"                                    Name="types"                                                      NumberOfComponents=" 1" format="ascii">
         9          9          9          9          9          9          9          9          9          9          9          9          9          9          9          9          9          9          9          9          9          9          9          9          9          9          9          9          9          9          9          9          9          9          9          9          9          9          9          9          9          9          9          9          9          9          9          9          9          9          9          9          9          9          9          9          9          9          9          9          9          9          9          9          9          9          9          9          9          9          9          9          9          9          9          9          9          9          9          9          9          9          9          9          9          9          9          9          9          9          9          9          9          9          9          9          9          9          9          9          9          9          9          9          9          9          9          9          9          9          9          9          9          9          9          9          9          9          9          9          9          9          9          9          9          9          9          9          9          9          9          9          9          9          9          9          9          9          9          9          9          9          9          9          9          9          9          9          9          9          9          9          9          9          9          9          9          9          9          9          9          9          9          9          9          9          9          9          9          9          9          9          9          9          9          9          9          9          9          9          9          9          9          9          9          9          9          9          9          9          9          9          9          9          9          9          9          9          9          9          9          9          9          9          9          9          9          9          9          9          9          9          9          9          9          9          9          9          9          9          9          9          9          9          9          9          9          9          9          9          9          9          9          9          9          9          9          9          9          9          9          9          9          9          9          9          9          9          9          9          9          9          9          9          9          9          9          9          9          9          9          9          9          9          9          9          9          9          9          9          9          9          9          9          9          9          9          9          9          9          9          9          9          9          9          9          9          9          9          9          9          9          9          9          9          9          9          9          9          9          9          9          9          9          9          9          9          9          9          9          9          9          9          9          9          9          9          9          9          9          9          9          9          9          9          9          9          9          9          9          9          9          9          9          9          9          9          9          9          9          9          9          9          9          9          9          9          9          9          9          9          9          9          9          9          9          9          9          9          9          9          9          9          9          9          9          9          9          9          9          9          9          9          9          9          9          9          9          9          9          9          9          9          9          9          9          9          9          9          9          9          9          9          9          9          9          9          9          9          9          9          9          9          9          9          9          9          9          9          9          9          9          9          9          9          9          9          9          9          9          9          9          9          9          9          9          9          9          9          9          9          9          9          9          9          9          9          9          9          9          9          9          9          9          9          9          9          9          9          9          9          9          9          9          9          9          9          9          9          9          9          9          9          9          9          9          9          9          9          9          9          9          9          9          9          9          9          9          9          9          9          9          9          9          9          9          9          9          9          9          9          9          9          9          9          9          9          9          9          9          9          9          9          9          9          9          9          9          9          9          9          9          9          9          9          9          9          9          9          9          9          9          9          9          9          9          9          9          9          9          9          9          9          9          9          9          9          9          9          9          9          9          9          9          9          9          9          9          9          9          9          9          9          9          9          9          9          9          9          9          9          9          9          9          9          9          9          9          9          9          9          9          9          9          9          9          9          9          9          9          9          9          9          9          9          9          9          9          9          9          9          9          9          9          9          9          9          9          9          9          9          9          9          9          9          9          9          9          9          9          9          9          9          9          9          9          9          9          9          9          9          9          9          9          9          9          9          9          9          9          9          9          9          9          9          9          9          9          9          9          9          9          9          9          9          9          9          9          9          9          9          9          9          9          9          9          9          9          9          9          9          9          9          9          9          9          9          9          9          9          9          9          9          9          9          9          9          9          9          9          9          9          9          9          9          9          9          9          9          9          9          9          9          9          9          9          9          9          9          9          9          9          9          9          9          9          9          9          9          9          9          9          9          9          9          9          9          9          9          9          9          9          9          9          9          9          9          9          9          9          9          9          9          9          9          9          9          9          9          9          9          9          9          9          9          9          9          9          9          9          9          9          9          9          9          9          9          9          9          9          9          9          9          9          9          9          9          9          9          9          9          9          9          9          9          9          9          9          9          9          9          9          9          9          9          9          9          9          9          9          9          9          9          9          9          9          9          9          9          9          9          9          9          9          9          9          9          9          9          9          9          9          9          9          9          9          9          9          9          9          9          9          9          9          9          9          9          9          9          9          9          9          9          9          9          9          9          9          9          9          9          9          9          9          9          9          9          9          9          9          9          9          9          9          9          9          9          9          9          9          9          9          9          9          9          9          9          9          9          9          9          9          9          9          9          9          9          9          9          9          9          9          9          9          9          9          9          9          9          9          9          9          9          9          9          9          9          9          9          9          9          9          9          9          9          9          9          9          9          9          9          9          9          9          9          9          9          9          9          9          9          9          9          9          9          9          9          9          9          9          9          9          9          9          9          9          9          9          9          9          9          9          9          9          9          9          9          9          9          9          9          9          9          9          9          9          9          9          9          9          9          9          9          9          9          9          9          9          9          9          9          9          9          9          9          9          9          9          9          9          9          9          9          9          9          9          9          9          9          9          9          9          9          9          9          9          9          9          9          9          9          9          9          9          9          9          9          9          9          9          9          9          9          9          9          9          9          9          9          9          9          9          9          9 </DataArray>
</Cells>
<CellData>
<DataArray type="Int32"                                    Name="material"                                                      NumberOfComponents=" 1" format="ascii">
         1          1          1          1          1          1          1          1          1          1          1          1          1          1          1          1          1          1          1          1          1          1          1          1          1          1          1          1          1          1          1          1          1          1          1          1          1          1          1          1          1          1          1          1          1          1          1          1          1          1          1          1          1          1          1          1          1          1          1          1          1          1          1          1          1          1          1          1          1          1          1          1          1          1          1          1          1          1          1          1          1          1          1          1          1          1          1          1          1          1          1          1          1          1          1          1          1          1          1          1          1          1          1          1          1          1          1          1          1          1          1          1          1          1          1          1          1          1          1          1          1          1          1          1          1          1          1          1          1          1          1          1          1          1          1          1          1          1          1          1          1          1          1          1          1          1          1          1          1          1          1          1          1          1          1          1          1          1          1          1          1          1          1          1          1          1          1          1          1          1          1          1          1          1          1          1          1          1          1          1          1          1          1          1          1          1          1          1          1          1          1          1          1          1          1          1          1          1          1          1          1          1          1          1          1          1          1          1          1          1          1          1          1          1          1          1          1          1          1          1          1          1          1          1          1          1          1          1          1          1          1          1          1          1          1          1          1          1          1          1          1          1          1          1          1          1          1          1          1          1          1          1          1          1          1          1          1          1          1          1          1          1          1          1          1          1          1          1          1          1          1          1          1          1          1          1          1          1          1          1          1          1          1          1          1          1          1          1          1          1          1          1          1          1          1          1          1          1          1          1          1          1          1          1          1          1          1          1          1          1          1          1          1          1          1          1          1          1          1          1          1          1          1          1          1          1          1          1          1          1          1          1          1          1          1          1          1          1          1          1          1          1          1          1          1          1          1          1          1          1          1          1          1          1          1          1          1          1          1          1          1          1          1          1          1          1          1          1          1          1          1          1          1          1          1          1          1          1          1          1          1          1          1          1          1          1          1          1          1          1          1          1          1          1          1          1          1          1          1          1          1          1          1          1          1          1          1          1          1          1          1          1          1          1          1          1          1          1          1          1          1          1          1          1          1          1          1          1          1          1          1          1          1          1          1          1          1          1          1          1          1          1          1          1          1          1          1          1          1          1          1          1          1          1          1          1          1          1          1          1          1          1          1          1          1          1          1          1          1          1          1          1          1          1          1          1          1          1          1          1          1          1          1          1          1          1          1          1          1          1          1          1          1          1          1          1          1          1          1          1          1          1          1          1          1          1          1          1          1          1          1          1          1          1          1          1          1          1          1          1          1          1          1          1          1          1          1          1          1          1          1          1          1          1          1          1          1          1          1          1          1          1          1          1          1          1          1          1          1          1          1          1          1          1          1          1          1          1          1          1          1          1          1          1          1          1          1          1          1          1          1          1          1          1          1          1          1          1          1          1          1          1          1          1          1          1          1          1          1          1          1          1          1          1          1          1          1          1          1          1          1          1          1          1          1          1          1          1          1          1          1          1          1          1          1          1          1          1          1          1          1          1          1          1          1          1          1          1          1          1          1          1          1          1          1          1          1          1          1          1          1          1          1          1          1          1          1          1          1          1          1          1          1          1          1          1          1          1          1          1          1          1          1          1          1          1          1          1          1          1          1          1          1          1          1          1          1          1          1          1          1          1          1          1          1          1          1          1          1          1          1          1          1          1          1          1          1          1          1          1          1          1          1          1          1          1          1          1          1          1          1          1          1          1          1          1          1          1          1          1          1          1          1          1          1          1          1          1          1          1          1          1          1          1          1          1          1          1          1          1          1          1          1          1          1          1          1          1          1          1          1          1          1          1          1          1          1          1          1          1          1          1          1          1          1          1          1          1          1          1          1          1          1          1          1          1          1          1          1          1          1          1          1          1          1          1          1          1          1          1          1          1          1          1          1          1          1          1          1          1          1          1          1          1          1          1          1          1          1          1          1          1          1          1          1          1          1          1          1          1          1          1          1          1          1          1          1          1          1          1          1          1          1          1          1          1          1          1          1          1          1          1          1          1          1          1          1          1          1          1          1          1          1          1          1          1          1          1          1          1          1          1          1          1          1          1          1          1          1          1          1          1          1          1          1          1          1          1          1          1          1          1          1          1          1          1          1          1          1          1          1          1          1          1          1          1          1          1          1          1          1          1          1          1          1          1          1          1          1          1          1          1          1          1          1          1          1          1          1          1          1          1          1          1          1          1          1          1          1          1          1          1          1          1          1          1          1          1          1          1          1          1          1          1          1          1          1          1          1          1          1          1          1          1          1          1          1          1          1          1          1          1          1          1          1          1          1          1          1          1          1          1          1          1          1          1          1          1          1          1          1          1          1          1          1          1          1          1          1          1          1          1          1          1          1          1          1          1          1          1          1          1          1          1          1          1          1          1          1          1          1          1          1          1          1          1          1          1          1          1          1          1          1          1 </DataArray>
</CellData>
<PointData>
<DataArray type="Float64"                                    Name="u"                                                      NumberOfComponents=" 3" format="ascii">
              0.000002348               0.000000000               1.000000000               0.000000755               0.000000000               1.000000000               0.000000156              -0.000000000               1.000000000               0.000000016              -0.000000000               1.000000000               0.000000026               0.000000000               1.000000000              -0.000000007               0.000000000               1.000000000              -0.000000084               0.000000000               1.000000000              -0.000000158               0.000000000               1.000000000              -0.000000139               0.000000000               1.000000000              -0.000000002               0.000000000               1.000000000               0.000000196               0.000000000               1.000000000               0.000000362               0.000000000               1.000000000               0.000000421               0.000000000               1.000000000               0.000000264               0.000000000               1.000000000              -0.000000221               0.000000000               1.000000000              -0.000001095               0.000000000               1.000000000              -0.000002417               0.000000000               1.000000000               0.000002327               0.000004204               1.000000000               0.000000745               0.000003841               1.000000000               0.000000163               0.000003890               1.000000000               0.000000043               0.000004126               1.000000000               0.000000039               0.000004632               1.000000000              -0.000000025               0.000005225               1.000000000              -0.000000129               0.000005820               1.000000000              -0.000000145               0.000006115               1.000000000              -0.000000105               0.000006376               1.000000000              -0.000000086               0.000006656               1.000000000              -0.000000059               0.000006939               1.000000000              -0.000000091               0.000007389               1.000000000              -0.000000289               0.000008036               1.000000000              -0.000000703               0.000008914               1.000000000              -0.000001421               0.000010052               1.000000000              -0.000002523               0.000011435               1.000000000              -0.000004055               0.000013055               1.000000000               0.000002185               0.000008363               1.000000000               0.000000737               0.000007683               1.000000000               0.000000235               0.000007723               1.000000000               0.000000098               0.000008225               1.000000000               0.000000039               0.000009229               1.000000000              -0.000000028               0.000010455               1.000000000              -0.000000146               0.000011578               1.000000000              -0.000000233               0.000012239               1.000000000              -0.000000332               0.000012902               1.000000000              -0.000000472               0.000013627               1.000000000              -0.000000708               0.000014416               1.000000000              -0.000001166               0.000015500               1.000000000              -0.000001892               0.000016929               1.000000000              -0.000002900               0.000018777               1.000000000              -0.000004243               0.000021090               1.000000000              -0.000005979               0.000023873               1.000000000              -0.000008143               0.000027119               1.000000000               0.000001936               0.000012446               1.000000000               0.000000753               0.000011423               1.000000000               0.000000366               0.000011497               1.000000000               0.000000239               0.000012345               1.000000000               0.000000099               0.000013850               1.000000000              -0.000000112               0.000015629               1.000000000              -0.000000311               0.000017289               1.000000000              -0.000000455               0.000018480               1.000000000              -0.000000639               0.000019793               1.000000000              -0.000001054               0.000021249               1.000000000              -0.000001809               0.000022915               1.000000000              -0.000002933               0.000024986               1.000000000              -0.000004484               0.000027516               1.000000000              -0.000006428               0.000030603               1.000000000              -0.000008748               0.000034297               1.000000000              -0.000011497               0.000038645               1.000000000              -0.000014660               0.000043693               1.000000000               0.000001689               0.000016466               1.000000000               0.000000828               0.000015027               1.000000000               0.000000599               0.000015198               1.000000000               0.000000466               0.000016474               1.000000000               0.000000133               0.000018510               1.000000000              -0.000000232               0.000020924               1.000000000              -0.000000575               0.000023149               1.000000000              -0.000000975               0.000025049               1.000000000              -0.000001552               0.000027266               1.000000000              -0.000002473               0.000029852               1.000000000              -0.000003800               0.000032842               1.000000000              -0.000005639               0.000036401               1.000000000              -0.000008021               0.000040572               1.000000000              -0.000010870               0.000045397               1.000000000              -0.000014194               0.000050933               1.000000000              -0.000017998               0.000057208               1.000000000              -0.000022224               0.000064260               1.000000000               0.000001423               0.000020376               1.000000000               0.000001048               0.000018546               1.000000000               0.000000979               0.000018887               1.000000000               0.000000710               0.000020663               1.000000000               0.000000193               0.000023351               1.000000000              -0.000000450               0.000026492               1.000000000              -0.000001151               0.000029463               1.000000000              -0.000001842               0.000032469               1.000000000              -0.000002813               0.000035956               1.000000000              -0.000004278               0.000040093               1.000000000              -0.000006301               0.000044831               1.000000000              -0.000008933               0.000050304               1.000000000              -0.000012130               0.000056547               1.000000000              -0.000015845               0.000063557               1.000000000              -0.000020075               0.000071370               1.000000000              -0.000024820               0.000079951               1.000000000              -0.000030016               0.000089281               1.000000000               0.000001164               0.000024141               1.000000000               0.000001400               0.000021974               1.000000000               0.000001403               0.000022608               1.000000000               0.000000945               0.000025001               1.000000000               0.000000113               0.000028467               1.000000000              -0.000000821               0.000032533               1.000000000              -0.000001664               0.000036806               1.000000000              -0.000002681               0.000041203               1.000000000              -0.000004160               0.000046441               1.000000000              -0.000006277               0.000052455               1.000000000              -0.000009036               0.000059260               1.000000000              -0.000012480               0.000066932               1.000000000              -0.000016487               0.000075495               1.000000000              -0.000021008               0.000084957               1.000000000              -0.000026098               0.000095225               1.000000000              -0.000031685               0.000106281               1.000000000              -0.000037721               0.000118074               1.000000000               0.000001033               0.000027808               1.000000000               0.000001825               0.000025317               1.000000000               0.000001814               0.000026373               1.000000000               0.000001093               0.000029534               1.000000000              -0.000000005               0.000034077               1.000000000              -0.000001132               0.000039433               1.000000000              -0.000002313               0.000045136               1.000000000              -0.000003747               0.000051278               1.000000000              -0.000005755               0.000058560               1.000000000              -0.000008505               0.000066748               1.000000000              -0.000011960               0.000075808               1.000000000              -0.000016058               0.000085956               1.000000000              -0.000020725               0.000097089               1.000000000              -0.000026006               0.000109171               1.000000000              -0.000031867               0.000122175               1.000000000              -0.000038222               0.000136004               1.000000000              -0.000045056               0.000150608               1.000000000               0.000000940               0.000031264               1.000000000               0.000002308               0.000028642               1.000000000               0.000002186               0.000030249               1.000000000               0.000001116               0.000034365               1.000000000              -0.000000270               0.000040158               1.000000000              -0.000001744               0.000046981               1.000000000              -0.000003162               0.000054355               1.000000000              -0.000004858               0.000062597               1.000000000              -0.000007403               0.000072036               1.000000000              -0.000010731               0.000082552               1.000000000              -0.000014754               0.000094162               1.000000000              -0.000019368               0.000107033               1.000000000              -0.000024618               0.000121111               1.000000000              -0.000030504               0.000136268               1.000000000              -0.000036922               0.000152554               1.000000000              -0.000043865               0.000169820               1.000000000              -0.000051170               0.000187747               1.000000000               0.000000767               0.000034586               1.000000000               0.000002624               0.000032121               1.000000000               0.000002622               0.000033377               1.000000000               0.000001651               0.000037139               1.000000000               0.000000263               0.000042607               1.000000000              -0.000001271               0.000049351               1.000000000              -0.000002573               0.000056756               1.000000000              -0.000003841               0.000064830               1.000000000              -0.000005575               0.000073840               1.000000000              -0.000008045               0.000083838               1.000000000              -0.000010974               0.000094769               1.000000000              -0.000014443               0.000106734               1.000000000              -0.000018435               0.000119774               1.000000000              -0.000022880               0.000133952               1.000000000              -0.000027816               0.000149079               1.000000000              -0.000033235               0.000165341               1.000000000              -0.000039053               0.000182532               1.000000000               0.000000686               0.000037780               1.000000000               0.000002794               0.000035606               1.000000000               0.000002907               0.000036666               1.000000000               0.000002060               0.000040015               1.000000000               0.000000820               0.000045212               1.000000000              -0.000000597               0.000051711               1.000000000              -0.000001881               0.000059016               1.000000000              -0.000002879               0.000067000               1.000000000              -0.000004040               0.000075771               1.000000000              -0.000005720               0.000085420               1.000000000              -0.000007817               0.000095899               1.000000000              -0.000010325               0.000107197               1.000000000              -0.000013229               0.000119403               1.000000000              -0.000016447               0.000132603               1.000000000              -0.000020020               0.000146760               1.000000000              -0.000023950               0.000161850               1.000000000              -0.000028314               0.000177815               1.000000000               0.000000614               0.000040718               1.000000000               0.000002734               0.000038950               1.000000000               0.000002979               0.000039945               1.000000000               0.000002387               0.000043040               1.000000000               0.000001369               0.000047911               1.000000000               0.000000107               0.000054019               1.000000000              -0.000001082               0.000061118               1.000000000              -0.000002027               0.000068962               1.000000000              -0.000002875               0.000077629               1.000000000              -0.000003933               0.000087080               1.000000000              -0.000005320               0.000097340               1.000000000              -0.000006995               0.000108255               1.000000000              -0.000008951               0.000119897               1.000000000              -0.000011147               0.000132345               1.000000000              -0.000013515               0.000145626               1.000000000              -0.000016107               0.000159732               1.000000000              -0.000018981               0.000174693               1.000000000               0.000000470               0.000043241               1.000000000               0.000002491               0.000042061               1.000000000               0.000002861               0.000043100               1.000000000               0.000002481               0.000046004               1.000000000               0.000001672               0.000050456               1.000000000               0.000000649               0.000056181               1.000000000              -0.000000380               0.000063062               1.000000000              -0.000001254               0.000070851               1.000000000              -0.000001936               0.000079423               1.000000000              -0.000002600               0.000088737               1.000000000              -0.000003438               0.000098797               1.000000000              -0.000004432               0.000109520               1.000000000              -0.000005611               0.000120860               1.000000000              -0.000006961               0.000132811               1.000000000              -0.000008406               0.000145499               1.000000000              -0.000009945               0.000158961               1.000000000              -0.000011512               0.000173198               1.000000000               0.000000328               0.000045324               1.000000000               0.000002078               0.000044756               1.000000000               0.000002467               0.000045876               1.000000000               0.000002246               0.000048622               1.000000000               0.000001706               0.000052790               1.000000000               0.000000969               0.000058263               1.000000000               0.000000104               0.000064873               1.000000000              -0.000000666               0.000072486               1.000000000              -0.000001214               0.000080918               1.000000000              -0.000001596               0.000090112               1.000000000              -0.000002053               0.000100038               1.000000000              -0.000002590               0.000110669               1.000000000              -0.000003205               0.000121900               1.000000000              -0.000003928               0.000133634               1.000000000              -0.000004720               0.000145997               1.000000000              -0.000005495               0.000159017               1.000000000              -0.000006206               0.000172657               1.000000000               0.000000211               0.000046875               1.000000000               0.000001467               0.000046792               1.000000000               0.000001808               0.000048035               1.000000000               0.000001735               0.000050721               1.000000000               0.000001418               0.000054725               1.000000000               0.000000886               0.000059980               1.000000000               0.000000296               0.000066376               1.000000000              -0.000000244               0.000073785               1.000000000              -0.000000634               0.000082057               1.000000000              -0.000000872               0.000091148               1.000000000              -0.000001095               0.000100996               1.000000000              -0.000001354               0.000111545               1.000000000              -0.000001619               0.000122658               1.000000000              -0.000001937               0.000134316               1.000000000              -0.000002319               0.000146507               1.000000000              -0.000002673               0.000159226               1.000000000              -0.000003001               0.000172485               1.000000000               0.000000097               0.000047813               1.000000000               0.000000745               0.000048063               1.000000000               0.000000970               0.000049426               1.000000000               0.000000953               0.000052080               1.000000000               0.000000775               0.000055984               1.000000000               0.000000535               0.000061102               1.000000000               0.000000239               0.000067332               1.000000000              -0.000000048               0.000074586               1.000000000              -0.000000263               0.000082791               1.000000000              -0.000000380               0.000091809               1.000000000              -0.000000455               0.000101548               1.000000000              -0.000000544               0.000111996               1.000000000              -0.000000641               0.000123000               1.000000000              -0.000000762               0.000134590               1.000000000              -0.000000906               0.000146647               1.000000000              -0.000001056               0.000159167               1.000000000              -0.000001227               0.000172241               1.000000000               0.000000000               0.000048144               1.000000000              -0.000000000               0.000048525               1.000000000               0.000000000               0.000049908               1.000000000               0.000000000               0.000052525               1.000000000               0.000000000               0.000056430               1.000000000               0.000000000               0.000061502               1.000000000              -0.000000000               0.000067682               1.000000000              -0.000000000               0.000074895               1.000000000              -0.000000000               0.000083032               1.000000000              -0.000000000               0.000091995               1.000000000              -0.000000000               0.000101712               1.000000000              -0.000000000               0.000112126               1.000000000              -0.000000000               0.000123071               1.000000000              -0.000000000               0.000134625               1.000000000               0.000000000               0.000146623               1.000000000              -0.000000000               0.000159059               1.000000000              -0.000000000               0.000172072               1.000000000               0.000002348               0.000000000               1.000000000               0.000000755               0.000000000               1.000000000               0.000000156              -0.000000000               1.000000000               0.000000016              -0.000000000               1.000000000               0.000000026               0.000000000               1.000000000              -0.000000007               0.000000000               1.000000000              -0.000000084               0.000000000               1.000000000              -0.000000158               0.000000000               1.000000000              -0.000000139               0.000000000               1.000000000              -0.000000002               0.000000000               1.000000000               0.000000196               0.000000000               1.000000000               0.000000362               0.000000000               1.000000000               0.000000421               0.000000000               1.000000000               0.000000264               0.000000000               1.000000000              -0.000000221               0.000000000               1.000000000              -0.000001095               0.000000000               1.000000000              -0.000002417               0.000000000               1.000000000               0.000002327              -0.000004204               1.000000000               0.000000745              -0.000003841               1.000000000               0.000000163              -0.000003890               1.000000000               0.000000043              -0.000004126               1.000000000               0.000000039              -0.000004632               1.000000000              -0.000000025              -0.000005225               1.000000000              -0.000000129              -0.000005820               1.000000000              -0.000000145              -0.000006115               1.000000000              -0.000000105              -0.000006376               1.000000000              -0.000000086              -0.000006656               1.000000000              -0.000000059              -0.000006939               1.000000000              -0.000000091              -0.000007389               1.000000000              -0.000000289              -0.000008036               1.000000000              -0.000000703              -0.000008914               1.000000000              -0.000001421              -0.000010052               1.000000000              -0.000002523              -0.000011435               1.000000000              -0.000004055              -0.000013055               1.000000000               0.000002185              -0.000008363               1.000000000               0.000000737              -0.000007683               1.000000000               0.000000235              -0.000007723               1.000000000               0.000000098              -0.000008225               1.000000000               0.000000039              -0.000009229               1.000000000              -0.000000028              -0.000010455               1.000000000              -0.000000146              -0.000011578               1.000000000              -0.000000233              -0.000012239               1.000000000              -0.000000332              -0.000012902               1.000000000              -0.000000472              -0.000013627               1.000000000              -0.000000708              -0.000014416               1.000000000              -0.000001166              -0.000015500               1.000000000              -0.000001892              -0.000016929               1.000000000              -0.000002900              -0.000018777               1.000000000              -0.000004243              -0.000021090               1.000000000              -0.000005979              -0.000023873               1.000000000              -0.000008143              -0.000027119               1.000000000               0.000001936              -0.000012446               1.000000000               0.000000753              -0.000011423               1.000000000               0.000000366              -0.000011497               1.000000000               0.000000239              -0.000012345               1.000000000               0.000000099              -0.000013850               1.000000000              -0.000000112              -0.000015629               1.000000000              -0.000000311              -0.000017289               1.000000000              -0.000000455              -0.000018480               1.000000000              -0.000000639              -0.000019793               1.000000000              -0.000001054              -0.000021249               1.000000000              -0.000001809              -0.000022915               1.000000000              -0.000002933              -0.000024986               1.000000000              -0.000004484              -0.000027516               1.000000000              -0.000006428              -0.000030603               1.000000000              -0.000008748              -0.000034297               1.000000000              -0.000011497              -0.000038645               1.000000000              -0.000014660              -0.000043693               1.000000000               0.000001689              -0.000016466               1.000000000               0.000000828              -0.000015027               1.000000000               0.000000599              -0.000015198               1.000000000               0.000000466              -0.000016474               1.000000000               0.000000133              -0.000018510               1.000000000              -0.000000232              -0.000020924               1.000000000              -0.000000575              -0.000023149               1.000000000              -0.000000975              -0.000025049               1.000000000              -0.000001552              -0.000027266               1.000000000              -0.000002473              -0.000029852               1.000000000              -0.000003800              -0.000032842               1.000000000              -0.000005639              -0.000036401               1.000000000              -0.000008021              -0.000040572               1.000000000              -0.000010870              -0.000045397               1.000000000              -0.000014194              -0.000050933               1.000000000              -0.000017998              -0.000057208               1.000000000              -0.000022224              -0.000064260               1.000000000               0.000001423              -0.000020376               1.000000000               0.000001048              -0.000018546               1.000000000               0.000000979              -0.000018887               1.000000000               0.000000710              -0.000020663               1.000000000               0.000000193              -0.000023351               1.000000000              -0.000000450              -0.000026492               1.000000000              -0.000001151              -0.000029463               1.000000000              -0.000001842              -0.000032469               1.000000000              -0.000002813              -0.000035956               1.000000000              -0.000004278              -0.000040093               1.000000000              -0.000006301              -0.000044831               1.000000000              -0.000008933              -0.000050304               1.000000000              -0.000012130              -0.000056547               1.000000000              -0.000015845              -0.000063557               1.000000000              -0.000020075              -0.000071370               1.000000000              -0.000024820              -0.000079951               1.000000000              -0.000030016              -0.000089281               1.000000000               0.000001164              -0.000024141               1.000000000               0.000001400              -0.000021974               1.000000000               0.000001403              -0.000022608               1.000000000               0.000000945              -0.000025001               1.000000000               0.000000113              -0.000028467               1.000000000              -0.000000821              -0.000032533               1.000000000              -0.000001664              -0.000036806               1.000000000              -0.000002681              -0.000041203               1.000000000              -0.000004160              -0.000046441               1.000000000              -0.000006277              -0.000052455               1.000000000              -0.000009036              -0.000059260               1.000000000              -0.000012480              -0.000066932               1.000000000              -0.000016487              -0.000075495               1.000000000              -0.000021008              -0.000084957               1.000000000              -0.000026098              -0.000095225               1.000000000              -0.000031685              -0.000106281               1.000000000              -0.000037721              -0.000118074               1.000000000               0.000001033              -0.000027808               1.000000000               0.000001825              -0.000025317               1.000000000               0.000001814              -0.000026373               1.000000000               0.000001093              -0.000029534               1.000000000              -0.000000005              -0.000034077               1.000000000              -0.000001132              -0.000039433               1.000000000              -0.000002313              -0.000045136               1.000000000              -0.000003747              -0.000051278               1.000000000              -0.000005755              -0.000058560               1.000000000              -0.000008505              -0.000066748               1.000000000              -0.000011960              -0.000075808               1.000000000              -0.000016058              -0.000085956               1.000000000              -0.000020725              -0.000097089               1.000000000              -0.000026006              -0.000109171               1.000000000              -0.000031867              -0.000122175               1.000000000              -0.000038222              -0.000136004               1.000000000              -0.000045056              -0.000150608               1.000000000               0.000000940              -0.000031264               1.000000000               0.000002308              -0.000028642               1.000000000               0.000002186              -0.000030249               1.000000000               0.000001116              -0.000034365               1.000000000              -0.000000270              -0.000040158               1.000000000              -0.000001744              -0.000046981               1.000000000              -0.000003162              -0.000054355               1.000000000              -0.000004858              -0.000062597               1.000000000              -0.000007403              -0.000072036               1.000000000              -0.000010731              -0.000082552               1.000000000              -0.000014754              -0.000094162               1.000000000              -0.000019368              -0.000107033               1.000000000              -0.000024618              -0.000121111               1.000000000              -0.000030504              -0.000136268               1.000000000              -0.000036922              -0.000152554               1.000000000              -0.000043865              -0.000169820               1.000000000              -0.000051170              -0.000187747               1.000000000               0.000000767              -0.000034586               1.000000000               0.000002624              -0.000032121               1.000000000               0.000002622              -0.000033377               1.000000000               0.000001651              -0.000037139               1.000000000               0.000000263              -0.000042607               1.000000000              -0.000001271              -0.000049351               1.000000000              -0.000002573              -0.000056756               1.000000000              -0.000003841              -0.000064830               1.000000000              -0.000005575              -0.000073840               1.000000000              -0.000008045              -0.000083838               1.000000000              -0.000010974              -0.000094769               1.000000000              -0.000014443              -0.000106734               1.000000000              -0.000018435              -0.000119774               1.000000000              -0.000022880              -0.000133952               1.000000000              -0.000027816              -0.000149079               1.000000000              -0.000033235              -0.000165341               1.000000000              -0.000039053              -0.000182532               1.000000000               0.000000686              -0.000037780               1.000000000               0.000002794              -0.000035606               1.000000000               0.000002907              -0.000036666               1.000000000               0.000002060              -0.000040015               1.000000000               0.000000820              -0.000045212               1.000000000              -0.000000597              -0.000051711               1.000000000              -0.000001881              -0.000059016               1.000000000              -0.000002879              -0.000067000               1.000000000              -0.000004040              -0.000075771               1.000000000              -0.000005720              -0.000085420               1.000000000              -0.000007817              -0.000095899               1.000000000              -0.000010325              -0.000107197               1.000000000              -0.000013229              -0.000119403               1.000000000              -0.000016447              -0.000132603               1.000000000              -0.000020020              -0.000146760               1.000000000              -0.000023950              -0.000161850               1.000000000              -0.000028314              -0.000177815               1.000000000               0.000000614              -0.000040718               1.000000000               0.000002734              -0.000038950               1.000000000               0.000002979              -0.000039945               1.000000000               0.000002387              -0.000043040               1.000000000               0.000001369              -0.000047911               1.000000000               0.000000107              -0.000054019               1.000000000              -0.000001082              -0.000061118               1.000000000              -0.000002027              -0.000068962               1.000000000              -0.000002875              -0.000077629               1.000000000              -0.000003933              -0.000087080               1.000000000              -0.000005320              -0.000097340               1.000000000              -0.000006995              -0.000108255               1.000000000              -0.000008951              -0.000119897               1.000000000              -0.000011147              -0.000132345               1.000000000              -0.000013515              -0.000145626               1.000000000              -0.000016107              -0.000159732               1.000000000              -0.000018981              -0.000174693               1.000000000               0.000000470              -0.000043241               1.000000000               0.000002491              -0.000042061               1.000000000               0.000002861              -0.000043100               1.000000000               0.000002481              -0.000046004               1.000000000               0.000001672              -0.000050456               1.000000000               0.000000649              -0.000056181               1.000000000              -0.000000380              -0.000063062               1.000000000              -0.000001254              -0.000070851               1.000000000              -0.000001936              -0.000079423               1.000000000              -0.000002600              -0.000088737               1.000000000              -0.000003438              -0.000098797               1.000000000              -0.000004432              -0.000109520               1.000000000              -0.000005611              -0.000120860               1.000000000              -0.000006961              -0.000132811               1.000000000              -0.000008406              -0.000145499               1.000000000              -0.000009945              -0.000158961               1.000000000              -0.000011512              -0.000173198               1.000000000               0.000000328              -0.000045324               1.000000000               0.000002078              -0.000044756               1.000000000               0.000002467              -0.000045876               1.000000000               0.000002246              -0.000048622               1.000000000               0.000001706              -0.000052790               1.000000000               0.000000969              -0.000058263               1.000000000               0.000000104              -0.000064873               1.000000000              -0.000000666              -0.000072486               1.000000000              -0.000001214              -0.000080918               1.000000000              -0.000001596              -0.000090112               1.000000000              -0.000002053              -0.000100038               1.000000000              -0.000002590              -0.000110669               1.000000000              -0.000003205              -0.000121900               1.000000000              -0.000003928              -0.000133634               1.000000000              -0.000004720              -0.000145997               1.000000000              -0.000005495              -0.000159017               1.000000000              -0.000006206              -0.000172657               1.000000000               0.000000211              -0.000046875               1.000000000               0.000001467              -0.000046792               1.000000000               0.000001808              -0.000048035               1.000000000               0.000001735              -0.000050721               1.000000000               0.000001418              -0.000054725               1.000000000               0.000000886              -0.000059980               1.000000000               0.000000296              -0.000066376               1.000000000              -0.000000244              -0.000073785               1.000000000              -0.000000634              -0.000082057               1.000000000              -0.000000872              -0.000091148               1.000000000              -0.000001095              -0.000100996               1.000000000              -0.000001354              -0.000111545               1.000000000              -0.000001619              -0.000122658               1.000000000              -0.000001937              -0.000134316               1.000000000              -0.000002319              -0.000146507               1.000000000              -0.000002673              -0.000159226               1.000000000              -0.000003001              -0.000172485               1.000000000               0.000000097              -0.000047813               1.000000000               0.000000745              -0.000048063               1.000000000               0.000000970              -0.000049426               1.000000000               0.000000953              -0.000052080               1.000000000               0.000000775              -0.000055984               1.000000000               0.000000535              -0.000061102               1.000000000               0.000000239              -0.000067332               1.000000000              -0.000000048              -0.000074586               1.000000000              -0.000000263              -0.000082791               1.000000000              -0.000000380              -0.000091809               1.000000000              -0.000000455              -0.000101548               1.000000000              -0.000000544              -0.000111996               1.000000000              -0.000000641              -0.000123000               1.000000000              -0.000000762              -0.000134590               1.000000000              -0.000000906              -0.000146647               1.000000000              -0.000001056              -0.000159167               1.000000000              -0.000001227              -0.000172241               1.000000000              -0.000000000              -0.000048144               1.000000000              -0.000000000              -0.000048525               1.000000000              -0.000000000              -0.000049908               1.000000000               0.000000000              -0.000052525               1.000000000              -0.000000000              -0.000056430               1.000000000               0.000000000              -0.000061502               1.000000000               0.000000000              -0.000067682               1.000000000               0.000000000              -0.000074895               1.000000000              -0.000000000              -0.000083032               1.000000000              -0.000000000              -0.000091995               1.000000000              -0.000000000              -0.000101712               1.000000000              -0.000000000              -0.000112126               1.000000000              -0.000000000              -0.000123071               1.000000000               0.000000000              -0.000134625               1.000000000               0.000000000              -0.000146623               1.000000000               0.000000000              -0.000159059               1.000000000              -0.000000000              -0.000172072               1.000000000              -0.000002348               0.000000000               1.000000000              -0.000000755               0.000000000               1.000000000              -0.000000156               0.000000000               1.000000000              -0.000000016               0.000000000               1.000000000              -0.000000026              -0.000000000               1.000000000               0.000000007              -0.000000000               1.000000000               0.000000084              -0.000000000               1.000000000               0.000000158              -0.000000000               1.000000000               0.000000139               0.000000000               1.000000000               0.000000002               0.000000000               1.000000000              -0.000000196               0.000000000               1.000000000              -0.000000362              -0.000000000               1.000000000              -0.000000421              -0.000000000               1.000000000              -0.000000264              -0.000000000               1.000000000               0.000000221              -0.000000000               1.000000000               0.000001095              -0.000000000               1.000000000               0.000002417              -0.000000000               1.000000000              -0.000002327              -0.000004204               1.000000000              -0.000000745              -0.000003841               1.000000000              -0.000000163              -0.000003890               1.000000000              -0.000000043              -0.000004126               1.000000000              -0.000000039              -0.000004632               1.000000000               0.000000025              -0.000005225               1.000000000               0.000000129              -0.000005820               1.000000000               0.000000145              -0.000006115               1.000000000               0.000000105              -0.000006376               1.000000000               0.000000086              -0.000006656               1.000000000               0.000000059              -0.000006939               1.000000000               0.000000091              -0.000007389               1.000000000               0.000000289              -0.000008036               1.000000000               0.000000703              -0.000008914               1.000000000               0.000001421              -0.000010052               1.000000000               0.000002523              -0.000011435               1.000000000               0.000004055              -0.000013055               1.000000000              -0.000002185              -0.000008363               1.000000000              -0.000000737              -0.000007683               1.000000000              -0.000000235              -0.000007723               1.000000000              -0.000000098              -0.000008225               1.000000000              -0.000000039              -0.000009229               1.000000000               0.000000028              -0.000010455               1.000000000               0.000000146              -0.000011578               1.000000000               0.000000233              -0.000012239               1.000000000               0.000000332              -0.000012902               1.000000000               0.000000472              -0.000013627               1.000000000               0.000000708              -0.000014416               1.000000000               0.000001166              -0.000015500               1.000000000               0.000001892              -0.000016929               1.000000000               0.000002900              -0.000018777               1.000000000               0.000004243              -0.000021090               1.000000000               0.000005979              -0.000023873               1.000000000               0.000008143              -0.000027119               1.000000000              -0.000001936              -0.000012446               1.000000000              -0.000000753              -0.000011423               1.000000000              -0.000000366              -0.000011497               1.000000000              -0.000000239              -0.000012345               1.000000000              -0.000000099              -0.000013850               1.000000000               0.000000112              -0.000015629               1.000000000               0.000000311              -0.000017289               1.000000000               0.000000455              -0.000018480               1.000000000               0.000000639              -0.000019793               1.000000000               0.000001054              -0.000021249               1.000000000               0.000001809              -0.000022915               1.000000000               0.000002933              -0.000024986               1.000000000               0.000004484              -0.000027516               1.000000000               0.000006428              -0.000030603               1.000000000               0.000008748              -0.000034297               1.000000000               0.000011497              -0.000038645               1.000000000               0.000014660              -0.000043693               1.000000000              -0.000001689              -0.000016466               1.000000000              -0.000000828              -0.000015027               1.000000000              -0.000000599              -0.000015198               1.000000000              -0.000000466              -0.000016474               1.000000000              -0.000000133              -0.000018510               1.000000000               0.000000232              -0.000020924               1.000000000               0.000000575              -0.000023149               1.000000000               0.000000975              -0.000025049               1.000000000               0.000001552              -0.000027266               1.000000000               0.000002473              -0.000029852               1.000000000               0.000003800              -0.000032842               1.000000000               0.000005639              -0.000036401               1.000000000               0.000008021              -0.000040572               1.000000000               0.000010870              -0.000045397               1.000000000               0.000014194              -0.000050933               1.000000000               0.000017998              -0.000057208               1.000000000               0.000022224              -0.000064260               1.000000000              -0.000001423              -0.000020376               1.000000000              -0.000001048              -0.000018546               1.000000000              -0.000000979              -0.000018887               1.000000000              -0.000000710              -0.000020663               1.000000000              -0.000000193              -0.000023351               1.000000000               0.000000450              -0.000026492               1.000000000               0.000001151              -0.000029463               1.000000000               0.000001842              -0.000032469               1.000000000               0.000002813              -0.000035956               1.000000000               0.000004278              -0.000040093               1.000000000               0.000006301              -0.000044831               1.000000000               0.000008933              -0.000050304               1.000000000               0.000012130              -0.000056547               1.000000000               0.000015845              -0.000063557               1.000000000               0.000020075              -0.000071370               1.000000000               0.000024820              -0.000079951               1.000000000               0.000030016              -0.000089281               1.000000000              -0.000001164              -0.000024141               1.000000000              -0.000001400              -0.000021974               1.000000000              -0.000001403              -0.000022608               1.000000000              -0.000000945              -0.000025001               1.000000000              -0.000000113              -0.000028467               1.000000000               0.000000821              -0.000032533               1.000000000               0.000001664              -0.000036806               1.000000000               0.000002681              -0.000041203               1.000000000               0.000004160              -0.000046441               1.000000000               0.000006277              -0.000052455               1.000000000               0.000009036              -0.000059260               1.000000000               0.000012480              -0.000066932               1.000000000               0.000016487              -0.000075495               1.000000000               0.000021008              -0.000084957               1.000000000               0.000026098              -0.000095225               1.000000000               0.000031685              -0.000106281               1.000000000               0.000037721              -0.000118074               1.000000000              -0.000001033              -0.000027808               1.000000000              -0.000001825              -0.000025317               1.000000000              -0.000001814              -0.000026373               1.000000000              -0.000001093              -0.000029534               1.000000000               0.000000005              -0.000034077               1.000000000               0.000001132              -0.000039433               1.000000000               0.000002313              -0.000045136               1.000000000               0.000003747              -0.000051278               1.000000000               0.000005755              -0.000058560               1.000000000               0.000008505              -0.000066748               1.000000000               0.000011960              -0.000075808               1.000000000               0.000016058              -0.000085956               1.000000000               0.000020725              -0.000097089               1.000000000               0.000026006              -0.000109171               1.000000000               0.000031867              -0.000122175               1.000000000               0.000038222              -0.000136004               1.000000000               0.000045056              -0.000150608               1.000000000              -0.000000940              -0.000031264               1.000000000              -0.000002308              -0.000028642               1.000000000              -0.000002186              -0.000030249               1.000000000              -0.000001116              -0.000034365               1.000000000               0.000000270              -0.000040158               1.000000000               0.000001744              -0.000046981               1.000000000               0.000003162              -0.000054355               1.000000000               0.000004858              -0.000062597               1.000000000               0.000007403              -0.000072036               1.000000000               0.000010731              -0.000082552               1.000000000               0.000014754              -0.000094162               1.000000000               0.000019368              -0.000107033               1.000000000               0.000024618              -0.000121111               1.000000000               0.000030504              -0.000136268               1.000000000               0.000036922              -0.000152554               1.000000000               0.000043865              -0.000169820               1.000000000               0.000051170              -0.000187747               1.000000000              -0.000000767              -0.000034586               1.000000000              -0.000002624              -0.000032121               1.000000000              -0.000002622              -0.000033377               1.000000000              -0.000001651              -0.000037139               1.000000000              -0.000000263              -0.000042607               1.000000000               0.000001271              -0.000049351               1.000000000               0.000002573              -0.000056756               1.000000000               0.000003841              -0.000064830               1.000000000               0.000005575              -0.000073840               1.000000000               0.000008045              -0.000083838               1.000000000               0.000010974              -0.000094769               1.000000000               0.000014443              -0.000106734               1.000000000               0.000018435              -0.000119774               1.000000000               0.000022880              -0.000133952               1.000000000               0.000027816              -0.000149079               1.000000000               0.000033235              -0.000165341               1.000000000               0.000039053              -0.000182532               1.000000000              -0.000000686              -0.000037780               1.000000000              -0.000002794              -0.000035606               1.000000000              -0.000002907              -0.000036666               1.000000000              -0.000002060              -0.000040015               1.000000000              -0.000000820              -0.000045212               1.000000000               0.000000597              -0.000051711               1.000000000               0.000001881              -0.000059016               1.000000000               0.000002879              -0.000067000               1.000000000               0.000004040              -0.000075771               1.000000000               0.000005720              -0.000085420               1.000000000               0.000007817              -0.000095899               1.000000000               0.000010325              -0.000107197               1.000000000               0.000013229              -0.000119403               1.000000000               0.000016447              -0.000132603               1.000000000               0.000020020              -0.000146760               1.000000000               0.000023950              -0.000161850               1.000000000               0.000028314              -0.000177815               1.000000000              -0.000000614              -0.000040718               1.000000000              -0.000002734              -0.000038950               1.000000000              -0.000002979              -0.000039945               1.000000000              -0.000002387              -0.000043040               1.000000000              -0.000001369              -0.000047911               1.000000000              -0.000000107              -0.000054019               1.000000000               0.000001082              -0.000061118               1.000000000               0.000002027              -0.000068962               1.000000000               0.000002875              -0.000077629               1.000000000               0.000003933              -0.000087080               1.000000000               0.000005320              -0.000097340               1.000000000               0.000006995              -0.000108255               1.000000000               0.000008951              -0.000119897               1.000000000               0.000011147              -0.000132345               1.000000000               0.000013515              -0.000145626               1.000000000               0.000016107              -0.000159732               1.000000000               0.000018981              -0.000174693               1.000000000              -0.000000470              -0.000043241               1.000000000              -0.000002491              -0.000042061               1.000000000              -0.000002861              -0.000043100               1.000000000              -0.000002481              -0.000046004               1.000000000              -0.000001672              -0.000050456               1.000000000              -0.000000649              -0.000056181               1.000000000               0.000000380              -0.000063062               1.000000000               0.000001254              -0.000070851               1.000000000               0.000001936              -0.000079423               1.000000000               0.000002600              -0.000088737               1.000000000               0.000003438              -0.000098797               1.000000000               0.000004432              -0.000109520               1.000000000               0.000005611              -0.000120860               1.000000000               0.000006961              -0.000132811               1.000000000               0.000008406              -0.000145499               1.000000000               0.000009945              -0.000158961               1.000000000               0.000011512              -0.000173198               1.000000000              -0.000000328              -0.000045324               1.000000000              -0.000002078              -0.000044756               1.000000000              -0.000002467              -0.000045876               1.000000000              -0.000002246              -0.000048622               1.000000000              -0.000001706              -0.000052790               1.000000000              -0.000000969              -0.000058263               1.000000000              -0.000000104              -0.000064873               1.000000000               0.000000666              -0.000072486               1.000000000               0.000001214              -0.000080918               1.000000000               0.000001596              -0.000090112               1.000000000               0.000002053              -0.000100038               1.000000000               0.000002590              -0.000110669               1.000000000               0.000003205              -0.000121900               1.000000000               0.000003928              -0.000133634               1.000000000               0.000004720              -0.000145997               1.000000000               0.000005495              -0.000159017               1.000000000               0.000006206              -0.000172657               1.000000000              -0.000000211              -0.000046875               1.000000000              -0.000001467              -0.000046792               1.000000000              -0.000001808              -0.000048035               1.000000000              -0.000001735              -0.000050721               1.000000000              -0.000001418              -0.000054725               1.000000000              -0.000000886              -0.000059980               1.000000000              -0.000000296              -0.000066376               1.000000000               0.000000244              -0.000073785               1.000000000               0.000000634              -0.000082057               1.000000000               0.000000872              -0.000091148               1.000000000               0.000001095              -0.000100996               1.000000000               0.000001354              -0.000111545               1.000000000               0.000001619              -0.000122658               1.000000000               0.000001937              -0.000134316               1.000000000               0.000002319              -0.000146507               1.000000000               0.000002673              -0.000159226               1.000000000               0.000003001              -0.000172485               1.000000000              -0.000000097              -0.000047813               1.000000000              -0.000000745              -0.000048063               1.000000000              -0.000000970              -0.000049426               1.000000000              -0.000000953              -0.000052080               1.000000000              -0.000000775              -0.000055984               1.000000000              -0.000000535              -0.000061102               1.000000000              -0.000000239              -0.000067332               1.000000000               0.000000048              -0.000074586               1.000000000               0.000000263              -0.000082791               1.000000000               0.000000380              -0.000091809               1.000000000               0.000000455              -0.000101548               1.000000000               0.000000544              -0.000111996               1.000000000               0.000000641              -0.000123000               1.000000000               0.000000762              -0.000134590               1.000000000               0.000000906              -0.000146647               1.000000000               0.000001056              -0.000159167               1.000000000               0.000001227              -0.000172241               1.000000000              -0.000000000              -0.000048144               1.000000000              -0.000000000              -0.000048525               1.000000000              -0.000000000              -0.000049908               1.000000000               0.000000000              -0.000052525               1.000000000              -0.000000000              -0.000056430               1.000000000               0.000000000              -0.000061502               1.000000000               0.000000000              -0.000067682               1.000000000               0.000000000              -0.000074895               1.000000000              -0.000000000              -0.000083032               1.000000000              -0.000000000              -0.000091995               1.000000000              -0.000000000              -0.000101712               1.000000000              -0.000000000              -0.000112126               1.000000000              -0.000000000              -0.000123071               1.000000000               0.000000000              -0.000134625               1.000000000               0.000000000              -0.000146623               1.000000000               0.000000000              -0.000159059               1.000000000              -0.000000000              -0.000172072               1.000000000              -0.000002348               0.000000000               1.000000000              -0.000000755               0.000000000               1.000000000              -0.000000156               0.000000000               1.000000000              -0.000000016               0.000000000               1.000000000              -0.000000026              -0.000000000               1.000000000               0.000000007              -0.000000000               1.000000000               0.000000084              -0.000000000               1.000000000               0.000000158              -0.000000000               1.000000000               0.000000139               0.000000000               1.000000000               0.000000002               0.000000000               1.000000000              -0.000000196               0.000000000               1.000000000              -0.000000362              -0.000000000               1.000000000              -0.000000421              -0.000000000               1.000000000              -0.000000264              -0.000000000               1.000000000               0.000000221              -0.000000000               1.000000000               0.000001095              -0.000000000               1.000000000               0.000002417              -0.000000000               1.000000000              -0.000002327               0.000004204               1.000000000              -0.000000745               0.000003841               1.000000000              -0.000000163               0.000003890               1.000000000              -0.000000043               0.000004126               1.000000000              -0.000000039               0.000004632               1.000000000               0.000000025               0.000005225               1.000000000               0.000000129               0.000005820               1.000000000               0.000000145               0.000006115               1.000000000               0.000000105               0.000006376               1.000000000               0.000000086               0.000006656               1.000000000               0.000000059               0.000006939               1.000000000               0.000000091               0.000007389               1.000000000               0.000000289               0.000008036               1.000000000               0.000000703               0.000008914               1.000000000               0.000001421               0.000010052               1.000000000               0.000002523               0.000011435               1.000000000               0.000004055               0.000013055               1.000000000              -0.000002185               0.000008363               1.000000000              -0.000000737               0.000007683               1.000000000              -0.000000235               0.000007723               1.000000000              -0.000000098               0.000008225               1.000000000              -0.000000039               0.000009229               1.000000000               0.000000028               0.000010455               1.000000000               0.000000146               0.000011578               1.000000000               0.000000233               0.000012239               1.000000000               0.000000332               0.000012902               1.000000000               0.000000472               0.000013627               1.000000000               0.000000708               0.000014416               1.000000000               0.000001166               0.000015500               1.000000000               0.000001892               0.000016929               1.000000000               0.000002900               0.000018777               1.000000000               0.000004243               0.000021090               1.000000000               0.000005979               0.000023873               1.000000000               0.000008143               0.000027119               1.000000000              -0.000001936               0.000012446               1.000000000              -0.000000753               0.000011423               1.000000000              -0.000000366               0.000011497               1.000000000              -0.000000239               0.000012345               1.000000000              -0.000000099               0.000013850               1.000000000               0.000000112               0.000015629               1.000000000               0.000000311               0.000017289               1.000000000               0.000000455               0.000018480               1.000000000               0.000000639               0.000019793               1.000000000               0.000001054               0.000021249               1.000000000               0.000001809               0.000022915               1.000000000               0.000002933               0.000024986               1.000000000               0.000004484               0.000027516               1.000000000               0.000006428               0.000030603               1.000000000               0.000008748               0.000034297               1.000000000               0.000011497               0.000038645               1.000000000               0.000014660               0.000043693               1.000000000              -0.000001689               0.000016466               1.000000000              -0.000000828               0.000015027               1.000000000              -0.000000599               0.000015198               1.000000000              -0.000000466               0.000016474               1.000000000              -0.000000133               0.000018510               1.000000000               0.000000232               0.000020924               1.000000000               0.000000575               0.000023149               1.000000000               0.000000975               0.000025049               1.000000000               0.000001552               0.000027266               1.000000000               0.000002473               0.000029852               1.000000000               0.000003800               0.000032842               1.000000000               0.000005639               0.000036401               1.000000000               0.000008021               0.000040572               1.000000000               0.000010870               0.000045397               1.000000000               0.000014194               0.000050933               1.000000000               0.000017998               0.000057208               1.000000000               0.000022224               0.000064260               1.000000000              -0.000001423               0.000020376               1.000000000              -0.000001048               0.000018546               1.000000000              -0.000000979               0.000018887               1.000000000              -0.000000710               0.000020663               1.000000000              -0.000000193               0.000023351               1.000000000               0.000000450               0.000026492               1.000000000               0.000001151               0.000029463               1.000000000               0.000001842               0.000032469               1.000000000               0.000002813               0.000035956               1.000000000               0.000004278               0.000040093               1.000000000               0.000006301               0.000044831               1.000000000               0.000008933               0.000050304               1.000000000               0.000012130               0.000056547               1.000000000               0.000015845               0.000063557               1.000000000               0.000020075               0.000071370               1.000000000               0.000024820               0.000079951               1.000000000               0.000030016               0.000089281               1.000000000              -0.000001164               0.000024141               1.000000000              -0.000001400               0.000021974               1.000000000              -0.000001403               0.000022608               1.000000000              -0.000000945               0.000025001               1.000000000              -0.000000113               0.000028467               1.000000000               0.000000821               0.000032533               1.000000000               0.000001664               0.000036806               1.000000000               0.000002681               0.000041203               1.000000000               0.000004160               0.000046441               1.000000000               0.000006277               0.000052455               1.000000000               0.000009036               0.000059260               1.000000000               0.000012480               0.000066932               1.000000000               0.000016487               0.000075495               1.000000000               0.000021008               0.000084957               1.000000000               0.000026098               0.000095225               1.000000000               0.000031685               0.000106281               1.000000000               0.000037721               0.000118074               1.000000000              -0.000001033               0.000027808               1.000000000              -0.000001825               0.000025317               1.000000000              -0.000001814               0.000026373               1.000000000              -0.000001093               0.000029534               1.000000000               0.000000005               0.000034077               1.000000000               0.000001132               0.000039433               1.000000000               0.000002313               0.000045136               1.000000000               0.000003747               0.000051278               1.000000000               0.000005755               0.000058560               1.000000000               0.000008505               0.000066748               1.000000000               0.000011960               0.000075808               1.000000000               0.000016058               0.000085956               1.000000000               0.000020725               0.000097089               1.000000000               0.000026006               0.000109171               1.000000000               0.000031867               0.000122175               1.000000000               0.000038222               0.000136004               1.000000000               0.000045056               0.000150608               1.000000000              -0.000000940               0.000031264               1.000000000              -0.000002308               0.000028642               1.000000000              -0.000002186               0.000030249               1.000000000              -0.000001116               0.000034365               1.000000000               0.000000270               0.000040158               1.000000000               0.000001744               0.000046981               1.000000000               0.000003162               0.000054355               1.000000000               0.000004858               0.000062597               1.000000000               0.000007403               0.000072036               1.000000000               0.000010731               0.000082552               1.000000000               0.000014754               0.000094162               1.000000000               0.000019368               0.000107033               1.000000000               0.000024618               0.000121111               1.000000000               0.000030504               0.000136268               1.000000000               0.000036922               0.000152554               1.000000000               0.000043865               0.000169820               1.000000000               0.000051170               0.000187747               1.000000000              -0.000000767               0.000034586               1.000000000              -0.000002624               0.000032121               1.000000000              -0.000002622               0.000033377               1.000000000              -0.000001651               0.000037139               1.000000000              -0.000000263               0.000042607               1.000000000               0.000001271               0.000049351               1.000000000               0.000002573               0.000056756               1.000000000               0.000003841               0.000064830               1.000000000               0.000005575               0.000073840               1.000000000               0.000008045               0.000083838               1.000000000               0.000010974               0.000094769               1.000000000               0.000014443               0.000106734               1.000000000               0.000018435               0.000119774               1.000000000               0.000022880               0.000133952               1.000000000               0.000027816               0.000149079               1.000000000               0.000033235               0.000165341               1.000000000               0.000039053               0.000182532               1.000000000              -0.000000686               0.000037780               1.000000000              -0.000002794               0.000035606               1.000000000              -0.000002907               0.000036666               1.000000000              -0.000002060               0.000040015               1.000000000              -0.000000820               0.000045212               1.000000000               0.000000597               0.000051711               1.000000000               0.000001881               0.000059016               1.000000000               0.000002879               0.000067000               1.000000000               0.000004040               0.000075771               1.000000000               0.000005720               0.000085420               1.000000000               0.000007817               0.000095899               1.000000000               0.000010325               0.000107197               1.000000000               0.000013229               0.000119403               1.000000000               0.000016447               0.000132603               1.000000000               0.000020020               0.000146760               1.000000000               0.000023950               0.000161850               1.000000000               0.000028314               0.000177815               1.000000000              -0.000000614               0.000040718               1.000000000              -0.000002734               0.000038950               1.000000000              -0.000002979               0.000039945               1.000000000              -0.000002387               0.000043040               1.000000000              -0.000001369               0.000047911               1.000000000              -0.000000107               0.000054019               1.000000000               0.000001082               0.000061118               1.000000000               0.000002027               0.000068962               1.000000000               0.000002875               0.000077629               1.000000000               0.000003933               0.000087080               1.000000000               0.000005320               0.000097340               1.000000000               0.000006995               0.000108255               1.000000000               0.000008951               0.000119897               1.000000000               0.000011147               0.000132345               1.000000000               0.000013515               0.000145626               1.000000000               0.000016107               0.000159732               1.000000000               0.000018981               0.000174693               1.000000000              -0.000000470               0.000043241               1.000000000              -0.000002491               0.000042061               1.000000000              -0.000002861               0.000043100               1.000000000              -0.000002481               0.000046004               1.000000000              -0.000001672               0.000050456               1.000000000              -0.000000649               0.000056181               1.000000000               0.000000380               0.000063062               1.000000000               0.000001254               0.000070851               1.000000000               0.000001936               0.000079423               1.000000000               0.000002600               0.000088737               1.000000000               0.000003438               0.000098797               1.000000000               0.000004432               0.000109520               1.000000000               0.000005611               0.000120860               1.000000000               0.000006961               0.000132811               1.000000000               0.000008406               0.000145499               1.000000000               0.000009945               0.000158961               1.000000000               0.000011512               0.000173198               1.000000000              -0.000000328               0.000045324               1.000000000              -0.000002078               0.000044756               1.000000000              -0.000002467               0.000045876               1.000000000              -0.000002246               0.000048622               1.000000000              -0.000001706               0.000052790               1.000000000              -0.000000969               0.000058263               1.000000000              -0.000000104               0.000064873               1.000000000               0.000000666               0.000072486               1.000000000               0.000001214               0.000080918               1.000000000               0.000001596               0.000090112               1.000000000               0.000002053               0.000100038               1.000000000               0.000002590               0.000110669               1.000000000               0.000003205               0.000121900               1.000000000               0.000003928               0.000133634               1.000000000               0.000004720               0.000145997               1.000000000               0.000005495               0.000159017               1.000000000               0.000006206               0.000172657               1.000000000              -0.000000211               0.000046875               1.000000000              -0.000001467               0.000046792               1.000000000              -0.000001808               0.000048035               1.000000000              -0.000001735               0.000050721               1.000000000              -0.000001418               0.000054725               1.000000000              -0.000000886               0.000059980               1.000000000              -0.000000296               0.000066376               1.000000000               0.000000244               0.000073785               1.000000000               0.000000634               0.000082057               1.000000000               0.000000872               0.000091148               1.000000000               0.000001095               0.000100996               1.000000000               0.000001354               0.000111545               1.000000000               0.000001619               0.000122658               1.000000000               0.000001937               0.000134316               1.000000000               0.000002319               0.000146507               1.000000000               0.000002673               0.000159226               1.000000000               0.000003001               0.000172485               1.000000000              -0.000000097               0.000047813               1.000000000              -0.000000745               0.000048063               1.000000000              -0.000000970               0.000049426               1.000000000              -0.000000953               0.000052080               1.000000000              -0.000000775               0.000055984               1.000000000              -0.000000535               0.000061102               1.000000000              -0.000000239               0.000067332               1.000000000               0.000000048               0.000074586               1.000000000               0.000000263               0.000082791               1.000000000               0.000000380               0.000091809               1.000000000               0.000000455               0.000101548               1.000000000               0.000000544               0.000111996               1.000000000               0.000000641               0.000123000               1.000000000               0.000000762               0.000134590               1.000000000               0.000000906               0.000146647               1.000000000               0.000001056               0.000159167               1.000000000               0.000001227               0.000172241               1.000000000               0.000000000               0.000048144               1.000000000              -0.000000000               0.000048525               1.000000000               0.000000000               0.000049908               1.000000000               0.000000000               0.000052525               1.000000000               0.000000000               0.000056430               1.000000000               0.000000000               0.000061502               1.000000000              -0.000000000               0.000067682               1.000000000              -0.000000000               0.000074895               1.000000000              -0.000000000               0.000083032               1.000000000              -0.000000000               0.000091995               1.000000000              -0.000000000               0.000101712               1.000000000              -0.000000000               0.000112126               1.000000000              -0.000000000               0.000123071               1.000000000              -0.000000000               0.000134625               1.000000000               0.000000000               0.000146623               1.000000000              -0.000000000               0.000159059               1.000000000              -0.000000000               0.000172072               1.000000000 </DataArray>
<DataArray type="Float64"                                    Name="defo"                                                      NumberOfComponents=" 3" format="ascii">
              0.000002348               0.000000000               1.000000000               0.000000755               0.000000000               1.000000000               0.000000156              -0.000000000               1.000000000               0.000000016              -0.000000000               1.000000000               0.000000026               0.000000000               1.000000000              -0.000000007               0.000000000               1.000000000              -0.000000084               0.000000000               1.000000000              -0.000000158               0.000000000               1.000000000              -0.000000139               0.000000000               1.000000000              -0.000000002               0.000000000               1.000000000               0.000000196               0.000000000               1.000000000               0.000000362               0.000000000               1.000000000               0.000000421               0.000000000               1.000000000               0.000000264               0.000000000               1.000000000              -0.000000221               0.000000000               1.000000000              -0.000001095               0.000000000               1.000000000              -0.000002417               0.000000000               1.000000000               0.000002327               0.000004204               1.000000000               0.000000745               0.000003841               1.000000000               0.000000163               0.000003890               1.000000000               0.000000043               0.000004126               1.000000000               0.000000039               0.000004632               1.000000000              -0.000000025               0.000005225               1.000000000              -0.000000129               0.000005820               1.000000000              -0.000000145               0.000006115               1.000000000              -0.000000105               0.000006376               1.000000000              -0.000000086               0.000006656               1.000000000              -0.000000059               0.000006939               1.000000000              -0.000000091               0.000007389               1.000000000              -0.000000289               0.000008036               1.000000000              -0.000000703               0.000008914               1.000000000              -0.000001421               0.000010052               1.000000000              -0.000002523               0.000011435               1.000000000              -0.000004055               0.000013055               1.000000000               0.000002185               0.000008363               1.000000000               0.000000737               0.000007683               1.000000000               0.000000235               0.000007723               1.000000000               0.000000098               0.000008225               1.000000000               0.000000039               0.000009229               1.000000000              -0.000000028               0.000010455               1.000000000              -0.000000146               0.000011578               1.000000000              -0.000000233               0.000012239               1.000000000              -0.000000332               0.000012902               1.000000000              -0.000000472               0.000013627               1.000000000              -0.000000708               0.000014416               1.000000000              -0.000001166               0.000015500               1.000000000              -0.000001892               0.000016929               1.000000000              -0.000002900               0.000018777               1.000000000              -0.000004243               0.000021090               1.000000000              -0.000005979               0.000023873               1.000000000              -0.000008143               0.000027119               1.000000000               0.000001936               0.000012446               1.000000000               0.000000753               0.000011423               1.000000000               0.000000366               0.000011497               1.000000000               0.000000239               0.000012345               1.000000000               0.000000099               0.000013850               1.000000000              -0.000000112               0.000015629               1.000000000              -0.000000311               0.000017289               1.000000000              -0.000000455               0.000018480               1.000000000              -0.000000639               0.000019793               1.000000000              -0.000001054               0.000021249               1.000000000              -0.000001809               0.000022915               1.000000000              -0.000002933               0.000024986               1.000000000              -0.000004484               0.000027516               1.000000000              -0.000006428               0.000030603               1.000000000              -0.000008748               0.000034297               1.000000000              -0.000011497               0.000038645               1.000000000              -0.000014660               0.000043693               1.000000000               0.000001689               0.000016466               1.000000000               0.000000828               0.000015027               1.000000000               0.000000599               0.000015198               1.000000000               0.000000466               0.000016474               1.000000000               0.000000133               0.000018510               1.000000000              -0.000000232               0.000020924               1.000000000              -0.000000575               0.000023149               1.000000000              -0.000000975               0.000025049               1.000000000              -0.000001552               0.000027266               1.000000000              -0.000002473               0.000029852               1.000000000              -0.000003800               0.000032842               1.000000000              -0.000005639               0.000036401               1.000000000              -0.000008021               0.000040572               1.000000000              -0.000010870               0.000045397               1.000000000              -0.000014194               0.000050933               1.000000000              -0.000017998               0.000057208               1.000000000              -0.000022224               0.000064260               1.000000000               0.000001423               0.000020376               1.000000000               0.000001048               0.000018546               1.000000000               0.000000979               0.000018887               1.000000000               0.000000710               0.000020663               1.000000000               0.000000193               0.000023351               1.000000000              -0.000000450               0.000026492               1.000000000              -0.000001151               0.000029463               1.000000000              -0.000001842               0.000032469               1.000000000              -0.000002813               0.000035956               1.000000000              -0.000004278               0.000040093               1.000000000              -0.000006301               0.000044831               1.000000000              -0.000008933               0.000050304               1.000000000              -0.000012130               0.000056547               1.000000000              -0.000015845               0.000063557               1.000000000              -0.000020075               0.000071370               1.000000000              -0.000024820               0.000079951               1.000000000              -0.000030016               0.000089281               1.000000000               0.000001164               0.000024141               1.000000000               0.000001400               0.000021974               1.000000000               0.000001403               0.000022608               1.000000000               0.000000945               0.000025001               1.000000000               0.000000113               0.000028467               1.000000000              -0.000000821               0.000032533               1.000000000              -0.000001664               0.000036806               1.000000000              -0.000002681               0.000041203               1.000000000              -0.000004160               0.000046441               1.000000000              -0.000006277               0.000052455               1.000000000              -0.000009036               0.000059260               1.000000000              -0.000012480               0.000066932               1.000000000              -0.000016487               0.000075495               1.000000000              -0.000021008               0.000084957               1.000000000              -0.000026098               0.000095225               1.000000000              -0.000031685               0.000106281               1.000000000              -0.000037721               0.000118074               1.000000000               0.000001033               0.000027808               1.000000000               0.000001825               0.000025317               1.000000000               0.000001814               0.000026373               1.000000000               0.000001093               0.000029534               1.000000000              -0.000000005               0.000034077               1.000000000              -0.000001132               0.000039433               1.000000000              -0.000002313               0.000045136               1.000000000              -0.000003747               0.000051278               1.000000000              -0.000005755               0.000058560               1.000000000              -0.000008505               0.000066748               1.000000000              -0.000011960               0.000075808               1.000000000              -0.000016058               0.000085956               1.000000000              -0.000020725               0.000097089               1.000000000              -0.000026006               0.000109171               1.000000000              -0.000031867               0.000122175               1.000000000              -0.000038222               0.000136004               1.000000000              -0.000045056               0.000150608               1.000000000               0.000000940               0.000031264               1.000000000               0.000002308               0.000028642               1.000000000               0.000002186               0.000030249               1.000000000               0.000001116               0.000034365               1.000000000              -0.000000270               0.000040158               1.000000000              -0.000001744               0.000046981               1.000000000              -0.000003162               0.000054355               1.000000000              -0.000004858               0.000062597               1.000000000              -0.000007403               0.000072036               1.000000000              -0.000010731               0.000082552               1.000000000              -0.000014754               0.000094162               1.000000000              -0.000019368               0.000107033               1.000000000              -0.000024618               0.000121111               1.000000000              -0.000030504               0.000136268               1.000000000              -0.000036922               0.000152554               1.000000000              -0.000043865               0.000169820               1.000000000              -0.000051170               0.000187747               1.000000000               0.000000767               0.000034586               1.000000000               0.000002624               0.000032121               1.000000000               0.000002622               0.000033377               1.000000000               0.000001651               0.000037139               1.000000000               0.000000263               0.000042607               1.000000000              -0.000001271               0.000049351               1.000000000              -0.000002573               0.000056756               1.000000000              -0.000003841               0.000064830               1.000000000              -0.000005575               0.000073840               1.000000000              -0.000008045               0.000083838               1.000000000              -0.000010974               0.000094769               1.000000000              -0.000014443               0.000106734               1.000000000              -0.000018435               0.000119774               1.000000000              -0.000022880               0.000133952               1.000000000              -0.000027816               0.000149079               1.000000000              -0.000033235               0.000165341               1.000000000              -0.000039053               0.000182532               1.000000000               0.000000686               0.000037780               1.000000000               0.000002794               0.000035606               1.000000000               0.000002907               0.000036666               1.000000000               0.000002060               0.000040015               1.000000000               0.000000820               0.000045212               1.000000000              -0.000000597               0.000051711               1.000000000              -0.000001881               0.000059016               1.000000000              -0.000002879               0.000067000               1.000000000              -0.000004040               0.000075771               1.000000000              -0.000005720               0.000085420               1.000000000              -0.000007817               0.000095899               1.000000000              -0.000010325               0.000107197               1.000000000              -0.000013229               0.000119403               1.000000000              -0.000016447               0.000132603               1.000000000              -0.000020020               0.000146760               1.000000000              -0.000023950               0.000161850               1.000000000              -0.000028314               0.000177815               1.000000000               0.000000614               0.000040718               1.000000000               0.000002734               0.000038950               1.000000000               0.000002979               0.000039945               1.000000000               0.000002387               0.000043040               1.000000000               0.000001369               0.000047911               1.000000000               0.000000107               0.000054019               1.000000000              -0.000001082               0.000061118               1.000000000              -0.000002027               0.000068962               1.000000000              -0.000002875               0.000077629               1.000000000              -0.000003933               0.000087080               1.000000000              -0.000005320               0.000097340               1.000000000              -0.000006995               0.000108255               1.000000000              -0.000008951               0.000119897               1.000000000              -0.000011147               0.000132345               1.000000000              -0.000013515               0.000145626               1.000000000              -0.000016107               0.000159732               1.000000000              -0.000018981               0.000174693               1.000000000               0.000000470               0.000043241               1.000000000               0.000002491               0.000042061               1.000000000               0.000002861               0.000043100               1.000000000               0.000002481               0.000046004               1.000000000               0.000001672               0.000050456               1.000000000               0.000000649               0.000056181               1.000000000              -0.000000380               0.000063062               1.000000000              -0.000001254               0.000070851               1.000000000              -0.000001936               0.000079423               1.000000000              -0.000002600               0.000088737               1.000000000              -0.000003438               0.000098797               1.000000000              -0.000004432               0.000109520               1.000000000              -0.000005611               0.000120860               1.000000000              -0.000006961               0.000132811               1.000000000              -0.000008406               0.000145499               1.000000000              -0.000009945               0.000158961               1.000000000              -0.000011512               0.000173198               1.000000000               0.000000328               0.000045324               1.000000000               0.000002078               0.000044756               1.000000000               0.000002467               0.000045876               1.000000000               0.000002246               0.000048622               1.000000000               0.000001706               0.000052790               1.000000000               0.000000969               0.000058263               1.000000000               0.000000104               0.000064873               1.000000000              -0.000000666               0.000072486               1.000000000              -0.000001214               0.000080918               1.000000000              -0.000001596               0.000090112               1.000000000              -0.000002053               0.000100038               1.000000000              -0.000002590               0.000110669               1.000000000              -0.000003205               0.000121900               1.000000000              -0.000003928               0.000133634               1.000000000              -0.000004720               0.000145997               1.000000000              -0.000005495               0.000159017               1.000000000              -0.000006206               0.000172657               1.000000000               0.000000211               0.000046875               1.000000000               0.000001467               0.000046792               1.000000000               0.000001808               0.000048035               1.000000000               0.000001735               0.000050721               1.000000000               0.000001418               0.000054725               1.000000000               0.000000886               0.000059980               1.000000000               0.000000296               0.000066376               1.000000000              -0.000000244               0.000073785               1.000000000              -0.000000634               0.000082057               1.000000000              -0.000000872               0.000091148               1.000000000              -0.000001095               0.000100996               1.000000000              -0.000001354               0.000111545               1.000000000              -0.000001619               0.000122658               1.000000000              -0.000001937               0.000134316               1.000000000              -0.000002319               0.000146507               1.000000000              -0.000002673               0.000159226               1.000000000              -0.000003001               0.000172485               1.000000000               0.000000097               0.000047813               1.000000000               0.000000745               0.000048063               1.000000000               0.000000970               0.000049426               1.000000000               0.000000953               0.000052080               1.000000000               0.000000775               0.000055984               1.000000000               0.000000535               0.000061102               1.000000000               0.000000239               0.000067332               1.000000000              -0.000000048               0.000074586               1.000000000              -0.000000263               0.000082791               1.000000000              -0.000000380               0.000091809               1.000000000              -0.000000455               0.000101548               1.000000000              -0.000000544               0.000111996               1.000000000              -0.000000641               0.000123000               1.000000000              -0.000000762               0.000134590               1.000000000              -0.000000906               0.000146647               1.000000000              -0.000001056               0.000159167               1.000000000              -0.000001227               0.000172241               1.000000000               0.000000000               0.000048144               1.000000000              -0.000000000               0.000048525               1.000000000               0.000000000               0.000049908               1.000000000               0.000000000               0.000052525               1.000000000               0.000000000               0.000056430               1.000000000               0.000000000               0.000061502               1.000000000              -0.000000000               0.000067682               1.000000000              -0.000000000               0.000074895               1.000000000              -0.000000000               0.000083032               1.000000000              -0.000000000               0.000091995               1.000000000              -0.000000000               0.000101712               1.000000000              -0.000000000               0.000112126               1.000000000              -0.000000000               0.000123071               1.000000000              -0.000000000               0.000134625               1.000000000               0.000000000               0.000146623               1.000000000              -0.000000000               0.000159059               1.000000000              -0.000000000               0.000172072               1.000000000               0.000002348               0.000000000               1.000000000               0.000000755               0.000000000               1.000000000               0.000000156              -0.000000000               1.000000000               0.000000016              -0.000000000               1.000000000               0.000000026               0.000000000               1.000000000              -0.000000007               0.000000000               1.000000000              -0.000000084               0.000000000               1.000000000              -0.000000158               0.000000000               1.000000000              -0.000000139               0.000000000               1.000000000              -0.000000002               0.000000000               1.000000000               0.000000196               0.000000000               1.000000000               0.000000362               0.000000000               1.000000000               0.000000421               0.000000000               1.000000000               0.000000264               0.000000000               1.000000000              -0.000000221               0.000000000               1.000000000              -0.000001095               0.000000000               1.000000000              -0.000002417               0.000000000               1.000000000               0.000002327              -0.000004204               1.000000000               0.000000745              -0.000003841               1.000000000               0.000000163              -0.000003890               1.000000000               0.000000043              -0.000004126               1.000000000               0.000000039              -0.000004632               1.000000000              -0.000000025              -0.000005225               1.000000000              -0.000000129              -0.000005820               1.000000000              -0.000000145              -0.000006115               1.000000000              -0.000000105              -0.000006376               1.000000000              -0.000000086              -0.000006656               1.000000000              -0.000000059              -0.000006939               1.000000000              -0.000000091              -0.000007389               1.000000000              -0.000000289              -0.000008036               1.000000000              -0.000000703              -0.000008914               1.000000000              -0.000001421              -0.000010052               1.000000000              -0.000002523              -0.000011435               1.000000000              -0.000004055              -0.000013055               1.000000000               0.000002185              -0.000008363               1.000000000               0.000000737              -0.000007683               1.000000000               0.000000235              -0.000007723               1.000000000               0.000000098              -0.000008225               1.000000000               0.000000039              -0.000009229               1.000000000              -0.000000028              -0.000010455               1.000000000              -0.000000146              -0.000011578               1.000000000              -0.000000233              -0.000012239               1.000000000              -0.000000332              -0.000012902               1.000000000              -0.000000472              -0.000013627               1.000000000              -0.000000708              -0.000014416               1.000000000              -0.000001166              -0.000015500               1.000000000              -0.000001892              -0.000016929               1.000000000              -0.000002900              -0.000018777               1.000000000              -0.000004243              -0.000021090               1.000000000              -0.000005979              -0.000023873               1.000000000              -0.000008143              -0.000027119               1.000000000               0.000001936              -0.000012446               1.000000000               0.000000753              -0.000011423               1.000000000               0.000000366              -0.000011497               1.000000000               0.000000239              -0.000012345               1.000000000               0.000000099              -0.000013850               1.000000000              -0.000000112              -0.000015629               1.000000000              -0.000000311              -0.000017289               1.000000000              -0.000000455              -0.000018480               1.000000000              -0.000000639              -0.000019793               1.000000000              -0.000001054              -0.000021249               1.000000000              -0.000001809              -0.000022915               1.000000000              -0.000002933              -0.000024986               1.000000000              -0.000004484              -0.000027516               1.000000000              -0.000006428              -0.000030603               1.000000000              -0.000008748              -0.000034297               1.000000000              -0.000011497              -0.000038645               1.000000000              -0.000014660              -0.000043693               1.000000000               0.000001689              -0.000016466               1.000000000               0.000000828              -0.000015027               1.000000000               0.000000599              -0.000015198               1.000000000               0.000000466              -0.000016474               1.000000000               0.000000133              -0.000018510               1.000000000              -0.000000232              -0.000020924               1.000000000              -0.000000575              -0.000023149               1.000000000              -0.000000975              -0.000025049               1.000000000              -0.000001552              -0.000027266               1.000000000              -0.000002473              -0.000029852               1.000000000              -0.000003800              -0.000032842               1.000000000              -0.000005639              -0.000036401               1.000000000              -0.000008021              -0.000040572               1.000000000              -0.000010870              -0.000045397               1.000000000              -0.000014194              -0.000050933               1.000000000              -0.000017998              -0.000057208               1.000000000              -0.000022224              -0.000064260               1.000000000               0.000001423              -0.000020376               1.000000000               0.000001048              -0.000018546               1.000000000               0.000000979              -0.000018887               1.000000000               0.000000710              -0.000020663               1.000000000               0.000000193              -0.000023351               1.000000000              -0.000000450              -0.000026492               1.000000000              -0.000001151              -0.000029463               1.000000000              -0.000001842              -0.000032469               1.000000000              -0.000002813              -0.000035956               1.000000000              -0.000004278              -0.000040093               1.000000000              -0.000006301              -0.000044831               1.000000000              -0.000008933              -0.000050304               1.000000000              -0.000012130              -0.000056547               1.000000000              -0.000015845              -0.000063557               1.000000000              -0.000020075              -0.000071370               1.000000000              -0.000024820              -0.000079951               1.000000000              -0.000030016              -0.000089281               1.000000000               0.000001164              -0.000024141               1.000000000               0.000001400              -0.000021974               1.000000000               0.000001403              -0.000022608               1.000000000               0.000000945              -0.000025001               1.000000000               0.000000113              -0.000028467               1.000000000              -0.000000821              -0.000032533               1.000000000              -0.000001664              -0.000036806               1.000000000              -0.000002681              -0.000041203               1.000000000              -0.000004160              -0.000046441               1.000000000              -0.000006277              -0.000052455               1.000000000              -0.000009036              -0.000059260               1.000000000              -0.000012480              -0.000066932               1.000000000              -0.000016487              -0.000075495               1.000000000              -0.000021008              -0.000084957               1.000000000              -0.000026098              -0.000095225               1.000000000              -0.000031685              -0.000106281               1.000000000              -0.000037721              -0.000118074               1.000000000               0.000001033              -0.000027808               1.000000000               0.000001825              -0.000025317               1.000000000               0.000001814              -0.000026373               1.000000000               0.000001093              -0.000029534               1.000000000              -0.000000005              -0.000034077               1.000000000              -0.000001132              -0.000039433               1.000000000              -0.000002313              -0.000045136               1.000000000              -0.000003747              -0.000051278               1.000000000              -0.000005755              -0.000058560               1.000000000              -0.000008505              -0.000066748               1.000000000              -0.000011960              -0.000075808               1.000000000              -0.000016058              -0.000085956               1.000000000              -0.000020725              -0.000097089               1.000000000              -0.000026006              -0.000109171               1.000000000              -0.000031867              -0.000122175               1.000000000              -0.000038222              -0.000136004               1.000000000              -0.000045056              -0.000150608               1.000000000               0.000000940              -0.000031264               1.000000000               0.000002308              -0.000028642               1.000000000               0.000002186              -0.000030249               1.000000000               0.000001116              -0.000034365               1.000000000              -0.000000270              -0.000040158               1.000000000              -0.000001744              -0.000046981               1.000000000              -0.000003162              -0.000054355               1.000000000              -0.000004858              -0.000062597               1.000000000              -0.000007403              -0.000072036               1.000000000              -0.000010731              -0.000082552               1.000000000              -0.000014754              -0.000094162               1.000000000              -0.000019368              -0.000107033               1.000000000              -0.000024618              -0.000121111               1.000000000              -0.000030504              -0.000136268               1.000000000              -0.000036922              -0.000152554               1.000000000              -0.000043865              -0.000169820               1.000000000              -0.000051170              -0.000187747               1.000000000               0.000000767              -0.000034586               1.000000000               0.000002624              -0.000032121               1.000000000               0.000002622              -0.000033377               1.000000000               0.000001651              -0.000037139               1.000000000               0.000000263              -0.000042607               1.000000000              -0.000001271              -0.000049351               1.000000000              -0.000002573              -0.000056756               1.000000000              -0.000003841              -0.000064830               1.000000000              -0.000005575              -0.000073840               1.000000000              -0.000008045              -0.000083838               1.000000000              -0.000010974              -0.000094769               1.000000000              -0.000014443              -0.000106734               1.000000000              -0.000018435              -0.000119774               1.000000000              -0.000022880              -0.000133952               1.000000000              -0.000027816              -0.000149079               1.000000000              -0.000033235              -0.000165341               1.000000000              -0.000039053              -0.000182532               1.000000000               0.000000686              -0.000037780               1.000000000               0.000002794              -0.000035606               1.000000000               0.000002907              -0.000036666               1.000000000               0.000002060              -0.000040015               1.000000000               0.000000820              -0.000045212               1.000000000              -0.000000597              -0.000051711               1.000000000              -0.000001881              -0.000059016               1.000000000              -0.000002879              -0.000067000               1.000000000              -0.000004040              -0.000075771               1.000000000              -0.000005720              -0.000085420               1.000000000              -0.000007817              -0.000095899               1.000000000              -0.000010325              -0.000107197               1.000000000              -0.000013229              -0.000119403               1.000000000              -0.000016447              -0.000132603               1.000000000              -0.000020020              -0.000146760               1.000000000              -0.000023950              -0.000161850               1.000000000              -0.000028314              -0.000177815               1.000000000               0.000000614              -0.000040718               1.000000000               0.000002734              -0.000038950               1.000000000               0.000002979              -0.000039945               1.000000000               0.000002387              -0.000043040               1.000000000               0.000001369              -0.000047911               1.000000000               0.000000107              -0.000054019               1.000000000              -0.000001082              -0.000061118               1.000000000              -0.000002027              -0.000068962               1.000000000              -0.000002875              -0.000077629               1.000000000              -0.000003933              -0.000087080               1.000000000              -0.000005320              -0.000097340               1.000000000              -0.000006995              -0.000108255               1.000000000              -0.000008951              -0.000119897               1.000000000              -0.000011147              -0.000132345               1.000000000              -0.000013515              -0.000145626               1.000000000              -0.000016107              -0.000159732               1.000000000              -0.000018981              -0.000174693               1.000000000               0.000000470              -0.000043241               1.000000000               0.000002491              -0.000042061               1.000000000               0.000002861              -0.000043100               1.000000000               0.000002481              -0.000046004               1.000000000               0.000001672              -0.000050456               1.000000000               0.000000649              -0.000056181               1.000000000              -0.000000380              -0.000063062               1.000000000              -0.000001254              -0.000070851               1.000000000              -0.000001936              -0.000079423               1.000000000              -0.000002600              -0.000088737               1.000000000              -0.000003438              -0.000098797               1.000000000              -0.000004432              -0.000109520               1.000000000              -0.000005611              -0.000120860               1.000000000              -0.000006961              -0.000132811               1.000000000              -0.000008406              -0.000145499               1.000000000              -0.000009945              -0.000158961               1.000000000              -0.000011512              -0.000173198               1.000000000               0.000000328              -0.000045324               1.000000000               0.000002078              -0.000044756               1.000000000               0.000002467              -0.000045876               1.000000000               0.000002246              -0.000048622               1.000000000               0.000001706              -0.000052790               1.000000000               0.000000969              -0.000058263               1.000000000               0.000000104              -0.000064873               1.000000000              -0.000000666              -0.000072486               1.000000000              -0.000001214              -0.000080918               1.000000000              -0.000001596              -0.000090112               1.000000000              -0.000002053              -0.000100038               1.000000000              -0.000002590              -0.000110669               1.000000000              -0.000003205              -0.000121900               1.000000000              -0.000003928              -0.000133634               1.000000000              -0.000004720              -0.000145997               1.000000000              -0.000005495              -0.000159017               1.000000000              -0.000006206              -0.000172657               1.000000000               0.000000211              -0.000046875               1.000000000               0.000001467              -0.000046792               1.000000000               0.000001808              -0.000048035               1.000000000               0.000001735              -0.000050721               1.000000000               0.000001418              -0.000054725               1.000000000               0.000000886              -0.000059980               1.000000000               0.000000296              -0.000066376               1.000000000              -0.000000244              -0.000073785               1.000000000              -0.000000634              -0.000082057               1.000000000              -0.000000872              -0.000091148               1.000000000              -0.000001095              -0.000100996               1.000000000              -0.000001354              -0.000111545               1.000000000              -0.000001619              -0.000122658               1.000000000              -0.000001937              -0.000134316               1.000000000              -0.000002319              -0.000146507               1.000000000              -0.000002673              -0.000159226               1.000000000              -0.000003001              -0.000172485               1.000000000               0.000000097              -0.000047813               1.000000000               0.000000745              -0.000048063               1.000000000               0.000000970              -0.000049426               1.000000000               0.000000953              -0.000052080               1.000000000               0.000000775              -0.000055984               1.000000000               0.000000535              -0.000061102               1.000000000               0.000000239              -0.000067332               1.000000000              -0.000000048              -0.000074586               1.000000000              -0.000000263              -0.000082791               1.000000000              -0.000000380              -0.000091809               1.000000000              -0.000000455              -0.000101548               1.000000000              -0.000000544              -0.000111996               1.000000000              -0.000000641              -0.000123000               1.000000000              -0.000000762              -0.000134590               1.000000000              -0.000000906              -0.000146647               1.000000000              -0.000001056              -0.000159167               1.000000000              -0.000001227              -0.000172241               1.000000000              -0.000000000              -0.000048144               1.000000000              -0.000000000              -0.000048525               1.000000000              -0.000000000              -0.000049908               1.000000000               0.000000000              -0.000052525               1.000000000              -0.000000000              -0.000056430               1.000000000               0.000000000              -0.000061502               1.000000000               0.000000000              -0.000067682               1.000000000               0.000000000              -0.000074895               1.000000000              -0.000000000              -0.000083032               1.000000000              -0.000000000              -0.000091995               1.000000000              -0.000000000              -0.000101712               1.000000000              -0.000000000              -0.000112126               1.000000000              -0.000000000              -0.000123071               1.000000000               0.000000000              -0.000134625               1.000000000               0.000000000              -0.000146623               1.000000000               0.000000000              -0.000159059               1.000000000              -0.000000000              -0.000172072               1.000000000              -0.000002348               0.000000000               1.000000000              -0.000000755               0.000000000               1.000000000              -0.000000156               0.000000000               1.000000000              -0.000000016               0.000000000               1.000000000              -0.000000026              -0.000000000               1.000000000               0.000000007              -0.000000000               1.000000000               0.000000084              -0.000000000               1.000000000               0.000000158              -0.000000000               1.000000000               0.000000139               0.000000000               1.000000000               0.000000002               0.000000000               1.000000000              -0.000000196               0.000000000               1.000000000              -0.000000362              -0.000000000               1.000000000              -0.000000421              -0.000000000               1.000000000              -0.000000264              -0.000000000               1.000000000               0.000000221              -0.000000000               1.000000000               0.000001095              -0.000000000               1.000000000               0.000002417              -0.000000000               1.000000000              -0.000002327              -0.000004204               1.000000000              -0.000000745              -0.000003841               1.000000000              -0.000000163              -0.000003890               1.000000000              -0.000000043              -0.000004126               1.000000000              -0.000000039              -0.000004632               1.000000000               0.000000025              -0.000005225               1.000000000               0.000000129              -0.000005820               1.000000000               0.000000145              -0.000006115               1.000000000               0.000000105              -0.000006376               1.000000000               0.000000086              -0.000006656               1.000000000               0.000000059              -0.000006939               1.000000000               0.000000091              -0.000007389               1.000000000               0.000000289              -0.000008036               1.000000000               0.000000703              -0.000008914               1.000000000               0.000001421              -0.000010052               1.000000000               0.000002523              -0.000011435               1.000000000               0.000004055              -0.000013055               1.000000000              -0.000002185              -0.000008363               1.000000000              -0.000000737              -0.000007683               1.000000000              -0.000000235              -0.000007723               1.000000000              -0.000000098              -0.000008225               1.000000000              -0.000000039              -0.000009229               1.000000000               0.000000028              -0.000010455               1.000000000               0.000000146              -0.000011578               1.000000000               0.000000233              -0.000012239               1.000000000               0.000000332              -0.000012902               1.000000000               0.000000472              -0.000013627               1.000000000               0.000000708              -0.000014416               1.000000000               0.000001166              -0.000015500               1.000000000               0.000001892              -0.000016929               1.000000000               0.000002900              -0.000018777               1.000000000               0.000004243              -0.000021090               1.000000000               0.000005979              -0.000023873               1.000000000               0.000008143              -0.000027119               1.000000000              -0.000001936              -0.000012446               1.000000000              -0.000000753              -0.000011423               1.000000000              -0.000000366              -0.000011497               1.000000000              -0.000000239              -0.000012345               1.000000000              -0.000000099              -0.000013850               1.000000000               0.000000112              -0.000015629               1.000000000               0.000000311              -0.000017289               1.000000000               0.000000455              -0.000018480               1.000000000               0.000000639              -0.000019793               1.000000000               0.000001054              -0.000021249               1.000000000               0.000001809              -0.000022915               1.000000000               0.000002933              -0.000024986               1.000000000               0.000004484              -0.000027516               1.000000000               0.000006428              -0.000030603               1.000000000               0.000008748              -0.000034297               1.000000000               0.000011497              -0.000038645               1.000000000               0.000014660              -0.000043693               1.000000000              -0.000001689              -0.000016466               1.000000000              -0.000000828              -0.000015027               1.000000000              -0.000000599              -0.000015198               1.000000000              -0.000000466              -0.000016474               1.000000000              -0.000000133              -0.000018510               1.000000000               0.000000232              -0.000020924               1.000000000               0.000000575              -0.000023149               1.000000000               0.000000975              -0.000025049               1.000000000               0.000001552              -0.000027266               1.000000000               0.000002473              -0.000029852               1.000000000               0.000003800              -0.000032842               1.000000000               0.000005639              -0.000036401               1.000000000               0.000008021              -0.000040572               1.000000000               0.000010870              -0.000045397               1.000000000               0.000014194              -0.000050933               1.000000000               0.000017998              -0.000057208               1.000000000               0.000022224              -0.000064260               1.000000000              -0.000001423              -0.000020376               1.000000000              -0.000001048              -0.000018546               1.000000000              -0.000000979              -0.000018887               1.000000000              -0.000000710              -0.000020663               1.000000000              -0.000000193              -0.000023351               1.000000000               0.000000450              -0.000026492               1.000000000               0.000001151              -0.000029463               1.000000000               0.000001842              -0.000032469               1.000000000               0.000002813              -0.000035956               1.000000000               0.000004278              -0.000040093               1.000000000               0.000006301              -0.000044831               1.000000000               0.000008933              -0.000050304               1.000000000               0.000012130              -0.000056547               1.000000000               0.000015845              -0.000063557               1.000000000               0.000020075              -0.000071370               1.000000000               0.000024820              -0.000079951               1.000000000               0.000030016              -0.000089281               1.000000000              -0.000001164              -0.000024141               1.000000000              -0.000001400              -0.000021974               1.000000000              -0.000001403              -0.000022608               1.000000000              -0.000000945              -0.000025001               1.000000000              -0.000000113              -0.000028467               1.000000000               0.000000821              -0.000032533               1.000000000               0.000001664              -0.000036806               1.000000000               0.000002681              -0.000041203               1.000000000               0.000004160              -0.000046441               1.000000000               0.000006277              -0.000052455               1.000000000               0.000009036              -0.000059260               1.000000000               0.000012480              -0.000066932               1.000000000               0.000016487              -0.000075495               1.000000000               0.000021008              -0.000084957               1.000000000               0.000026098              -0.000095225               1.000000000               0.000031685              -0.000106281               1.000000000               0.000037721              -0.000118074               1.000000000              -0.000001033              -0.000027808               1.000000000              -0.000001825              -0.000025317               1.000000000              -0.000001814              -0.000026373               1.000000000              -0.000001093              -0.000029534               1.000000000               0.000000005              -0.000034077               1.000000000               0.000001132              -0.000039433               1.000000000               0.000002313              -0.000045136               1.000000000               0.000003747              -0.000051278               1.000000000               0.000005755              -0.000058560               1.000000000               0.000008505              -0.000066748               1.000000000               0.000011960              -0.000075808               1.000000000               0.000016058              -0.000085956               1.000000000               0.000020725              -0.000097089               1.000000000               0.000026006              -0.000109171               1.000000000               0.000031867              -0.000122175               1.000000000               0.000038222              -0.000136004               1.000000000               0.000045056              -0.000150608               1.000000000              -0.000000940              -0.000031264               1.000000000              -0.000002308              -0.000028642               1.000000000              -0.000002186              -0.000030249               1.000000000              -0.000001116              -0.000034365               1.000000000               0.000000270              -0.000040158               1.000000000               0.000001744              -0.000046981               1.000000000               0.000003162              -0.000054355               1.000000000               0.000004858              -0.000062597               1.000000000               0.000007403              -0.000072036               1.000000000               0.000010731              -0.000082552               1.000000000               0.000014754              -0.000094162               1.000000000               0.000019368              -0.000107033               1.000000000               0.000024618              -0.000121111               1.000000000               0.000030504              -0.000136268               1.000000000               0.000036922              -0.000152554               1.000000000               0.000043865              -0.000169820               1.000000000               0.000051170              -0.000187747               1.000000000              -0.000000767              -0.000034586               1.000000000              -0.000002624              -0.000032121               1.000000000              -0.000002622              -0.000033377               1.000000000              -0.000001651              -0.000037139               1.000000000              -0.000000263              -0.000042607               1.000000000               0.000001271              -0.000049351               1.000000000               0.000002573              -0.000056756               1.000000000               0.000003841              -0.000064830               1.000000000               0.000005575              -0.000073840               1.000000000               0.000008045              -0.000083838               1.000000000               0.000010974              -0.000094769               1.000000000               0.000014443              -0.000106734               1.000000000               0.000018435              -0.000119774               1.000000000               0.000022880              -0.000133952               1.000000000               0.000027816              -0.000149079               1.000000000               0.000033235              -0.000165341               1.000000000               0.000039053              -0.000182532               1.000000000              -0.000000686              -0.000037780               1.000000000              -0.000002794              -0.000035606               1.000000000              -0.000002907              -0.000036666               1.000000000              -0.000002060              -0.000040015               1.000000000              -0.000000820              -0.000045212               1.000000000               0.000000597              -0.000051711               1.000000000               0.000001881              -0.000059016               1.000000000               0.000002879              -0.000067000               1.000000000               0.000004040              -0.000075771               1.000000000               0.000005720              -0.000085420               1.000000000               0.000007817              -0.000095899               1.000000000               0.000010325              -0.000107197               1.000000000               0.000013229              -0.000119403               1.000000000               0.000016447              -0.000132603               1.000000000               0.000020020              -0.000146760               1.000000000               0.000023950              -0.000161850               1.000000000               0.000028314              -0.000177815               1.000000000              -0.000000614              -0.000040718               1.000000000              -0.000002734              -0.000038950               1.000000000              -0.000002979              -0.000039945               1.000000000              -0.000002387              -0.000043040               1.000000000              -0.000001369              -0.000047911               1.000000000              -0.000000107              -0.000054019               1.000000000               0.000001082              -0.000061118               1.000000000               0.000002027              -0.000068962               1.000000000               0.000002875              -0.000077629               1.000000000               0.000003933              -0.000087080               1.000000000               0.000005320              -0.000097340               1.000000000               0.000006995              -0.000108255               1.000000000               0.000008951              -0.000119897               1.000000000               0.000011147              -0.000132345               1.000000000               0.000013515              -0.000145626               1.000000000               0.000016107              -0.000159732               1.000000000               0.000018981              -0.000174693               1.000000000              -0.000000470              -0.000043241               1.000000000              -0.000002491              -0.000042061               1.000000000              -0.000002861              -0.000043100               1.000000000              -0.000002481              -0.000046004               1.000000000              -0.000001672              -0.000050456               1.000000000              -0.000000649              -0.000056181               1.000000000               0.000000380              -0.000063062               1.000000000               0.000001254              -0.000070851               1.000000000               0.000001936              -0.000079423               1.000000000               0.000002600              -0.000088737               1.000000000               0.000003438              -0.000098797               1.000000000               0.000004432              -0.000109520               1.000000000               0.000005611              -0.000120860               1.000000000               0.000006961              -0.000132811               1.000000000               0.000008406              -0.000145499               1.000000000               0.000009945              -0.000158961               1.000000000               0.000011512              -0.000173198               1.000000000              -0.000000328              -0.000045324               1.000000000              -0.000002078              -0.000044756               1.000000000              -0.000002467              -0.000045876               1.000000000              -0.000002246              -0.000048622               1.000000000              -0.000001706              -0.000052790               1.000000000              -0.000000969              -0.000058263               1.000000000              -0.000000104              -0.000064873               1.000000000               0.000000666              -0.000072486               1.000000000               0.000001214              -0.000080918               1.000000000               0.000001596              -0.000090112               1.000000000               0.000002053              -0.000100038               1.000000000               0.000002590              -0.000110669               1.000000000               0.000003205              -0.000121900               1.000000000               0.000003928              -0.000133634               1.000000000               0.000004720              -0.000145997               1.000000000               0.000005495              -0.000159017               1.000000000               0.000006206              -0.000172657               1.000000000              -0.000000211              -0.000046875               1.000000000              -0.000001467              -0.000046792               1.000000000              -0.000001808              -0.000048035               1.000000000              -0.000001735              -0.000050721               1.000000000              -0.000001418              -0.000054725               1.000000000              -0.000000886              -0.000059980               1.000000000              -0.000000296              -0.000066376               1.000000000               0.000000244              -0.000073785               1.000000000               0.000000634              -0.000082057               1.000000000               0.000000872              -0.000091148               1.000000000               0.000001095              -0.000100996               1.000000000               0.000001354              -0.000111545               1.000000000               0.000001619              -0.000122658               1.000000000               0.000001937              -0.000134316               1.000000000               0.000002319              -0.000146507               1.000000000               0.000002673              -0.000159226               1.000000000               0.000003001              -0.000172485               1.000000000              -0.000000097              -0.000047813               1.000000000              -0.000000745              -0.000048063               1.000000000              -0.000000970              -0.000049426               1.000000000              -0.000000953              -0.000052080               1.000000000              -0.000000775              -0.000055984               1.000000000              -0.000000535              -0.000061102               1.000000000              -0.000000239              -0.000067332               1.000000000               0.000000048              -0.000074586               1.000000000               0.000000263              -0.000082791               1.000000000               0.000000380              -0.000091809               1.000000000               0.000000455              -0.000101548               1.000000000               0.000000544              -0.000111996               1.000000000               0.000000641              -0.000123000               1.000000000               0.000000762              -0.000134590               1.000000000               0.000000906              -0.000146647               1.000000000               0.000001056              -0.000159167               1.000000000               0.000001227              -0.000172241               1.000000000              -0.000000000              -0.000048144               1.000000000              -0.000000000              -0.000048525               1.000000000              -0.000000000              -0.000049908               1.000000000               0.000000000              -0.000052525               1.000000000              -0.000000000              -0.000056430               1.000000000               0.000000000              -0.000061502               1.000000000               0.000000000              -0.000067682               1.000000000               0.000000000              -0.000074895               1.000000000              -0.000000000              -0.000083032               1.000000000              -0.000000000              -0.000091995               1.000000000              -0.000000000              -0.000101712               1.000000000              -0.000000000              -0.000112126               1.000000000              -0.000000000              -0.000123071               1.000000000               0.000000000              -0.000134625               1.000000000               0.000000000              -0.000146623               1.000000000               0.000000000              -0.000159059               1.000000000              -0.000000000              -0.000172072               1.000000000              -0.000002348               0.000000000               1.000000000              -0.000000755               0.000000000               1.000000000              -0.000000156               0.000000000               1.000000000              -0.000000016               0.000000000               1.000000000              -0.000000026              -0.000000000               1.000000000               0.000000007              -0.000000000               1.000000000               0.000000084              -0.000000000               1.000000000               0.000000158              -0.000000000               1.000000000               0.000000139               0.000000000               1.000000000               0.000000002               0.000000000               1.000000000              -0.000000196               0.000000000               1.000000000              -0.000000362              -0.000000000               1.000000000              -0.000000421              -0.000000000               1.000000000              -0.000000264              -0.000000000               1.000000000               0.000000221              -0.000000000               1.000000000               0.000001095              -0.000000000               1.000000000               0.000002417              -0.000000000               1.000000000              -0.000002327               0.000004204               1.000000000              -0.000000745               0.000003841               1.000000000              -0.000000163               0.000003890               1.000000000              -0.000000043               0.000004126               1.000000000              -0.000000039               0.000004632               1.000000000               0.000000025               0.000005225               1.000000000               0.000000129               0.000005820               1.000000000               0.000000145               0.000006115               1.000000000               0.000000105               0.000006376               1.000000000               0.000000086               0.000006656               1.000000000               0.000000059               0.000006939               1.000000000               0.000000091               0.000007389               1.000000000               0.000000289               0.000008036               1.000000000               0.000000703               0.000008914               1.000000000               0.000001421               0.000010052               1.000000000               0.000002523               0.000011435               1.000000000               0.000004055               0.000013055               1.000000000              -0.000002185               0.000008363               1.000000000              -0.000000737               0.000007683               1.000000000              -0.000000235               0.000007723               1.000000000              -0.000000098               0.000008225               1.000000000              -0.000000039               0.000009229               1.000000000               0.000000028               0.000010455               1.000000000               0.000000146               0.000011578               1.000000000               0.000000233               0.000012239               1.000000000               0.000000332               0.000012902               1.000000000               0.000000472               0.000013627               1.000000000               0.000000708               0.000014416               1.000000000               0.000001166               0.000015500               1.000000000               0.000001892               0.000016929               1.000000000               0.000002900               0.000018777               1.000000000               0.000004243               0.000021090               1.000000000               0.000005979               0.000023873               1.000000000               0.000008143               0.000027119               1.000000000              -0.000001936               0.000012446               1.000000000              -0.000000753               0.000011423               1.000000000              -0.000000366               0.000011497               1.000000000              -0.000000239               0.000012345               1.000000000              -0.000000099               0.000013850               1.000000000               0.000000112               0.000015629               1.000000000               0.000000311               0.000017289               1.000000000               0.000000455               0.000018480               1.000000000               0.000000639               0.000019793               1.000000000               0.000001054               0.000021249               1.000000000               0.000001809               0.000022915               1.000000000               0.000002933               0.000024986               1.000000000               0.000004484               0.000027516               1.000000000               0.000006428               0.000030603               1.000000000               0.000008748               0.000034297               1.000000000               0.000011497               0.000038645               1.000000000               0.000014660               0.000043693               1.000000000              -0.000001689               0.000016466               1.000000000              -0.000000828               0.000015027               1.000000000              -0.000000599               0.000015198               1.000000000              -0.000000466               0.000016474               1.000000000              -0.000000133               0.000018510               1.000000000               0.000000232               0.000020924               1.000000000               0.000000575               0.000023149               1.000000000               0.000000975               0.000025049               1.000000000               0.000001552               0.000027266               1.000000000               0.000002473               0.000029852               1.000000000               0.000003800               0.000032842               1.000000000               0.000005639               0.000036401               1.000000000               0.000008021               0.000040572               1.000000000               0.000010870               0.000045397               1.000000000               0.000014194               0.000050933               1.000000000               0.000017998               0.000057208               1.000000000               0.000022224               0.000064260               1.000000000              -0.000001423               0.000020376               1.000000000              -0.000001048               0.000018546               1.000000000              -0.000000979               0.000018887               1.000000000              -0.000000710               0.000020663               1.000000000              -0.000000193               0.000023351               1.000000000               0.000000450               0.000026492               1.000000000               0.000001151               0.000029463               1.000000000               0.000001842               0.000032469               1.000000000               0.000002813               0.000035956               1.000000000               0.000004278               0.000040093               1.000000000               0.000006301               0.000044831               1.000000000               0.000008933               0.000050304               1.000000000               0.000012130               0.000056547               1.000000000               0.000015845               0.000063557               1.000000000               0.000020075               0.000071370               1.000000000               0.000024820               0.000079951               1.000000000               0.000030016               0.000089281               1.000000000              -0.000001164               0.000024141               1.000000000              -0.000001400               0.000021974               1.000000000              -0.000001403               0.000022608               1.000000000              -0.000000945               0.000025001               1.000000000              -0.000000113               0.000028467               1.000000000               0.000000821               0.000032533               1.000000000               0.000001664               0.000036806               1.000000000               0.000002681               0.000041203               1.000000000               0.000004160               0.000046441               1.000000000               0.000006277               0.000052455               1.000000000               0.000009036               0.000059260               1.000000000               0.000012480               0.000066932               1.000000000               0.000016487               0.000075495               1.000000000               0.000021008               0.000084957               1.000000000               0.000026098               0.000095225               1.000000000               0.000031685               0.000106281               1.000000000               0.000037721               0.000118074               1.000000000              -0.000001033               0.000027808               1.000000000              -0.000001825               0.000025317               1.000000000              -0.000001814               0.000026373               1.000000000              -0.000001093               0.000029534               1.000000000               0.000000005               0.000034077               1.000000000               0.000001132               0.000039433               1.000000000               0.000002313               0.000045136               1.000000000               0.000003747               0.000051278               1.000000000               0.000005755               0.000058560               1.000000000               0.000008505               0.000066748               1.000000000               0.000011960               0.000075808               1.000000000               0.000016058               0.000085956               1.000000000               0.000020725               0.000097089               1.000000000               0.000026006               0.000109171               1.000000000               0.000031867               0.000122175               1.000000000               0.000038222               0.000136004               1.000000000               0.000045056               0.000150608               1.000000000              -0.000000940               0.000031264               1.000000000              -0.000002308               0.000028642               1.000000000              -0.000002186               0.000030249               1.000000000              -0.000001116               0.000034365               1.000000000               0.000000270               0.000040158               1.000000000               0.000001744               0.000046981               1.000000000               0.000003162               0.000054355               1.000000000               0.000004858               0.000062597               1.000000000               0.000007403               0.000072036               1.000000000               0.000010731               0.000082552               1.000000000               0.000014754               0.000094162               1.000000000               0.000019368               0.000107033               1.000000000               0.000024618               0.000121111               1.000000000               0.000030504               0.000136268               1.000000000               0.000036922               0.000152554               1.000000000               0.000043865               0.000169820               1.000000000               0.000051170               0.000187747               1.000000000              -0.000000767               0.000034586               1.000000000              -0.000002624               0.000032121               1.000000000              -0.000002622               0.000033377               1.000000000              -0.000001651               0.000037139               1.000000000              -0.000000263               0.000042607               1.000000000               0.000001271               0.000049351               1.000000000               0.000002573               0.000056756               1.000000000               0.000003841               0.000064830               1.000000000               0.000005575               0.000073840               1.000000000               0.000008045               0.000083838               1.000000000               0.000010974               0.000094769               1.000000000               0.000014443               0.000106734               1.000000000               0.000018435               0.000119774               1.000000000               0.000022880               0.000133952               1.000000000               0.000027816               0.000149079               1.000000000               0.000033235               0.000165341               1.000000000               0.000039053               0.000182532               1.000000000              -0.000000686               0.000037780               1.000000000              -0.000002794               0.000035606               1.000000000              -0.000002907               0.000036666               1.000000000              -0.000002060               0.000040015               1.000000000              -0.000000820               0.000045212               1.000000000               0.000000597               0.000051711               1.000000000               0.000001881               0.000059016               1.000000000               0.000002879               0.000067000               1.000000000               0.000004040               0.000075771               1.000000000               0.000005720               0.000085420               1.000000000               0.000007817               0.000095899               1.000000000               0.000010325               0.000107197               1.000000000               0.000013229               0.000119403               1.000000000               0.000016447               0.000132603               1.000000000               0.000020020               0.000146760               1.000000000               0.000023950               0.000161850               1.000000000               0.000028314               0.000177815               1.000000000              -0.000000614               0.000040718               1.000000000              -0.000002734               0.000038950               1.000000000              -0.000002979               0.000039945               1.000000000              -0.000002387               0.000043040               1.000000000              -0.000001369               0.000047911               1.000000000              -0.000000107               0.000054019               1.000000000               0.000001082               0.000061118               1.000000000               0.000002027               0.000068962               1.000000000               0.000002875               0.000077629               1.000000000               0.000003933               0.000087080               1.000000000               0.000005320               0.000097340               1.000000000               0.000006995               0.000108255               1.000000000               0.000008951               0.000119897               1.000000000               0.000011147               0.000132345               1.000000000               0.000013515               0.000145626               1.000000000               0.000016107               0.000159732               1.000000000               0.000018981               0.000174693               1.000000000              -0.000000470               0.000043241               1.000000000              -0.000002491               0.000042061               1.000000000              -0.000002861               0.000043100               1.000000000              -0.000002481               0.000046004               1.000000000              -0.000001672               0.000050456               1.000000000              -0.000000649               0.000056181               1.000000000               0.000000380               0.000063062               1.000000000               0.000001254               0.000070851               1.000000000               0.000001936               0.000079423               1.000000000               0.000002600               0.000088737               1.000000000               0.000003438               0.000098797               1.000000000               0.000004432               0.000109520               1.000000000               0.000005611               0.000120860               1.000000000               0.000006961               0.000132811               1.000000000               0.000008406               0.000145499               1.000000000               0.000009945               0.000158961               1.000000000               0.000011512               0.000173198               1.000000000              -0.000000328               0.000045324               1.000000000              -0.000002078               0.000044756               1.000000000              -0.000002467               0.000045876               1.000000000              -0.000002246               0.000048622               1.000000000              -0.000001706               0.000052790               1.000000000              -0.000000969               0.000058263               1.000000000              -0.000000104               0.000064873               1.000000000               0.000000666               0.000072486               1.000000000               0.000001214               0.000080918               1.000000000               0.000001596               0.000090112               1.000000000               0.000002053               0.000100038               1.000000000               0.000002590               0.000110669               1.000000000               0.000003205               0.000121900               1.000000000               0.000003928               0.000133634               1.000000000               0.000004720               0.000145997               1.000000000               0.000005495               0.000159017               1.000000000               0.000006206               0.000172657               1.000000000              -0.000000211               0.000046875               1.000000000              -0.000001467               0.000046792               1.000000000              -0.000001808               0.000048035               1.000000000              -0.000001735               0.000050721               1.000000000              -0.000001418               0.000054725               1.000000000              -0.000000886               0.000059980               1.000000000              -0.000000296               0.000066376               1.000000000               0.000000244               0.000073785               1.000000000               0.000000634               0.000082057               1.000000000               0.000000872               0.000091148               1.000000000               0.000001095               0.000100996               1.000000000               0.000001354               0.000111545               1.000000000               0.000001619               0.000122658               1.000000000               0.000001937               0.000134316               1.000000000               0.000002319               0.000146507               1.000000000               0.000002673               0.000159226               1.000000000               0.000003001               0.000172485               1.000000000              -0.000000097               0.000047813               1.000000000              -0.000000745               0.000048063               1.000000000              -0.000000970               0.000049426               1.000000000              -0.000000953               0.000052080               1.000000000              -0.000000775               0.000055984               1.000000000              -0.000000535               0.000061102               1.000000000              -0.000000239               0.000067332               1.000000000               0.000000048               0.000074586               1.000000000               0.000000263               0.000082791               1.000000000               0.000000380               0.000091809               1.000000000               0.000000455               0.000101548               1.000000000               0.000000544               0.000111996               1.000000000               0.000000641               0.000123000               1.000000000               0.000000762               0.000134590               1.000000000               0.000000906               0.000146647               1.000000000               0.000001056               0.000159167               1.000000000               0.000001227               0.000172241               1.000000000               0.000000000               0.000048144               1.000000000              -0.000000000               0.000048525               1.000000000               0.000000000               0.000049908               1.000000000               0.000000000               0.000052525               1.000000000               0.000000000               0.000056430               1.000000000               0.000000000               0.000061502               1.000000000              -0.000000000               0.000067682               1.000000000              -0.000000000               0.000074895               1.000000000              -0.000000000               0.000083032               1.000000000              -0.000000000               0.000091995               1.000000000              -0.000000000               0.000101712               1.000000000              -0.000000000               0.000112126               1.000000000              -0.000000000               0.000123071               1.000000000              -0.000000000               0.000134625               1.000000000               0.000000000               0.000146623               1.000000000              -0.000000000               0.000159059               1.000000000              -0.000000000               0.000172072               1.000000000 </DataArray>
<DataArray type="Float64"                                    Name="stress"                                                      NumberOfComponents="10" format="ascii">
              0.000082242               0.000799225              -0.000000000              -0.000069062               0.000289427               0.000220364               0.000000000               0.000000000               0.000000000               0.000000000               0.000103727               0.000679713              -0.000000000              -0.000046066               0.000241924               0.000195858               0.000000000               0.000000000               0.000000000               0.000000000               0.000157940               0.000596152              -0.000000000              -0.000015291               0.000203812               0.000188521               0.000000000               0.000000000               0.000000000               0.000000000               0.000178818               0.000557918               0.000000000              -0.000002683               0.000186865               0.000184182               0.000000000               0.000000000               0.000000000               0.000000000               0.000180255               0.000547838               0.000000000              -0.000000884               0.000182906               0.000182021               0.000000000               0.000000000               0.000000000               0.000000000               0.000174899               0.000547334               0.000000000              -0.000002830               0.000183386               0.000180557               0.000000000               0.000000000               0.000000000               0.000000000               0.000173685               0.000545003               0.000000000              -0.000002994               0.000182664               0.000179670               0.000000000               0.000000000               0.000000000               0.000000000               0.000174417               0.000527862               0.000000000              -0.000000576               0.000176145               0.000175568               0.000000000               0.000000000               0.000000000               0.000000000               0.000177006               0.000509323               0.000000000               0.000002712               0.000168869               0.000171581               0.000000000               0.000000000               0.000000000               0.000000000               0.000178849               0.000493991               0.000000000               0.000005320               0.000162889               0.000168208               0.000000000               0.000000000               0.000000000               0.000000000               0.000175016               0.000481009               0.000000000               0.000005505               0.000158500               0.000164005               0.000000000               0.000000000               0.000000000               0.000000000               0.000163708               0.000475305              -0.000000000               0.000001977               0.000157774               0.000159752               0.000000000               0.000000000               0.000000000               0.000000000               0.000145073               0.000477889              -0.000000000              -0.000005334               0.000161073               0.000155739               0.000000000               0.000000000               0.000000000               0.000000000               0.000117719               0.000488074               0.000000000              -0.000016865               0.000168311               0.000151446               0.000000000               0.000000000               0.000000000               0.000000000               0.000082781               0.000505543               0.000000000              -0.000032150               0.000179229               0.000147079               0.000000000               0.000000000               0.000000000               0.000000000               0.000042846               0.000529371              -0.000000000              -0.000050104               0.000193157               0.000143053               0.000000000               0.000000000               0.000000000               0.000000000               0.000025106               0.000551320              -0.000000000              -0.000059500               0.000203605               0.000144105               0.000000000               0.000000000               0.000000000               0.000000000               0.000085917               0.000788313              -0.000063665              -0.000066320               0.000284875               0.000218555               0.000000000               0.000000000               0.000000000               0.000000000               0.000106243               0.000673768              -0.000042702              -0.000044380               0.000239380               0.000195001               0.000000000               0.000000000               0.000000000               0.000000000               0.000157675               0.000591402              -0.000020050              -0.000014797               0.000202064               0.000187267               0.000000000               0.000000000               0.000000000               0.000000000               0.000176921               0.000555383              -0.000007120              -0.000003077               0.000186152               0.000183074               0.000000000               0.000000000               0.000000000               0.000000000               0.000177886               0.000546504              -0.000000162              -0.000001606               0.000182702               0.000181096               0.000000000               0.000000000               0.000000000               0.000000000               0.000173053               0.000546951               0.000000547              -0.000003474               0.000183473               0.000179999               0.000000000               0.000000000               0.000000000               0.000000000               0.000173566               0.000543577              -0.000006280              -0.000002860               0.000182144               0.000179284               0.000000000               0.000000000               0.000000000               0.000000000               0.000175669               0.000528957              -0.000012260              -0.000000244               0.000176399               0.000176155               0.000000000               0.000000000               0.000000000               0.000000000               0.000174156               0.000513759              -0.000013101               0.000001089               0.000170888               0.000171977               0.000000000               0.000000000               0.000000000               0.000000000               0.000171370               0.000502099              -0.000015040               0.000001501               0.000166864               0.000168366               0.000000000               0.000000000               0.000000000               0.000000000               0.000165607               0.000494138              -0.000015588               0.000000335               0.000164599               0.000164934               0.000000000               0.000000000               0.000000000               0.000000000               0.000152365               0.000492014              -0.000014096              -0.000004365               0.000165458               0.000161093               0.000000000               0.000000000               0.000000000               0.000000000               0.000133434               0.000496950              -0.000012398              -0.000012081               0.000169675               0.000157594               0.000000000               0.000000000               0.000000000               0.000000000               0.000108739               0.000508985              -0.000009694              -0.000022846               0.000177275               0.000154429               0.000000000               0.000000000               0.000000000               0.000000000               0.000076621               0.000527071              -0.000006424              -0.000037151               0.000188072               0.000150921               0.000000000               0.000000000               0.000000000               0.000000000               0.000039240               0.000550827              -0.000003191              -0.000054138               0.000201653               0.000147515               0.000000000               0.000000000               0.000000000               0.000000000               0.000023189               0.000572598              -0.000002694              -0.000062879               0.000211824               0.000148945               0.000000000               0.000000000               0.000000000               0.000000000               0.000102187               0.000756847              -0.000121440              -0.000056286               0.000271042               0.000214756               0.000000000               0.000000000               0.000000000               0.000000000               0.000114843               0.000652381              -0.000081136              -0.000038481               0.000230285               0.000191804               0.000000000               0.000000000               0.000000000               0.000000000               0.000155809               0.000579305              -0.000037470              -0.000013985               0.000197761               0.000183777               0.000000000               0.000000000               0.000000000               0.000000000               0.000170205               0.000551915              -0.000012983              -0.000005162               0.000185691               0.000180528               0.000000000               0.000000000               0.000000000               0.000000000               0.000172440               0.000546325              -0.000000164              -0.000003626               0.000183315               0.000179689               0.000000000               0.000000000               0.000000000               0.000000000               0.000170585               0.000545966              -0.000000317              -0.000004276               0.000183412               0.000179136               0.000000000               0.000000000               0.000000000               0.000000000               0.000170613               0.000540977              -0.000012916              -0.000003642               0.000181538               0.000177896               0.000000000               0.000000000               0.000000000               0.000000000               0.000171431               0.000533551              -0.000022674              -0.000002407               0.000178651               0.000176244               0.000000000               0.000000000               0.000000000               0.000000000               0.000168051               0.000530610              -0.000023615              -0.000003307               0.000177970               0.000174663               0.000000000               0.000000000               0.000000000               0.000000000               0.000161133               0.000531452              -0.000025978              -0.000006007               0.000179151               0.000173145               0.000000000               0.000000000               0.000000000               0.000000000               0.000149154               0.000536387              -0.000026969              -0.000011115               0.000182499               0.000171384               0.000000000               0.000000000               0.000000000               0.000000000               0.000130930               0.000544867              -0.000025163              -0.000019009               0.000187957               0.000168948               0.000000000               0.000000000               0.000000000               0.000000000               0.000111096               0.000558031              -0.000022476              -0.000028093               0.000195373               0.000167280               0.000000000               0.000000000               0.000000000               0.000000000               0.000089655               0.000576150              -0.000018111              -0.000038398               0.000204847               0.000166449               0.000000000               0.000000000               0.000000000               0.000000000               0.000062760               0.000597809              -0.000012546              -0.000051191               0.000216331               0.000165140               0.000000000               0.000000000               0.000000000               0.000000000               0.000031491               0.000623705              -0.000006395              -0.000066154               0.000229951               0.000163797               0.000000000               0.000000000               0.000000000               0.000000000               0.000019630               0.000646694              -0.000005453              -0.000073475               0.000240054               0.000166579               0.000000000               0.000000000               0.000000000               0.000000000               0.000125984               0.000708896              -0.000166354              -0.000041368               0.000250086               0.000208718               0.000000000               0.000000000               0.000000000               0.000000000               0.000125288               0.000616033              -0.000110588              -0.000030021               0.000215349               0.000185328               0.000000000               0.000000000               0.000000000               0.000000000               0.000152596               0.000563412              -0.000049428              -0.000013203               0.000192203               0.000179000               0.000000000               0.000000000               0.000000000               0.000000000               0.000160134               0.000550179              -0.000016834              -0.000008722               0.000186298               0.000177576               0.000000000               0.000000000               0.000000000               0.000000000               0.000160859               0.000549291              -0.000002415              -0.000008339               0.000185875               0.000177536               0.000000000               0.000000000               0.000000000               0.000000000               0.000163920               0.000550606              -0.000004465              -0.000007356               0.000185985               0.000178630               0.000000000               0.000000000               0.000000000               0.000000000               0.000169187               0.000549009              -0.000019851              -0.000005181               0.000184728               0.000179547               0.000000000               0.000000000               0.000000000               0.000000000               0.000173713               0.000553958              -0.000030675              -0.000004102               0.000186018               0.000181916               0.000000000               0.000000000               0.000000000               0.000000000               0.000168752               0.000567120              -0.000032439              -0.000007608               0.000191574               0.000183966               0.000000000               0.000000000               0.000000000               0.000000000               0.000153677               0.000584854              -0.000036315              -0.000015478               0.000200109               0.000184631               0.000000000               0.000000000               0.000000000               0.000000000               0.000134035               0.000607880              -0.000038107              -0.000025722               0.000211199               0.000185477               0.000000000               0.000000000               0.000000000               0.000000000               0.000110847               0.000633951              -0.000036903              -0.000037676               0.000223874               0.000186198               0.000000000               0.000000000               0.000000000               0.000000000               0.000088580               0.000662885              -0.000034081              -0.000049643               0.000237507               0.000187864               0.000000000               0.000000000               0.000000000               0.000000000               0.000069145               0.000694241              -0.000028695              -0.000060851               0.000251695               0.000190844               0.000000000               0.000000000               0.000000000               0.000000000               0.000046968               0.000725963              -0.000021232              -0.000073132               0.000266363               0.000193230               0.000000000               0.000000000               0.000000000               0.000000000               0.000022367               0.000758458              -0.000011608              -0.000086419               0.000281623               0.000195204               0.000000000               0.000000000               0.000000000               0.000000000               0.000015381               0.000784028              -0.000009154              -0.000092235               0.000292085               0.000199850               0.000000000               0.000000000               0.000000000               0.000000000               0.000148268               0.000649019              -0.000197877              -0.000025527               0.000224847               0.000199320               0.000000000               0.000000000               0.000000000               0.000000000               0.000133153               0.000575316              -0.000129459              -0.000021982               0.000199097               0.000177115               0.000000000               0.000000000               0.000000000               0.000000000               0.000145575               0.000549692              -0.000055629              -0.000014121               0.000187936               0.000173815               0.000000000               0.000000000               0.000000000               0.000000000               0.000145800               0.000552291              -0.000020880              -0.000014361               0.000188882               0.000174521               0.000000000               0.000000000               0.000000000               0.000000000               0.000147438               0.000561920              -0.000006872              -0.000014951               0.000192289               0.000177338               0.000000000               0.000000000               0.000000000               0.000000000               0.000158831               0.000572325              -0.000011705              -0.000011979               0.000194766               0.000182787               0.000000000               0.000000000               0.000000000               0.000000000               0.000170391               0.000581016              -0.000029454              -0.000008730               0.000196580               0.000187850               0.000000000               0.000000000               0.000000000               0.000000000               0.000176682               0.000604217              -0.000040029              -0.000009271               0.000204494               0.000195223               0.000000000               0.000000000               0.000000000               0.000000000               0.000170555               0.000636571              -0.000041480              -0.000015613               0.000217393               0.000201779               0.000000000               0.000000000               0.000000000               0.000000000               0.000155361               0.000675489              -0.000044692              -0.000026176               0.000233886               0.000207710               0.000000000               0.000000000               0.000000000               0.000000000               0.000134213               0.000718294              -0.000045939              -0.000039457               0.000252581               0.000213125               0.000000000               0.000000000               0.000000000               0.000000000               0.000108278               0.000762371              -0.000043996              -0.000054692               0.000272352               0.000217660               0.000000000               0.000000000               0.000000000               0.000000000               0.000084952               0.000808207              -0.000040104              -0.000069169               0.000292456               0.000223287               0.000000000               0.000000000               0.000000000               0.000000000               0.000064324               0.000853789              -0.000033516              -0.000082602               0.000312127               0.000229526               0.000000000               0.000000000               0.000000000               0.000000000               0.000041410               0.000896614              -0.000024610              -0.000096548               0.000331051               0.000234503               0.000000000               0.000000000               0.000000000               0.000000000               0.000018838               0.000936251              -0.000013314              -0.000109967               0.000348736               0.000238769               0.000000000               0.000000000               0.000000000               0.000000000               0.000013780               0.000963727              -0.000010048              -0.000115298               0.000359672               0.000244374               0.000000000               0.000000000               0.000000000               0.000000000               0.000172270               0.000583194              -0.000214511              -0.000008298               0.000197162               0.000188864               0.000000000               0.000000000               0.000000000               0.000000000               0.000139522               0.000536136              -0.000138970              -0.000014696               0.000183609               0.000168913               0.000000000               0.000000000               0.000000000               0.000000000               0.000134701               0.000543396              -0.000060886              -0.000017411               0.000186934               0.000169523               0.000000000               0.000000000               0.000000000               0.000000000               0.000132704               0.000565950              -0.000027268              -0.000020980               0.000195641               0.000174662               0.000000000               0.000000000               0.000000000               0.000000000               0.000139409               0.000590835              -0.000015055              -0.000021576               0.000204135               0.000182559               0.000000000               0.000000000               0.000000000               0.000000000               0.000156069               0.000616522              -0.000021766              -0.000018539               0.000211685               0.000193146               0.000000000               0.000000000               0.000000000               0.000000000               0.000176059               0.000651273              -0.000037932              -0.000015387               0.000222218               0.000206831               0.000000000               0.000000000               0.000000000               0.000000000               0.000186556               0.000698349              -0.000045566              -0.000017335               0.000238559               0.000221224               0.000000000               0.000000000               0.000000000               0.000000000               0.000178649               0.000751851              -0.000046118              -0.000026988               0.000259610               0.000232623               0.000000000               0.000000000               0.000000000               0.000000000               0.000160721               0.000806754              -0.000047981              -0.000040574               0.000282440               0.000241866               0.000000000               0.000000000               0.000000000               0.000000000               0.000137962               0.000862317              -0.000048828              -0.000056054               0.000306121               0.000250067               0.000000000               0.000000000               0.000000000               0.000000000               0.000113703               0.000917435              -0.000045949              -0.000072041               0.000329822               0.000257782               0.000000000               0.000000000               0.000000000               0.000000000               0.000092193               0.000972217              -0.000040495              -0.000086955               0.000353054               0.000266099               0.000000000               0.000000000               0.000000000               0.000000000               0.000070297               0.001024494              -0.000032827              -0.000101700               0.000375395               0.000273695               0.000000000               0.000000000               0.000000000               0.000000000               0.000045389               0.001071069              -0.000023342              -0.000116862               0.000395974               0.000279111               0.000000000               0.000000000               0.000000000               0.000000000               0.000020958               0.001112183              -0.000012278              -0.000131163               0.000414445               0.000283282               0.000000000               0.000000000               0.000000000               0.000000000               0.000014703               0.001139569              -0.000009286              -0.000136932               0.000425497               0.000288564               0.000000000               0.000000000               0.000000000               0.000000000               0.000188964               0.000518056              -0.000216630               0.000006104               0.000170649               0.000176753               0.000000000               0.000000000               0.000000000               0.000000000               0.000142526               0.000499890              -0.000142157              -0.000009039               0.000169641               0.000160602               0.000000000               0.000000000               0.000000000               0.000000000               0.000125338               0.000545515              -0.000067356              -0.000021187               0.000188899               0.000167711               0.000000000               0.000000000               0.000000000               0.000000000               0.000124413               0.000593422              -0.000036604              -0.000027523               0.000206980               0.000179457               0.000000000               0.000000000               0.000000000               0.000000000               0.000139876               0.000642573              -0.000026084              -0.000027868               0.000223478               0.000195610               0.000000000               0.000000000               0.000000000               0.000000000               0.000168444               0.000694381              -0.000029626              -0.000023631               0.000239335               0.000215704               0.000000000               0.000000000               0.000000000               0.000000000               0.000193948               0.000752011              -0.000043341              -0.000021271               0.000257758               0.000236487               0.000000000               0.000000000               0.000000000               0.000000000               0.000200993               0.000816169              -0.000049940              -0.000026649               0.000280937               0.000254288               0.000000000               0.000000000               0.000000000               0.000000000               0.000189734               0.000885748              -0.000050463              -0.000039568               0.000308436               0.000268868               0.000000000               0.000000000               0.000000000               0.000000000               0.000168741               0.000950208              -0.000052567              -0.000055498               0.000335232               0.000279734               0.000000000               0.000000000               0.000000000               0.000000000               0.000143462               0.001011076              -0.000051241              -0.000072586               0.000361217               0.000288631               0.000000000               0.000000000               0.000000000               0.000000000               0.000118756               0.001071203              -0.000045781              -0.000089367               0.000386853               0.000297486               0.000000000               0.000000000               0.000000000               0.000000000               0.000097377               0.001129086              -0.000037724              -0.000104619               0.000411231               0.000306612               0.000000000               0.000000000               0.000000000               0.000000000               0.000073029               0.001181713              -0.000029013              -0.000120328               0.000434010               0.000313682               0.000000000               0.000000000               0.000000000               0.000000000               0.000047108               0.001228869              -0.000020040              -0.000135943               0.000454933               0.000318990               0.000000000               0.000000000               0.000000000               0.000000000               0.000023196               0.001271318              -0.000010067              -0.000150216               0.000473840               0.000323624               0.000000000               0.000000000               0.000000000               0.000000000               0.000016792               0.001299911              -0.000008110              -0.000156192               0.000485363               0.000329172               0.000000000               0.000000000               0.000000000               0.000000000               0.000192467               0.000453108              -0.000209954               0.000015536               0.000145856               0.000161392               0.000000000               0.000000000               0.000000000               0.000000000               0.000140799               0.000471420              -0.000142600              -0.000006128               0.000159181               0.000153053               0.000000000               0.000000000               0.000000000               0.000000000               0.000119549               0.000560037              -0.000075442              -0.000025174               0.000195068               0.000169895               0.000000000               0.000000000               0.000000000               0.000000000               0.000128282               0.000638422              -0.000047688              -0.000031697               0.000223371               0.000191674               0.000000000               0.000000000               0.000000000               0.000000000               0.000156476               0.000714379              -0.000036650              -0.000030619               0.000248330               0.000217711               0.000000000               0.000000000               0.000000000               0.000000000               0.000193157               0.000786245              -0.000040075              -0.000025847               0.000270695               0.000244848               0.000000000               0.000000000               0.000000000               0.000000000               0.000218072               0.000856008              -0.000050885              -0.000025224               0.000293741               0.000268517               0.000000000               0.000000000               0.000000000               0.000000000               0.000219146               0.000934159              -0.000054130              -0.000034590               0.000322913               0.000288323               0.000000000               0.000000000               0.000000000               0.000000000               0.000200794               0.001009072              -0.000052770              -0.000050836               0.000353300               0.000302463               0.000000000               0.000000000               0.000000000               0.000000000               0.000175250               0.001077020              -0.000053812              -0.000068909               0.000381973               0.000313064               0.000000000               0.000000000               0.000000000               0.000000000               0.000149712               0.001143210              -0.000049085              -0.000086759               0.000409986               0.000323227               0.000000000               0.000000000               0.000000000               0.000000000               0.000124635               0.001209031              -0.000039748              -0.000104391               0.000437803               0.000333413               0.000000000               0.000000000               0.000000000               0.000000000               0.000098547               0.001271803              -0.000030995              -0.000122020               0.000464603               0.000342583               0.000000000               0.000000000               0.000000000               0.000000000               0.000070594               0.001329992              -0.000021966              -0.000139776               0.000489918               0.000350142               0.000000000               0.000000000               0.000000000               0.000000000               0.000045016               0.001386836              -0.000013534              -0.000156473               0.000514432               0.000357959               0.000000000               0.000000000               0.000000000               0.000000000               0.000022351               0.001440512              -0.000006560              -0.000171682               0.000537393               0.000365711               0.000000000               0.000000000               0.000000000               0.000000000               0.000015316               0.001474956              -0.000006402              -0.000178625               0.000551189               0.000372563               0.000000000               0.000000000               0.000000000               0.000000000               0.000197059               0.000393819              -0.000196826               0.000024669               0.000123049               0.000147718               0.000000000               0.000000000               0.000000000               0.000000000               0.000143041               0.000450876              -0.000143006              -0.000002719               0.000151197               0.000148478               0.000000000               0.000000000               0.000000000               0.000000000               0.000121485               0.000579753              -0.000087714              -0.000026912               0.000202220               0.000175307               0.000000000               0.000000000               0.000000000               0.000000000               0.000138767               0.000684135              -0.000061514              -0.000033479               0.000239202               0.000205723               0.000000000               0.000000000               0.000000000               0.000000000               0.000174915               0.000776429              -0.000048724              -0.000031461               0.000269294               0.000237833               0.000000000               0.000000000               0.000000000               0.000000000               0.000215874               0.000857146              -0.000048129              -0.000026191               0.000294443               0.000268252               0.000000000               0.000000000               0.000000000               0.000000000               0.000239600               0.000933708              -0.000050148              -0.000026863               0.000320187               0.000293324               0.000000000               0.000000000               0.000000000               0.000000000               0.000234503               0.001016886              -0.000050600              -0.000039172               0.000352016               0.000312844               0.000000000               0.000000000               0.000000000               0.000000000               0.000210182               0.001092866              -0.000050095              -0.000057790               0.000383549               0.000325758               0.000000000               0.000000000               0.000000000               0.000000000               0.000185208               0.001164158              -0.000048756              -0.000076067               0.000413404               0.000337338               0.000000000               0.000000000               0.000000000               0.000000000               0.000161405               0.001238152              -0.000041579              -0.000094242               0.000444127               0.000349885               0.000000000               0.000000000               0.000000000               0.000000000               0.000138254               0.001312758              -0.000031407              -0.000112249               0.000474998               0.000362749               0.000000000               0.000000000               0.000000000               0.000000000               0.000113256               0.001384371              -0.000022771              -0.000130575               0.000504977               0.000374402               0.000000000               0.000000000               0.000000000               0.000000000               0.000088161               0.001455043              -0.000014062              -0.000148820               0.000534616               0.000385796               0.000000000               0.000000000               0.000000000               0.000000000               0.000065486               0.001525051              -0.000005783              -0.000166074               0.000563703               0.000397629               0.000000000               0.000000000               0.000000000               0.000000000               0.000046198               0.001590780              -0.000001203              -0.000181523               0.000590762               0.000409240               0.000000000               0.000000000               0.000000000               0.000000000               0.000035787               0.001624343              -0.000000256              -0.000189622               0.000604650               0.000415027               0.000000000               0.000000000               0.000000000               0.000000000               0.000198477               0.000336971              -0.000180302               0.000032307               0.000101553               0.000133861               0.000000000               0.000000000               0.000000000               0.000000000               0.000150578               0.000417528              -0.000146220               0.000004276               0.000137749               0.000142025               0.000000000               0.000000000               0.000000000               0.000000000               0.000133249               0.000572624              -0.000107683              -0.000021610               0.000198076               0.000176466               0.000000000               0.000000000               0.000000000               0.000000000               0.000151229               0.000694747              -0.000081875              -0.000030133               0.000241624               0.000211492               0.000000000               0.000000000               0.000000000               0.000000000               0.000184463               0.000802818              -0.000065972              -0.000031179               0.000277996               0.000246818               0.000000000               0.000000000               0.000000000               0.000000000               0.000220028               0.000889292              -0.000055880              -0.000028651               0.000305978               0.000277327               0.000000000               0.000000000               0.000000000               0.000000000               0.000246263               0.000962406              -0.000048375              -0.000027952               0.000330116               0.000302164               0.000000000               0.000000000               0.000000000               0.000000000               0.000251081               0.001040490              -0.000045270              -0.000035906               0.000358795               0.000322889               0.000000000               0.000000000               0.000000000               0.000000000               0.000235631               0.001118870              -0.000046705              -0.000051497               0.000390119               0.000338622               0.000000000               0.000000000               0.000000000               0.000000000               0.000215176               0.001193015              -0.000046262              -0.000068436               0.000420480               0.000352044               0.000000000               0.000000000               0.000000000               0.000000000               0.000194998               0.001267459              -0.000041200              -0.000085308               0.000450918               0.000365610               0.000000000               0.000000000               0.000000000               0.000000000               0.000176242               0.001344227              -0.000034858              -0.000101937               0.000482050               0.000380113               0.000000000               0.000000000               0.000000000               0.000000000               0.000158115               0.001423501              -0.000026507              -0.000118644               0.000514044               0.000395400               0.000000000               0.000000000               0.000000000               0.000000000               0.000137644               0.001499605              -0.000017834              -0.000135834               0.000545141               0.000409308               0.000000000               0.000000000               0.000000000               0.000000000               0.000118237               0.001576536              -0.000010411              -0.000152728               0.000576416               0.000423688               0.000000000               0.000000000               0.000000000               0.000000000               0.000100706               0.001652238              -0.000003828              -0.000168764               0.000606995               0.000438231               0.000000000               0.000000000               0.000000000               0.000000000               0.000084757               0.001681549               0.000001870              -0.000178409               0.000619981               0.000441571               0.000000000               0.000000000               0.000000000               0.000000000               0.000190266               0.000279623              -0.000162091               0.000036396               0.000081075               0.000117471               0.000000000               0.000000000               0.000000000               0.000000000               0.000160828               0.000376766              -0.000147974               0.000013215               0.000121183               0.000134397               0.000000000               0.000000000               0.000000000               0.000000000               0.000148726               0.000547247              -0.000125904              -0.000012634               0.000186625               0.000173991               0.000000000               0.000000000               0.000000000               0.000000000               0.000162779               0.000684606              -0.000100119              -0.000024534               0.000236378               0.000211844               0.000000000               0.000000000               0.000000000               0.000000000               0.000187483               0.000802537              -0.000079335              -0.000030011               0.000277513               0.000247503               0.000000000               0.000000000               0.000000000               0.000000000               0.000214503               0.000890082              -0.000062133              -0.000030821               0.000306965               0.000276143               0.000000000               0.000000000               0.000000000               0.000000000               0.000244405               0.000965350              -0.000047626              -0.000029017               0.000331452               0.000302436               0.000000000               0.000000000               0.000000000               0.000000000               0.000264978               0.001044665              -0.000039778              -0.000031216               0.000358624               0.000327407               0.000000000               0.000000000               0.000000000               0.000000000               0.000267004               0.001127710              -0.000041113              -0.000040837               0.000389512               0.000348675               0.000000000               0.000000000               0.000000000               0.000000000               0.000256127               0.001206281              -0.000043199              -0.000054737               0.000420336               0.000365598               0.000000000               0.000000000               0.000000000               0.000000000               0.000243419               0.001280302              -0.000042920              -0.000068755               0.000449682               0.000380926               0.000000000               0.000000000               0.000000000               0.000000000               0.000229253               0.001353041              -0.000039979              -0.000083160               0.000478729               0.000395569               0.000000000               0.000000000               0.000000000               0.000000000               0.000215742               0.001430672              -0.000032977              -0.000097931               0.000509530               0.000411599               0.000000000               0.000000000               0.000000000               0.000000000               0.000201019               0.001507267              -0.000023692              -0.000113026               0.000540093               0.000427067               0.000000000               0.000000000               0.000000000               0.000000000               0.000183279               0.001581369              -0.000014599              -0.000128941               0.000570098               0.000441157               0.000000000               0.000000000               0.000000000               0.000000000               0.000163210               0.001650940              -0.000006109              -0.000145163               0.000598695               0.000453532               0.000000000               0.000000000               0.000000000               0.000000000               0.000143933               0.001676787               0.000001147              -0.000155623               0.000610798               0.000455175               0.000000000               0.000000000               0.000000000               0.000000000               0.000178111               0.000218964              -0.000140057               0.000039421               0.000059847               0.000099267               0.000000000               0.000000000               0.000000000               0.000000000               0.000169200               0.000330256              -0.000142830               0.000022167               0.000102695               0.000124863               0.000000000               0.000000000               0.000000000               0.000000000               0.000166424               0.000511930              -0.000134280              -0.000001583               0.000171169               0.000169587               0.000000000               0.000000000               0.000000000               0.000000000               0.000178693               0.000660104              -0.000111874              -0.000015503               0.000225200               0.000209697               0.000000000               0.000000000               0.000000000               0.000000000               0.000196765               0.000778807              -0.000089378              -0.000023564               0.000267454               0.000243891               0.000000000               0.000000000               0.000000000               0.000000000               0.000218158               0.000873550              -0.000069039              -0.000027385               0.000300309               0.000272924               0.000000000               0.000000000               0.000000000               0.000000000               0.000247028               0.000961010              -0.000051566              -0.000027491               0.000329497               0.000302006               0.000000000               0.000000000               0.000000000               0.000000000               0.000277949               0.001049876              -0.000040498              -0.000027004               0.000358956               0.000331953               0.000000000               0.000000000               0.000000000               0.000000000               0.000295886               0.001138762              -0.000037349              -0.000031388               0.000390046               0.000358658               0.000000000               0.000000000               0.000000000               0.000000000               0.000297641               0.001221592              -0.000038559              -0.000041083               0.000420888               0.000379804               0.000000000               0.000000000               0.000000000               0.000000000               0.000291417               0.001295550              -0.000039812              -0.000052662               0.000449400               0.000396737               0.000000000               0.000000000               0.000000000               0.000000000               0.000280730               0.001363370              -0.000039053              -0.000065147               0.000476168               0.000411021               0.000000000               0.000000000               0.000000000               0.000000000               0.000270166               0.001434578              -0.000035174              -0.000078010               0.000504191               0.000426181               0.000000000               0.000000000               0.000000000               0.000000000               0.000260244               0.001507869              -0.000027274              -0.000090892               0.000532915               0.000442023               0.000000000               0.000000000               0.000000000               0.000000000               0.000248467               0.001580894              -0.000017843              -0.000104436               0.000561772               0.000457335               0.000000000               0.000000000               0.000000000               0.000000000               0.000233941               0.001653421              -0.000009365              -0.000118950               0.000590785               0.000471835               0.000000000               0.000000000               0.000000000               0.000000000               0.000216337               0.001683497              -0.000002159              -0.000129311               0.000604263               0.000474953               0.000000000               0.000000000               0.000000000               0.000000000               0.000161544               0.000169375              -0.000111707               0.000039407               0.000043322               0.000082729               0.000000000               0.000000000               0.000000000               0.000000000               0.000173373               0.000284358              -0.000127934               0.000029470               0.000084962               0.000114431               0.000000000               0.000000000               0.000000000               0.000000000               0.000185447               0.000465883              -0.000131268               0.000011307               0.000151524               0.000162831               0.000000000               0.000000000               0.000000000               0.000000000               0.000200334               0.000615119              -0.000114322              -0.000001765               0.000205626               0.000203861               0.000000000               0.000000000               0.000000000               0.000000000               0.000214353               0.000738500              -0.000093465              -0.000011930               0.000250141               0.000238211               0.000000000               0.000000000               0.000000000               0.000000000               0.000232820               0.000850825              -0.000074176              -0.000019046               0.000289954               0.000270908               0.000000000               0.000000000               0.000000000               0.000000000               0.000261006               0.000956441              -0.000057101              -0.000021678               0.000326037               0.000304359               0.000000000               0.000000000               0.000000000               0.000000000               0.000292432               0.001053534              -0.000043353              -0.000022030               0.000358518               0.000336488               0.000000000               0.000000000               0.000000000               0.000000000               0.000316427               0.001143159              -0.000034213              -0.000024235               0.000389128               0.000364893               0.000000000               0.000000000               0.000000000               0.000000000               0.000328169               0.001227462              -0.000031474              -0.000030369               0.000419273               0.000388904               0.000000000               0.000000000               0.000000000               0.000000000               0.000331471               0.001304660              -0.000031455              -0.000038781               0.000447809               0.000409028               0.000000000               0.000000000               0.000000000               0.000000000               0.000329385               0.001374454              -0.000031707              -0.000048287               0.000474243               0.000425955               0.000000000               0.000000000               0.000000000               0.000000000               0.000323994               0.001439772              -0.000031053              -0.000058474               0.000499410               0.000440937               0.000000000               0.000000000               0.000000000               0.000000000               0.000319686               0.001508711              -0.000026859              -0.000068707               0.000525801               0.000457094               0.000000000               0.000000000               0.000000000               0.000000000               0.000317680               0.001584530              -0.000019976              -0.000078936               0.000554483               0.000475547               0.000000000               0.000000000               0.000000000               0.000000000               0.000313212               0.001660202              -0.000010896              -0.000090071               0.000583419               0.000493348               0.000000000               0.000000000               0.000000000               0.000000000               0.000302307               0.001692410              -0.000003091              -0.000098186               0.000596860               0.000498674               0.000000000               0.000000000               0.000000000               0.000000000               0.000137716               0.000129569              -0.000080464               0.000035447               0.000031373               0.000066821               0.000000000               0.000000000               0.000000000               0.000000000               0.000175379               0.000238145              -0.000103489               0.000035999               0.000067381               0.000103380               0.000000000               0.000000000               0.000000000               0.000000000               0.000204896               0.000411598              -0.000114783               0.000025386               0.000128736               0.000154122               0.000000000               0.000000000               0.000000000               0.000000000               0.000222991               0.000563237              -0.000103352               0.000013217               0.000183338               0.000196555               0.000000000               0.000000000               0.000000000               0.000000000               0.000237525               0.000698476              -0.000087572               0.000001762               0.000232236               0.000233998               0.000000000               0.000000000               0.000000000               0.000000000               0.000256155               0.000824687              -0.000073202              -0.000007028               0.000277235               0.000270208               0.000000000               0.000000000               0.000000000               0.000000000               0.000279286               0.000940212              -0.000058188              -0.000012794               0.000317666               0.000304871               0.000000000               0.000000000               0.000000000               0.000000000               0.000305128               0.001043076              -0.000042193              -0.000015961               0.000353009               0.000337048               0.000000000               0.000000000               0.000000000               0.000000000               0.000329896               0.001136528              -0.000028769              -0.000018355               0.000384957               0.000366602               0.000000000               0.000000000               0.000000000               0.000000000               0.000349665               0.001225824              -0.000022858              -0.000022104               0.000415972               0.000393868               0.000000000               0.000000000               0.000000000               0.000000000               0.000363682               0.001310336              -0.000022148              -0.000027411               0.000445911               0.000418500               0.000000000               0.000000000               0.000000000               0.000000000               0.000372620               0.001385921              -0.000022105              -0.000033508               0.000473138               0.000439631               0.000000000               0.000000000               0.000000000               0.000000000               0.000375498               0.001449926              -0.000022310              -0.000040429               0.000496780               0.000456351               0.000000000               0.000000000               0.000000000               0.000000000               0.000378263               0.001515442              -0.000021671              -0.000047581               0.000521003               0.000473421               0.000000000               0.000000000               0.000000000               0.000000000               0.000384011               0.001587691              -0.000017455              -0.000054457               0.000547378               0.000492920               0.000000000               0.000000000               0.000000000               0.000000000               0.000388953               0.001658133              -0.000009269              -0.000061409               0.000573175               0.000511766               0.000000000               0.000000000               0.000000000               0.000000000               0.000387221               0.001689254              -0.000002958              -0.000065949               0.000585062               0.000519113               0.000000000               0.000000000               0.000000000               0.000000000               0.000112507               0.000096426              -0.000050807               0.000030137               0.000022096               0.000052233               0.000000000               0.000000000               0.000000000               0.000000000               0.000174270               0.000197797              -0.000071825               0.000040626               0.000052390               0.000093016               0.000000000               0.000000000               0.000000000               0.000000000               0.000220364               0.000363561              -0.000084552               0.000037191               0.000108789               0.000145980               0.000000000               0.000000000               0.000000000               0.000000000               0.000244829               0.000518057              -0.000078731               0.000027053               0.000163666               0.000190720               0.000000000               0.000000000               0.000000000               0.000000000               0.000263566               0.000660938              -0.000069475               0.000016220               0.000214904               0.000231123               0.000000000               0.000000000               0.000000000               0.000000000               0.000280198               0.000794186              -0.000059192               0.000005801               0.000262792               0.000268593               0.000000000               0.000000000               0.000000000               0.000000000               0.000296828               0.000915805              -0.000046971              -0.000003165               0.000306320               0.000303155               0.000000000               0.000000000               0.000000000               0.000000000               0.000316854               0.001025371              -0.000033709              -0.000009351               0.000344904               0.000335553               0.000000000               0.000000000               0.000000000               0.000000000               0.000341381               0.001126958              -0.000022155              -0.000012852               0.000379933               0.000367081               0.000000000               0.000000000               0.000000000               0.000000000               0.000366769               0.001223080              -0.000015687              -0.000015347               0.000412805               0.000397458               0.000000000               0.000000000               0.000000000               0.000000000               0.000388131               0.001312361              -0.000013644              -0.000018496               0.000443615               0.000425119               0.000000000               0.000000000               0.000000000               0.000000000               0.000404539               0.001389895              -0.000012389              -0.000022035               0.000470639               0.000448604               0.000000000               0.000000000               0.000000000               0.000000000               0.000416832               0.001457313              -0.000011711              -0.000025852               0.000494383               0.000468531               0.000000000               0.000000000               0.000000000               0.000000000               0.000427774               0.001522847              -0.000012287              -0.000029941               0.000517591               0.000487650               0.000000000               0.000000000               0.000000000               0.000000000               0.000438653               0.001587321              -0.000010282              -0.000033920               0.000540408               0.000506488               0.000000000               0.000000000               0.000000000               0.000000000               0.000451443               0.001652676              -0.000005572              -0.000037293               0.000563317               0.000526024               0.000000000               0.000000000               0.000000000               0.000000000               0.000457355               0.001684623              -0.000002514              -0.000039070               0.000574559               0.000535489               0.000000000               0.000000000               0.000000000               0.000000000               0.000092177               0.000076323              -0.000024973               0.000025026               0.000017099               0.000042125               0.000000000               0.000000000               0.000000000               0.000000000               0.000169253               0.000171605              -0.000037071               0.000042019               0.000043195               0.000085214               0.000000000               0.000000000               0.000000000               0.000000000               0.000230799               0.000330615              -0.000044816               0.000045222               0.000095130               0.000140352               0.000000000               0.000000000               0.000000000               0.000000000               0.000262155               0.000486040              -0.000042831               0.000037553               0.000149494               0.000187047               0.000000000               0.000000000               0.000000000               0.000000000               0.000282090               0.000632685              -0.000038440               0.000026698               0.000201994               0.000228691               0.000000000               0.000000000               0.000000000               0.000000000               0.000296053               0.000768988              -0.000032670               0.000014896               0.000251361               0.000266258               0.000000000               0.000000000               0.000000000               0.000000000               0.000310155               0.000895001              -0.000026272               0.000004433               0.000296853               0.000301286               0.000000000               0.000000000               0.000000000               0.000000000               0.000328401               0.001012438              -0.000019203              -0.000003405               0.000338611               0.000335206               0.000000000               0.000000000               0.000000000               0.000000000               0.000351589               0.001120230              -0.000012457              -0.000008183               0.000376134               0.000367951               0.000000000               0.000000000               0.000000000               0.000000000               0.000377389               0.001217744              -0.000007703              -0.000010697               0.000409476               0.000398779               0.000000000               0.000000000               0.000000000               0.000000000               0.000402783               0.001308909              -0.000005694              -0.000012570               0.000440489               0.000427919               0.000000000               0.000000000               0.000000000               0.000000000               0.000424255               0.001388302              -0.000004700              -0.000014442               0.000467577               0.000453135               0.000000000               0.000000000               0.000000000               0.000000000               0.000443336               0.001460151              -0.000004045              -0.000016268               0.000492135               0.000475867               0.000000000               0.000000000               0.000000000               0.000000000               0.000459991               0.001526572              -0.000004195              -0.000018325               0.000514961               0.000496636               0.000000000               0.000000000               0.000000000               0.000000000               0.000473609               0.001585359              -0.000003347              -0.000020567               0.000535303               0.000514737               0.000000000               0.000000000               0.000000000               0.000000000               0.000490000               0.001649781              -0.000001799              -0.000022472               0.000557412               0.000534940               0.000000000               0.000000000               0.000000000               0.000000000               0.000498583               0.001683969              -0.000001030              -0.000023527               0.000569160               0.000545632               0.000000000               0.000000000               0.000000000               0.000000000               0.000083714               0.000070207               0.000000000               0.000022617               0.000015863               0.000038480               0.000000000               0.000000000               0.000000000               0.000000000               0.000165957               0.000161841               0.000000000               0.000042003               0.000039945               0.000081949               0.000000000               0.000000000               0.000000000               0.000000000               0.000234788               0.000317484               0.000000000               0.000048360               0.000089707               0.000138067               0.000000000               0.000000000               0.000000000               0.000000000               0.000268680               0.000474581               0.000000000               0.000041432               0.000144381               0.000185813               0.000000000               0.000000000               0.000000000               0.000000000               0.000287578               0.000622666               0.000000000               0.000030008               0.000197550               0.000227559               0.000000000               0.000000000               0.000000000               0.000000000               0.000302302               0.000759889               0.000000000               0.000018377               0.000247168               0.000265545               0.000000000               0.000000000               0.000000000               0.000000000               0.000316160               0.000888051              -0.000000000               0.000007554               0.000293496               0.000301050               0.000000000               0.000000000               0.000000000               0.000000000               0.000332819               0.001007044               0.000000000              -0.000001073               0.000336036               0.000334962               0.000000000               0.000000000               0.000000000               0.000000000               0.000354421               0.001115653               0.000000000              -0.000006549               0.000374064               0.000367515               0.000000000               0.000000000               0.000000000               0.000000000               0.000380610               0.001214918               0.000000000              -0.000009136               0.000408014               0.000398878               0.000000000               0.000000000               0.000000000               0.000000000               0.000408196               0.001307804              -0.000000000              -0.000010402               0.000439398               0.000428996               0.000000000               0.000000000               0.000000000               0.000000000               0.000431507               0.001387259              -0.000000000              -0.000011592               0.000466279               0.000454687               0.000000000               0.000000000               0.000000000               0.000000000               0.000452499               0.001460486              -0.000000000              -0.000012874               0.000491115               0.000478241               0.000000000               0.000000000               0.000000000               0.000000000               0.000470781               0.001527478               0.000000000              -0.000014392               0.000513951               0.000499560               0.000000000               0.000000000               0.000000000               0.000000000               0.000485151               0.001584310              -0.000000000              -0.000016107               0.000533467               0.000517360               0.000000000               0.000000000               0.000000000               0.000000000               0.000502116               0.001648996              -0.000000000              -0.000017831               0.000555604               0.000537773               0.000000000               0.000000000               0.000000000               0.000000000               0.000510692               0.001684303              -0.000000000              -0.000019029               0.000567772               0.000548743               0.000000000               0.000000000               0.000000000               0.000000000               0.000000000               0.000000000               0.000000000               0.000000000               0.000000000               0.000000000               0.000000000               0.000000000               0.000000000               0.000000000               0.000000000               0.000000000               0.000000000               0.000000000               0.000000000               0.000000000               0.000000000               0.000000000               0.000000000               0.000000000               0.000000000               0.000000000               0.000000000               0.000000000               0.000000000               0.000000000               0.000000000               0.000000000               0.000000000               0.000000000               0.000000000               0.000000000               0.000000000               0.000000000               0.000000000               0.000000000               0.000000000               0.000000000               0.000000000               0.000000000               0.000000000               0.000000000               0.000000000               0.000000000               0.000000000               0.000000000               0.000000000               0.000000000               0.000000000               0.000000000               0.000000000               0.000000000               0.000000000               0.000000000               0.000000000               0.000000000               0.000000000               0.000000000               0.000000000               0.000000000               0.000000000               0.000000000               0.000000000               0.000000000               0.000000000               0.000000000               0.000000000               0.000000000               0.000000000               0.000000000               0.000000000               0.000000000               0.000000000               0.000000000               0.000000000               0.000000000               0.000000000               0.000000000               0.000000000               0.000000000               0.000000000               0.000000000               0.000000000               0.000000000               0.000000000               0.000000000               0.000000000               0.000000000               0.000000000               0.000000000               0.000000000               0.000000000               0.000000000               0.000000000               0.000000000               0.000000000               0.000000000               0.000000000               0.000000000               0.000000000               0.000000000               0.000000000               0.000000000               0.000000000               0.000000000               0.000000000               0.000000000               0.000000000               0.000000000               0.000000000               0.000000000               0.000000000               0.000000000               0.000000000               0.000000000               0.000000000               0.000000000               0.000000000               0.000000000               0.000000000               0.000000000               0.000000000               0.000000000               0.000000000               0.000000000               0.000000000               0.000000000               0.000000000               0.000000000               0.000000000               0.000000000               0.000000000               0.000000000               0.000000000               0.000000000               0.000000000               0.000000000               0.000000000               0.000000000               0.000000000               0.000000000               0.000000000               0.000000000               0.000000000               0.000000000               0.000000000               0.000000000               0.000000000               0.000000000               0.000000000               0.000000000               0.000000000               0.000000000               0.000000000               0.000000000               0.000000000               0.000000000               0.000000000               0.000000000               0.000000000               0.000000000               0.000000000               0.000000000               0.000000000               0.000000000               0.000000000               0.000000000               0.000000000               0.000000000               0.000000000               0.000085917               0.000788313               0.000063665              -0.000066320               0.000284875               0.000218555               0.000000000               0.000000000               0.000000000               0.000000000               0.000106243               0.000673768               0.000042702              -0.000044380               0.000239380               0.000195001               0.000000000               0.000000000               0.000000000               0.000000000               0.000157675               0.000591402               0.000020050              -0.000014797               0.000202064               0.000187267               0.000000000               0.000000000               0.000000000               0.000000000               0.000176921               0.000555383               0.000007120              -0.000003077               0.000186152               0.000183074               0.000000000               0.000000000               0.000000000               0.000000000               0.000177886               0.000546504               0.000000162              -0.000001606               0.000182702               0.000181096               0.000000000               0.000000000               0.000000000               0.000000000               0.000173053               0.000546951              -0.000000547              -0.000003474               0.000183473               0.000179999               0.000000000               0.000000000               0.000000000               0.000000000               0.000173566               0.000543577               0.000006280              -0.000002860               0.000182144               0.000179284               0.000000000               0.000000000               0.000000000               0.000000000               0.000175669               0.000528957               0.000012260              -0.000000244               0.000176399               0.000176155               0.000000000               0.000000000               0.000000000               0.000000000               0.000174156               0.000513759               0.000013101               0.000001089               0.000170888               0.000171977               0.000000000               0.000000000               0.000000000               0.000000000               0.000171370               0.000502099               0.000015040               0.000001501               0.000166864               0.000168366               0.000000000               0.000000000               0.000000000               0.000000000               0.000165607               0.000494138               0.000015588               0.000000335               0.000164599               0.000164934               0.000000000               0.000000000               0.000000000               0.000000000               0.000152365               0.000492014               0.000014096              -0.000004365               0.000165458               0.000161093               0.000000000               0.000000000               0.000000000               0.000000000               0.000133434               0.000496950               0.000012398              -0.000012081               0.000169675               0.000157594               0.000000000               0.000000000               0.000000000               0.000000000               0.000108739               0.000508985               0.000009694              -0.000022846               0.000177275               0.000154429               0.000000000               0.000000000               0.000000000               0.000000000               0.000076621               0.000527071               0.000006424              -0.000037151               0.000188072               0.000150921               0.000000000               0.000000000               0.000000000               0.000000000               0.000039240               0.000550827               0.000003191              -0.000054138               0.000201653               0.000147515               0.000000000               0.000000000               0.000000000               0.000000000               0.000023189               0.000572598               0.000002694              -0.000062879               0.000211824               0.000148945               0.000000000               0.000000000               0.000000000               0.000000000               0.000102187               0.000756847               0.000121440              -0.000056286               0.000271042               0.000214756               0.000000000               0.000000000               0.000000000               0.000000000               0.000114843               0.000652381               0.000081136              -0.000038481               0.000230285               0.000191804               0.000000000               0.000000000               0.000000000               0.000000000               0.000155809               0.000579305               0.000037470              -0.000013985               0.000197761               0.000183777               0.000000000               0.000000000               0.000000000               0.000000000               0.000170205               0.000551915               0.000012983              -0.000005162               0.000185691               0.000180528               0.000000000               0.000000000               0.000000000               0.000000000               0.000172440               0.000546325               0.000000164              -0.000003626               0.000183315               0.000179689               0.000000000               0.000000000               0.000000000               0.000000000               0.000170585               0.000545966               0.000000317              -0.000004276               0.000183412               0.000179136               0.000000000               0.000000000               0.000000000               0.000000000               0.000170613               0.000540977               0.000012916              -0.000003642               0.000181538               0.000177896               0.000000000               0.000000000               0.000000000               0.000000000               0.000171431               0.000533551               0.000022674              -0.000002407               0.000178651               0.000176244               0.000000000               0.000000000               0.000000000               0.000000000               0.000168051               0.000530610               0.000023615              -0.000003307               0.000177970               0.000174663               0.000000000               0.000000000               0.000000000               0.000000000               0.000161133               0.000531452               0.000025978              -0.000006007               0.000179151               0.000173145               0.000000000               0.000000000               0.000000000               0.000000000               0.000149154               0.000536387               0.000026969              -0.000011115               0.000182499               0.000171384               0.000000000               0.000000000               0.000000000               0.000000000               0.000130930               0.000544867               0.000025163              -0.000019009               0.000187957               0.000168948               0.000000000               0.000000000               0.000000000               0.000000000               0.000111096               0.000558031               0.000022476              -0.000028093               0.000195373               0.000167280               0.000000000               0.000000000               0.000000000               0.000000000               0.000089655               0.000576150               0.000018111              -0.000038398               0.000204847               0.000166449               0.000000000               0.000000000               0.000000000               0.000000000               0.000062760               0.000597809               0.000012546              -0.000051191               0.000216331               0.000165140               0.000000000               0.000000000               0.000000000               0.000000000               0.000031491               0.000623705               0.000006395              -0.000066154               0.000229951               0.000163797               0.000000000               0.000000000               0.000000000               0.000000000               0.000019630               0.000646694               0.000005453              -0.000073475               0.000240054               0.000166579               0.000000000               0.000000000               0.000000000               0.000000000               0.000125984               0.000708896               0.000166354              -0.000041368               0.000250086               0.000208718               0.000000000               0.000000000               0.000000000               0.000000000               0.000125288               0.000616033               0.000110588              -0.000030021               0.000215349               0.000185328               0.000000000               0.000000000               0.000000000               0.000000000               0.000152596               0.000563412               0.000049428              -0.000013203               0.000192203               0.000179000               0.000000000               0.000000000               0.000000000               0.000000000               0.000160134               0.000550179               0.000016834              -0.000008722               0.000186298               0.000177576               0.000000000               0.000000000               0.000000000               0.000000000               0.000160859               0.000549291               0.000002415              -0.000008339               0.000185875               0.000177536               0.000000000               0.000000000               0.000000000               0.000000000               0.000163920               0.000550606               0.000004465              -0.000007356               0.000185985               0.000178630               0.000000000               0.000000000               0.000000000               0.000000000               0.000169187               0.000549009               0.000019851              -0.000005181               0.000184728               0.000179547               0.000000000               0.000000000               0.000000000               0.000000000               0.000173713               0.000553958               0.000030675              -0.000004102               0.000186018               0.000181916               0.000000000               0.000000000               0.000000000               0.000000000               0.000168752               0.000567120               0.000032439              -0.000007608               0.000191574               0.000183966               0.000000000               0.000000000               0.000000000               0.000000000               0.000153677               0.000584854               0.000036315              -0.000015478               0.000200109               0.000184631               0.000000000               0.000000000               0.000000000               0.000000000               0.000134035               0.000607880               0.000038107              -0.000025722               0.000211199               0.000185477               0.000000000               0.000000000               0.000000000               0.000000000               0.000110847               0.000633951               0.000036903              -0.000037676               0.000223874               0.000186198               0.000000000               0.000000000               0.000000000               0.000000000               0.000088580               0.000662885               0.000034081              -0.000049643               0.000237507               0.000187864               0.000000000               0.000000000               0.000000000               0.000000000               0.000069145               0.000694241               0.000028695              -0.000060851               0.000251695               0.000190844               0.000000000               0.000000000               0.000000000               0.000000000               0.000046968               0.000725963               0.000021232              -0.000073132               0.000266363               0.000193230               0.000000000               0.000000000               0.000000000               0.000000000               0.000022367               0.000758458               0.000011608              -0.000086419               0.000281623               0.000195204               0.000000000               0.000000000               0.000000000               0.000000000               0.000015381               0.000784028               0.000009154              -0.000092235               0.000292085               0.000199850               0.000000000               0.000000000               0.000000000               0.000000000               0.000148268               0.000649019               0.000197877              -0.000025527               0.000224847               0.000199320               0.000000000               0.000000000               0.000000000               0.000000000               0.000133153               0.000575316               0.000129459              -0.000021982               0.000199097               0.000177115               0.000000000               0.000000000               0.000000000               0.000000000               0.000145575               0.000549692               0.000055629              -0.000014121               0.000187936               0.000173815               0.000000000               0.000000000               0.000000000               0.000000000               0.000145800               0.000552291               0.000020880              -0.000014361               0.000188882               0.000174521               0.000000000               0.000000000               0.000000000               0.000000000               0.000147438               0.000561920               0.000006872              -0.000014951               0.000192289               0.000177338               0.000000000               0.000000000               0.000000000               0.000000000               0.000158831               0.000572325               0.000011705              -0.000011979               0.000194766               0.000182787               0.000000000               0.000000000               0.000000000               0.000000000               0.000170391               0.000581016               0.000029454              -0.000008730               0.000196580               0.000187850               0.000000000               0.000000000               0.000000000               0.000000000               0.000176682               0.000604217               0.000040029              -0.000009271               0.000204494               0.000195223               0.000000000               0.000000000               0.000000000               0.000000000               0.000170555               0.000636571               0.000041480              -0.000015613               0.000217393               0.000201779               0.000000000               0.000000000               0.000000000               0.000000000               0.000155361               0.000675489               0.000044692              -0.000026176               0.000233886               0.000207710               0.000000000               0.000000000               0.000000000               0.000000000               0.000134213               0.000718294               0.000045939              -0.000039457               0.000252581               0.000213125               0.000000000               0.000000000               0.000000000               0.000000000               0.000108278               0.000762371               0.000043996              -0.000054692               0.000272352               0.000217660               0.000000000               0.000000000               0.000000000               0.000000000               0.000084952               0.000808207               0.000040104              -0.000069169               0.000292456               0.000223287               0.000000000               0.000000000               0.000000000               0.000000000               0.000064324               0.000853789               0.000033516              -0.000082602               0.000312127               0.000229526               0.000000000               0.000000000               0.000000000               0.000000000               0.000041410               0.000896614               0.000024610              -0.000096548               0.000331051               0.000234503               0.000000000               0.000000000               0.000000000               0.000000000               0.000018838               0.000936251               0.000013314              -0.000109967               0.000348736               0.000238769               0.000000000               0.000000000               0.000000000               0.000000000               0.000013780               0.000963727               0.000010048              -0.000115298               0.000359672               0.000244374               0.000000000               0.000000000               0.000000000               0.000000000               0.000172270               0.000583194               0.000214511              -0.000008298               0.000197162               0.000188864               0.000000000               0.000000000               0.000000000               0.000000000               0.000139522               0.000536136               0.000138970              -0.000014696               0.000183609               0.000168913               0.000000000               0.000000000               0.000000000               0.000000000               0.000134701               0.000543396               0.000060886              -0.000017411               0.000186934               0.000169523               0.000000000               0.000000000               0.000000000               0.000000000               0.000132704               0.000565950               0.000027268              -0.000020980               0.000195641               0.000174662               0.000000000               0.000000000               0.000000000               0.000000000               0.000139409               0.000590835               0.000015055              -0.000021576               0.000204135               0.000182559               0.000000000               0.000000000               0.000000000               0.000000000               0.000156069               0.000616522               0.000021766              -0.000018539               0.000211685               0.000193146               0.000000000               0.000000000               0.000000000               0.000000000               0.000176059               0.000651273               0.000037932              -0.000015387               0.000222218               0.000206831               0.000000000               0.000000000               0.000000000               0.000000000               0.000186556               0.000698349               0.000045566              -0.000017335               0.000238559               0.000221224               0.000000000               0.000000000               0.000000000               0.000000000               0.000178649               0.000751851               0.000046118              -0.000026988               0.000259610               0.000232623               0.000000000               0.000000000               0.000000000               0.000000000               0.000160721               0.000806754               0.000047981              -0.000040574               0.000282440               0.000241866               0.000000000               0.000000000               0.000000000               0.000000000               0.000137962               0.000862317               0.000048828              -0.000056054               0.000306121               0.000250067               0.000000000               0.000000000               0.000000000               0.000000000               0.000113703               0.000917435               0.000045949              -0.000072041               0.000329822               0.000257782               0.000000000               0.000000000               0.000000000               0.000000000               0.000092193               0.000972217               0.000040495              -0.000086955               0.000353054               0.000266099               0.000000000               0.000000000               0.000000000               0.000000000               0.000070297               0.001024494               0.000032827              -0.000101700               0.000375395               0.000273695               0.000000000               0.000000000               0.000000000               0.000000000               0.000045389               0.001071069               0.000023342              -0.000116862               0.000395974               0.000279111               0.000000000               0.000000000               0.000000000               0.000000000               0.000020958               0.001112183               0.000012278              -0.000131163               0.000414445               0.000283282               0.000000000               0.000000000               0.000000000               0.000000000               0.000014703               0.001139569               0.000009286              -0.000136932               0.000425497               0.000288564               0.000000000               0.000000000               0.000000000               0.000000000               0.000188964               0.000518056               0.000216630               0.000006104               0.000170649               0.000176753               0.000000000               0.000000000               0.000000000               0.000000000               0.000142526               0.000499890               0.000142157              -0.000009039               0.000169641               0.000160602               0.000000000               0.000000000               0.000000000               0.000000000               0.000125338               0.000545515               0.000067356              -0.000021187               0.000188899               0.000167711               0.000000000               0.000000000               0.000000000               0.000000000               0.000124413               0.000593422               0.000036604              -0.000027523               0.000206980               0.000179457               0.000000000               0.000000000               0.000000000               0.000000000               0.000139876               0.000642573               0.000026084              -0.000027868               0.000223478               0.000195610               0.000000000               0.000000000               0.000000000               0.000000000               0.000168444               0.000694381               0.000029626              -0.000023631               0.000239335               0.000215704               0.000000000               0.000000000               0.000000000               0.000000000               0.000193948               0.000752011               0.000043341              -0.000021271               0.000257758               0.000236487               0.000000000               0.000000000               0.000000000               0.000000000               0.000200993               0.000816169               0.000049940              -0.000026649               0.000280937               0.000254288               0.000000000               0.000000000               0.000000000               0.000000000               0.000189734               0.000885748               0.000050463              -0.000039568               0.000308436               0.000268868               0.000000000               0.000000000               0.000000000               0.000000000               0.000168741               0.000950208               0.000052567              -0.000055498               0.000335232               0.000279734               0.000000000               0.000000000               0.000000000               0.000000000               0.000143462               0.001011076               0.000051241              -0.000072586               0.000361217               0.000288631               0.000000000               0.000000000               0.000000000               0.000000000               0.000118756               0.001071203               0.000045781              -0.000089367               0.000386853               0.000297486               0.000000000               0.000000000               0.000000000               0.000000000               0.000097377               0.001129086               0.000037724              -0.000104619               0.000411231               0.000306612               0.000000000               0.000000000               0.000000000               0.000000000               0.000073029               0.001181713               0.000029013              -0.000120328               0.000434010               0.000313682               0.000000000               0.000000000               0.000000000               0.000000000               0.000047108               0.001228869               0.000020040              -0.000135943               0.000454933               0.000318990               0.000000000               0.000000000               0.000000000               0.000000000               0.000023196               0.001271318               0.000010067              -0.000150216               0.000473840               0.000323624               0.000000000               0.000000000               0.000000000               0.000000000               0.000016792               0.001299911               0.000008110              -0.000156192               0.000485363               0.000329172               0.000000000               0.000000000               0.000000000               0.000000000               0.000192467               0.000453108               0.000209954               0.000015536               0.000145856               0.000161392               0.000000000               0.000000000               0.000000000               0.000000000               0.000140799               0.000471420               0.000142600              -0.000006128               0.000159181               0.000153053               0.000000000               0.000000000               0.000000000               0.000000000               0.000119549               0.000560037               0.000075442              -0.000025174               0.000195068               0.000169895               0.000000000               0.000000000               0.000000000               0.000000000               0.000128282               0.000638422               0.000047688              -0.000031697               0.000223371               0.000191674               0.000000000               0.000000000               0.000000000               0.000000000               0.000156476               0.000714379               0.000036650              -0.000030619               0.000248330               0.000217711               0.000000000               0.000000000               0.000000000               0.000000000               0.000193157               0.000786245               0.000040075              -0.000025847               0.000270695               0.000244848               0.000000000               0.000000000               0.000000000               0.000000000               0.000218072               0.000856008               0.000050885              -0.000025224               0.000293741               0.000268517               0.000000000               0.000000000               0.000000000               0.000000000               0.000219146               0.000934159               0.000054130              -0.000034590               0.000322913               0.000288323               0.000000000               0.000000000               0.000000000               0.000000000               0.000200794               0.001009072               0.000052770              -0.000050836               0.000353300               0.000302463               0.000000000               0.000000000               0.000000000               0.000000000               0.000175250               0.001077020               0.000053812              -0.000068909               0.000381973               0.000313064               0.000000000               0.000000000               0.000000000               0.000000000               0.000149712               0.001143210               0.000049085              -0.000086759               0.000409986               0.000323227               0.000000000               0.000000000               0.000000000               0.000000000               0.000124635               0.001209031               0.000039748              -0.000104391               0.000437803               0.000333413               0.000000000               0.000000000               0.000000000               0.000000000               0.000098547               0.001271803               0.000030995              -0.000122020               0.000464603               0.000342583               0.000000000               0.000000000               0.000000000               0.000000000               0.000070594               0.001329992               0.000021966              -0.000139776               0.000489918               0.000350142               0.000000000               0.000000000               0.000000000               0.000000000               0.000045016               0.001386836               0.000013534              -0.000156473               0.000514432               0.000357959               0.000000000               0.000000000               0.000000000               0.000000000               0.000022351               0.001440512               0.000006560              -0.000171682               0.000537393               0.000365711               0.000000000               0.000000000               0.000000000               0.000000000               0.000015316               0.001474956               0.000006402              -0.000178625               0.000551189               0.000372563               0.000000000               0.000000000               0.000000000               0.000000000               0.000197059               0.000393819               0.000196826               0.000024669               0.000123049               0.000147718               0.000000000               0.000000000               0.000000000               0.000000000               0.000143041               0.000450876               0.000143006              -0.000002719               0.000151197               0.000148478               0.000000000               0.000000000               0.000000000               0.000000000               0.000121485               0.000579753               0.000087714              -0.000026912               0.000202220               0.000175307               0.000000000               0.000000000               0.000000000               0.000000000               0.000138767               0.000684135               0.000061514              -0.000033479               0.000239202               0.000205723               0.000000000               0.000000000               0.000000000               0.000000000               0.000174915               0.000776429               0.000048724              -0.000031461               0.000269294               0.000237833               0.000000000               0.000000000               0.000000000               0.000000000               0.000215874               0.000857146               0.000048129              -0.000026191               0.000294443               0.000268252               0.000000000               0.000000000               0.000000000               0.000000000               0.000239600               0.000933708               0.000050148              -0.000026863               0.000320187               0.000293324               0.000000000               0.000000000               0.000000000               0.000000000               0.000234503               0.001016886               0.000050600              -0.000039172               0.000352016               0.000312844               0.000000000               0.000000000               0.000000000               0.000000000               0.000210182               0.001092866               0.000050095              -0.000057790               0.000383549               0.000325758               0.000000000               0.000000000               0.000000000               0.000000000               0.000185208               0.001164158               0.000048756              -0.000076067               0.000413404               0.000337338               0.000000000               0.000000000               0.000000000               0.000000000               0.000161405               0.001238152               0.000041579              -0.000094242               0.000444127               0.000349885               0.000000000               0.000000000               0.000000000               0.000000000               0.000138254               0.001312758               0.000031407              -0.000112249               0.000474998               0.000362749               0.000000000               0.000000000               0.000000000               0.000000000               0.000113256               0.001384371               0.000022771              -0.000130575               0.000504977               0.000374402               0.000000000               0.000000000               0.000000000               0.000000000               0.000088161               0.001455043               0.000014062              -0.000148820               0.000534616               0.000385796               0.000000000               0.000000000               0.000000000               0.000000000               0.000065486               0.001525051               0.000005783              -0.000166074               0.000563703               0.000397629               0.000000000               0.000000000               0.000000000               0.000000000               0.000046198               0.001590780               0.000001203              -0.000181523               0.000590762               0.000409240               0.000000000               0.000000000               0.000000000               0.000000000               0.000035787               0.001624343               0.000000256              -0.000189622               0.000604650               0.000415027               0.000000000               0.000000000               0.000000000               0.000000000               0.000198477               0.000336971               0.000180302               0.000032307               0.000101553               0.000133861               0.000000000               0.000000000               0.000000000               0.000000000               0.000150578               0.000417528               0.000146220               0.000004276               0.000137749               0.000142025               0.000000000               0.000000000               0.000000000               0.000000000               0.000133249               0.000572624               0.000107683              -0.000021610               0.000198076               0.000176466               0.000000000               0.000000000               0.000000000               0.000000000               0.000151229               0.000694747               0.000081875              -0.000030133               0.000241624               0.000211492               0.000000000               0.000000000               0.000000000               0.000000000               0.000184463               0.000802818               0.000065972              -0.000031179               0.000277996               0.000246818               0.000000000               0.000000000               0.000000000               0.000000000               0.000220028               0.000889292               0.000055880              -0.000028651               0.000305978               0.000277327               0.000000000               0.000000000               0.000000000               0.000000000               0.000246263               0.000962406               0.000048375              -0.000027952               0.000330116               0.000302164               0.000000000               0.000000000               0.000000000               0.000000000               0.000251081               0.001040490               0.000045270              -0.000035906               0.000358795               0.000322889               0.000000000               0.000000000               0.000000000               0.000000000               0.000235631               0.001118870               0.000046705              -0.000051497               0.000390119               0.000338622               0.000000000               0.000000000               0.000000000               0.000000000               0.000215176               0.001193015               0.000046262              -0.000068436               0.000420480               0.000352044               0.000000000               0.000000000               0.000000000               0.000000000               0.000194998               0.001267459               0.000041200              -0.000085308               0.000450918               0.000365610               0.000000000               0.000000000               0.000000000               0.000000000               0.000176242               0.001344227               0.000034858              -0.000101937               0.000482050               0.000380113               0.000000000               0.000000000               0.000000000               0.000000000               0.000158115               0.001423501               0.000026507              -0.000118644               0.000514044               0.000395400               0.000000000               0.000000000               0.000000000               0.000000000               0.000137644               0.001499605               0.000017834              -0.000135834               0.000545141               0.000409308               0.000000000               0.000000000               0.000000000               0.000000000               0.000118237               0.001576536               0.000010411              -0.000152728               0.000576416               0.000423688               0.000000000               0.000000000               0.000000000               0.000000000               0.000100706               0.001652238               0.000003828              -0.000168764               0.000606995               0.000438231               0.000000000               0.000000000               0.000000000               0.000000000               0.000084757               0.001681549              -0.000001870              -0.000178409               0.000619981               0.000441571               0.000000000               0.000000000               0.000000000               0.000000000               0.000190266               0.000279623               0.000162091               0.000036396               0.000081075               0.000117471               0.000000000               0.000000000               0.000000000               0.000000000               0.000160828               0.000376766               0.000147974               0.000013215               0.000121183               0.000134397               0.000000000               0.000000000               0.000000000               0.000000000               0.000148726               0.000547247               0.000125904              -0.000012634               0.000186625               0.000173991               0.000000000               0.000000000               0.000000000               0.000000000               0.000162779               0.000684606               0.000100119              -0.000024534               0.000236378               0.000211844               0.000000000               0.000000000               0.000000000               0.000000000               0.000187483               0.000802537               0.000079335              -0.000030011               0.000277513               0.000247503               0.000000000               0.000000000               0.000000000               0.000000000               0.000214503               0.000890082               0.000062133              -0.000030821               0.000306965               0.000276143               0.000000000               0.000000000               0.000000000               0.000000000               0.000244405               0.000965350               0.000047626              -0.000029017               0.000331452               0.000302436               0.000000000               0.000000000               0.000000000               0.000000000               0.000264978               0.001044665               0.000039778              -0.000031216               0.000358624               0.000327407               0.000000000               0.000000000               0.000000000               0.000000000               0.000267004               0.001127710               0.000041113              -0.000040837               0.000389512               0.000348675               0.000000000               0.000000000               0.000000000               0.000000000               0.000256127               0.001206281               0.000043199              -0.000054737               0.000420336               0.000365598               0.000000000               0.000000000               0.000000000               0.000000000               0.000243419               0.001280302               0.000042920              -0.000068755               0.000449682               0.000380926               0.000000000               0.000000000               0.000000000               0.000000000               0.000229253               0.001353041               0.000039979              -0.000083160               0.000478729               0.000395569               0.000000000               0.000000000               0.000000000               0.000000000               0.000215742               0.001430672               0.000032977              -0.000097931               0.000509530               0.000411599               0.000000000               0.000000000               0.000000000               0.000000000               0.000201019               0.001507267               0.000023692              -0.000113026               0.000540093               0.000427067               0.000000000               0.000000000               0.000000000               0.000000000               0.000183279               0.001581369               0.000014599              -0.000128941               0.000570098               0.000441157               0.000000000               0.000000000               0.000000000               0.000000000               0.000163210               0.001650940               0.000006109              -0.000145163               0.000598695               0.000453532               0.000000000               0.000000000               0.000000000               0.000000000               0.000143933               0.001676787              -0.000001147              -0.000155623               0.000610798               0.000455175               0.000000000               0.000000000               0.000000000               0.000000000               0.000178111               0.000218964               0.000140057               0.000039421               0.000059847               0.000099267               0.000000000               0.000000000               0.000000000               0.000000000               0.000169200               0.000330256               0.000142830               0.000022167               0.000102695               0.000124863               0.000000000               0.000000000               0.000000000               0.000000000               0.000166424               0.000511930               0.000134280              -0.000001583               0.000171169               0.000169587               0.000000000               0.000000000               0.000000000               0.000000000               0.000178693               0.000660104               0.000111874              -0.000015503               0.000225200               0.000209697               0.000000000               0.000000000               0.000000000               0.000000000               0.000196765               0.000778807               0.000089378              -0.000023564               0.000267454               0.000243891               0.000000000               0.000000000               0.000000000               0.000000000               0.000218158               0.000873550               0.000069039              -0.000027385               0.000300309               0.000272924               0.000000000               0.000000000               0.000000000               0.000000000               0.000247028               0.000961010               0.000051566              -0.000027491               0.000329497               0.000302006               0.000000000               0.000000000               0.000000000               0.000000000               0.000277949               0.001049876               0.000040498              -0.000027004               0.000358956               0.000331953               0.000000000               0.000000000               0.000000000               0.000000000               0.000295886               0.001138762               0.000037349              -0.000031388               0.000390046               0.000358658               0.000000000               0.000000000               0.000000000               0.000000000               0.000297641               0.001221592               0.000038559              -0.000041083               0.000420888               0.000379804               0.000000000               0.000000000               0.000000000               0.000000000               0.000291417               0.001295550               0.000039812              -0.000052662               0.000449400               0.000396737               0.000000000               0.000000000               0.000000000               0.000000000               0.000280730               0.001363370               0.000039053              -0.000065147               0.000476168               0.000411021               0.000000000               0.000000000               0.000000000               0.000000000               0.000270166               0.001434578               0.000035174              -0.000078010               0.000504191               0.000426181               0.000000000               0.000000000               0.000000000               0.000000000               0.000260244               0.001507869               0.000027274              -0.000090892               0.000532915               0.000442023               0.000000000               0.000000000               0.000000000               0.000000000               0.000248467               0.001580894               0.000017843              -0.000104436               0.000561772               0.000457335               0.000000000               0.000000000               0.000000000               0.000000000               0.000233941               0.001653421               0.000009365              -0.000118950               0.000590785               0.000471835               0.000000000               0.000000000               0.000000000               0.000000000               0.000216337               0.001683497               0.000002159              -0.000129311               0.000604263               0.000474953               0.000000000               0.000000000               0.000000000               0.000000000               0.000161544               0.000169375               0.000111707               0.000039407               0.000043322               0.000082729               0.000000000               0.000000000               0.000000000               0.000000000               0.000173373               0.000284358               0.000127934               0.000029470               0.000084962               0.000114431               0.000000000               0.000000000               0.000000000               0.000000000               0.000185447               0.000465883               0.000131268               0.000011307               0.000151524               0.000162831               0.000000000               0.000000000               0.000000000               0.000000000               0.000200334               0.000615119               0.000114322              -0.000001765               0.000205626               0.000203861               0.000000000               0.000000000               0.000000000               0.000000000               0.000214353               0.000738500               0.000093465              -0.000011930               0.000250141               0.000238211               0.000000000               0.000000000               0.000000000               0.000000000               0.000232820               0.000850825               0.000074176              -0.000019046               0.000289954               0.000270908               0.000000000               0.000000000               0.000000000               0.000000000               0.000261006               0.000956441               0.000057101              -0.000021678               0.000326037               0.000304359               0.000000000               0.000000000               0.000000000               0.000000000               0.000292432               0.001053534               0.000043353              -0.000022030               0.000358518               0.000336488               0.000000000               0.000000000               0.000000000               0.000000000               0.000316427               0.001143159               0.000034213              -0.000024235               0.000389128               0.000364893               0.000000000               0.000000000               0.000000000               0.000000000               0.000328169               0.001227462               0.000031474              -0.000030369               0.000419273               0.000388904               0.000000000               0.000000000               0.000000000               0.000000000               0.000331471               0.001304660               0.000031455              -0.000038781               0.000447809               0.000409028               0.000000000               0.000000000               0.000000000               0.000000000               0.000329385               0.001374454               0.000031707              -0.000048287               0.000474243               0.000425955               0.000000000               0.000000000               0.000000000               0.000000000               0.000323994               0.001439772               0.000031053              -0.000058474               0.000499410               0.000440937               0.000000000               0.000000000               0.000000000               0.000000000               0.000319686               0.001508711               0.000026859              -0.000068707               0.000525801               0.000457094               0.000000000               0.000000000               0.000000000               0.000000000               0.000317680               0.001584530               0.000019976              -0.000078936               0.000554483               0.000475547               0.000000000               0.000000000               0.000000000               0.000000000               0.000313212               0.001660202               0.000010896              -0.000090071               0.000583419               0.000493348               0.000000000               0.000000000               0.000000000               0.000000000               0.000302307               0.001692410               0.000003091              -0.000098186               0.000596860               0.000498674               0.000000000               0.000000000               0.000000000               0.000000000               0.000137716               0.000129569               0.000080464               0.000035447               0.000031373               0.000066821               0.000000000               0.000000000               0.000000000               0.000000000               0.000175379               0.000238145               0.000103489               0.000035999               0.000067381               0.000103380               0.000000000               0.000000000               0.000000000               0.000000000               0.000204896               0.000411598               0.000114783               0.000025386               0.000128736               0.000154122               0.000000000               0.000000000               0.000000000               0.000000000               0.000222991               0.000563237               0.000103352               0.000013217               0.000183338               0.000196555               0.000000000               0.000000000               0.000000000               0.000000000               0.000237525               0.000698476               0.000087572               0.000001762               0.000232236               0.000233998               0.000000000               0.000000000               0.000000000               0.000000000               0.000256155               0.000824687               0.000073202              -0.000007028               0.000277235               0.000270208               0.000000000               0.000000000               0.000000000               0.000000000               0.000279286               0.000940212               0.000058188              -0.000012794               0.000317666               0.000304871               0.000000000               0.000000000               0.000000000               0.000000000               0.000305128               0.001043076               0.000042193              -0.000015961               0.000353009               0.000337048               0.000000000               0.000000000               0.000000000               0.000000000               0.000329896               0.001136528               0.000028769              -0.000018355               0.000384957               0.000366602               0.000000000               0.000000000               0.000000000               0.000000000               0.000349665               0.001225824               0.000022858              -0.000022104               0.000415972               0.000393868               0.000000000               0.000000000               0.000000000               0.000000000               0.000363682               0.001310336               0.000022148              -0.000027411               0.000445911               0.000418500               0.000000000               0.000000000               0.000000000               0.000000000               0.000372620               0.001385921               0.000022105              -0.000033508               0.000473138               0.000439631               0.000000000               0.000000000               0.000000000               0.000000000               0.000375498               0.001449926               0.000022310              -0.000040429               0.000496780               0.000456351               0.000000000               0.000000000               0.000000000               0.000000000               0.000378263               0.001515442               0.000021671              -0.000047581               0.000521003               0.000473421               0.000000000               0.000000000               0.000000000               0.000000000               0.000384011               0.001587691               0.000017455              -0.000054457               0.000547378               0.000492920               0.000000000               0.000000000               0.000000000               0.000000000               0.000388953               0.001658133               0.000009269              -0.000061409               0.000573175               0.000511766               0.000000000               0.000000000               0.000000000               0.000000000               0.000387221               0.001689254               0.000002958              -0.000065949               0.000585062               0.000519113               0.000000000               0.000000000               0.000000000               0.000000000               0.000112507               0.000096426               0.000050807               0.000030137               0.000022096               0.000052233               0.000000000               0.000000000               0.000000000               0.000000000               0.000174270               0.000197797               0.000071825               0.000040626               0.000052390               0.000093016               0.000000000               0.000000000               0.000000000               0.000000000               0.000220364               0.000363561               0.000084552               0.000037191               0.000108789               0.000145980               0.000000000               0.000000000               0.000000000               0.000000000               0.000244829               0.000518057               0.000078731               0.000027053               0.000163666               0.000190720               0.000000000               0.000000000               0.000000000               0.000000000               0.000263566               0.000660938               0.000069475               0.000016220               0.000214904               0.000231123               0.000000000               0.000000000               0.000000000               0.000000000               0.000280198               0.000794186               0.000059192               0.000005801               0.000262792               0.000268593               0.000000000               0.000000000               0.000000000               0.000000000               0.000296828               0.000915805               0.000046971              -0.000003165               0.000306320               0.000303155               0.000000000               0.000000000               0.000000000               0.000000000               0.000316854               0.001025371               0.000033709              -0.000009351               0.000344904               0.000335553               0.000000000               0.000000000               0.000000000               0.000000000               0.000341381               0.001126958               0.000022155              -0.000012852               0.000379933               0.000367081               0.000000000               0.000000000               0.000000000               0.000000000               0.000366769               0.001223080               0.000015687              -0.000015347               0.000412805               0.000397458               0.000000000               0.000000000               0.000000000               0.000000000               0.000388131               0.001312361               0.000013644              -0.000018496               0.000443615               0.000425119               0.000000000               0.000000000               0.000000000               0.000000000               0.000404539               0.001389895               0.000012389              -0.000022035               0.000470639               0.000448604               0.000000000               0.000000000               0.000000000               0.000000000               0.000416832               0.001457313               0.000011711              -0.000025852               0.000494383               0.000468531               0.000000000               0.000000000               0.000000000               0.000000000               0.000427774               0.001522847               0.000012287              -0.000029941               0.000517591               0.000487650               0.000000000               0.000000000               0.000000000               0.000000000               0.000438653               0.001587321               0.000010282              -0.000033920               0.000540408               0.000506488               0.000000000               0.000000000               0.000000000               0.000000000               0.000451443               0.001652676               0.000005572              -0.000037293               0.000563317               0.000526024               0.000000000               0.000000000               0.000000000               0.000000000               0.000457355               0.001684623               0.000002514              -0.000039070               0.000574559               0.000535489               0.000000000               0.000000000               0.000000000               0.000000000               0.000092177               0.000076323               0.000024973               0.000025026               0.000017099               0.000042125               0.000000000               0.000000000               0.000000000               0.000000000               0.000169253               0.000171605               0.000037071               0.000042019               0.000043195               0.000085214               0.000000000               0.000000000               0.000000000               0.000000000               0.000230799               0.000330615               0.000044816               0.000045222               0.000095130               0.000140352               0.000000000               0.000000000               0.000000000               0.000000000               0.000262155               0.000486040               0.000042831               0.000037553               0.000149494               0.000187047               0.000000000               0.000000000               0.000000000               0.000000000               0.000282090               0.000632685               0.000038440               0.000026698               0.000201994               0.000228691               0.000000000               0.000000000               0.000000000               0.000000000               0.000296053               0.000768988               0.000032670               0.000014896               0.000251361               0.000266258               0.000000000               0.000000000               0.000000000               0.000000000               0.000310155               0.000895001               0.000026272               0.000004433               0.000296853               0.000301286               0.000000000               0.000000000               0.000000000               0.000000000               0.000328401               0.001012438               0.000019203              -0.000003405               0.000338611               0.000335206               0.000000000               0.000000000               0.000000000               0.000000000               0.000351589               0.001120230               0.000012457              -0.000008183               0.000376134               0.000367951               0.000000000               0.000000000               0.000000000               0.000000000               0.000377389               0.001217744               0.000007703              -0.000010697               0.000409476               0.000398779               0.000000000               0.000000000               0.000000000               0.000000000               0.000402783               0.001308909               0.000005694              -0.000012570               0.000440489               0.000427919               0.000000000               0.000000000               0.000000000               0.000000000               0.000424255               0.001388302               0.000004700              -0.000014442               0.000467577               0.000453135               0.000000000               0.000000000               0.000000000               0.000000000               0.000443336               0.001460151               0.000004045              -0.000016268               0.000492135               0.000475867               0.000000000               0.000000000               0.000000000               0.000000000               0.000459991               0.001526572               0.000004195              -0.000018325               0.000514961               0.000496636               0.000000000               0.000000000               0.000000000               0.000000000               0.000473609               0.001585359               0.000003347              -0.000020567               0.000535303               0.000514737               0.000000000               0.000000000               0.000000000               0.000000000               0.000490000               0.001649781               0.000001799              -0.000022472               0.000557412               0.000534940               0.000000000               0.000000000               0.000000000               0.000000000               0.000498583               0.001683969               0.000001030              -0.000023527               0.000569160               0.000545632               0.000000000               0.000000000               0.000000000               0.000000000               0.000083714               0.000070207               0.000000000               0.000022617               0.000015863               0.000038480               0.000000000               0.000000000               0.000000000               0.000000000               0.000165957               0.000161841               0.000000000               0.000042003               0.000039945               0.000081949               0.000000000               0.000000000               0.000000000               0.000000000               0.000234788               0.000317484              -0.000000000               0.000048360               0.000089707               0.000138067               0.000000000               0.000000000               0.000000000               0.000000000               0.000268680               0.000474581              -0.000000000               0.000041432               0.000144381               0.000185813               0.000000000               0.000000000               0.000000000               0.000000000               0.000287578               0.000622666              -0.000000000               0.000030008               0.000197550               0.000227559               0.000000000               0.000000000               0.000000000               0.000000000               0.000302302               0.000759889              -0.000000000               0.000018377               0.000247168               0.000265545               0.000000000               0.000000000               0.000000000               0.000000000               0.000316160               0.000888051              -0.000000000               0.000007554               0.000293496               0.000301050               0.000000000               0.000000000               0.000000000               0.000000000               0.000332819               0.001007044              -0.000000000              -0.000001073               0.000336036               0.000334962               0.000000000               0.000000000               0.000000000               0.000000000               0.000354421               0.001115653               0.000000000              -0.000006549               0.000374064               0.000367515               0.000000000               0.000000000               0.000000000               0.000000000               0.000380610               0.001214918               0.000000000              -0.000009136               0.000408014               0.000398878               0.000000000               0.000000000               0.000000000               0.000000000               0.000408196               0.001307804              -0.000000000              -0.000010402               0.000439398               0.000428996               0.000000000               0.000000000               0.000000000               0.000000000               0.000431507               0.001387259               0.000000000              -0.000011592               0.000466279               0.000454687               0.000000000               0.000000000               0.000000000               0.000000000               0.000452499               0.001460486               0.000000000              -0.000012874               0.000491115               0.000478241               0.000000000               0.000000000               0.000000000               0.000000000               0.000470781               0.001527478               0.000000000              -0.000014392               0.000513951               0.000499560               0.000000000               0.000000000               0.000000000               0.000000000               0.000485151               0.001584310               0.000000000              -0.000016107               0.000533467               0.000517360               0.000000000               0.000000000               0.000000000               0.000000000               0.000502116               0.001648996               0.000000000              -0.000017831               0.000555604               0.000537773               0.000000000               0.000000000               0.000000000               0.000000000               0.000510692               0.001684303               0.000000000              -0.000019029               0.000567772               0.000548743               0.000000000               0.000000000               0.000000000               0.000000000               0.000082242               0.000799225              -0.000000000              -0.000069062               0.000289427               0.000220364               0.000000000               0.000000000               0.000000000               0.000000000               0.000103727               0.000679713              -0.000000000              -0.000046066               0.000241924               0.000195858               0.000000000               0.000000000               0.000000000               0.000000000               0.000157940               0.000596152               0.000000000              -0.000015291               0.000203812               0.000188521               0.000000000               0.000000000               0.000000000               0.000000000               0.000178818               0.000557918               0.000000000              -0.000002683               0.000186865               0.000184182               0.000000000               0.000000000               0.000000000               0.000000000               0.000180255               0.000547838               0.000000000              -0.000000884               0.000182906               0.000182021               0.000000000               0.000000000               0.000000000               0.000000000               0.000174899               0.000547334              -0.000000000              -0.000002830               0.000183386               0.000180557               0.000000000               0.000000000               0.000000000               0.000000000               0.000173685               0.000545003              -0.000000000              -0.000002994               0.000182664               0.000179670               0.000000000               0.000000000               0.000000000               0.000000000               0.000174417               0.000527862              -0.000000000              -0.000000576               0.000176145               0.000175568               0.000000000               0.000000000               0.000000000               0.000000000               0.000177006               0.000509323              -0.000000000               0.000002712               0.000168869               0.000171581               0.000000000               0.000000000               0.000000000               0.000000000               0.000178849               0.000493991               0.000000000               0.000005320               0.000162889               0.000168208               0.000000000               0.000000000               0.000000000               0.000000000               0.000175016               0.000481009               0.000000000               0.000005505               0.000158500               0.000164005               0.000000000               0.000000000               0.000000000               0.000000000               0.000163708               0.000475305               0.000000000               0.000001977               0.000157774               0.000159752               0.000000000               0.000000000               0.000000000               0.000000000               0.000145073               0.000477889               0.000000000              -0.000005334               0.000161073               0.000155739               0.000000000               0.000000000               0.000000000               0.000000000               0.000117719               0.000488074               0.000000000              -0.000016865               0.000168311               0.000151446               0.000000000               0.000000000               0.000000000               0.000000000               0.000082781               0.000505543               0.000000000              -0.000032150               0.000179229               0.000147079               0.000000000               0.000000000               0.000000000               0.000000000               0.000042846               0.000529371               0.000000000              -0.000050104               0.000193157               0.000143053               0.000000000               0.000000000               0.000000000               0.000000000               0.000025106               0.000551320              -0.000000000              -0.000059500               0.000203605               0.000144105               0.000000000               0.000000000               0.000000000               0.000000000               0.000085917               0.000788313              -0.000063665              -0.000066320               0.000284875               0.000218555               0.000000000               0.000000000               0.000000000               0.000000000               0.000106243               0.000673768              -0.000042702              -0.000044380               0.000239380               0.000195001               0.000000000               0.000000000               0.000000000               0.000000000               0.000157675               0.000591402              -0.000020050              -0.000014797               0.000202064               0.000187267               0.000000000               0.000000000               0.000000000               0.000000000               0.000176921               0.000555383              -0.000007120              -0.000003077               0.000186152               0.000183074               0.000000000               0.000000000               0.000000000               0.000000000               0.000177886               0.000546504              -0.000000162              -0.000001606               0.000182702               0.000181096               0.000000000               0.000000000               0.000000000               0.000000000               0.000173053               0.000546951               0.000000547              -0.000003474               0.000183473               0.000179999               0.000000000               0.000000000               0.000000000               0.000000000               0.000173566               0.000543577              -0.000006280              -0.000002860               0.000182144               0.000179284               0.000000000               0.000000000               0.000000000               0.000000000               0.000175669               0.000528957              -0.000012260              -0.000000244               0.000176399               0.000176155               0.000000000               0.000000000               0.000000000               0.000000000               0.000174156               0.000513759              -0.000013101               0.000001089               0.000170888               0.000171977               0.000000000               0.000000000               0.000000000               0.000000000               0.000171370               0.000502099              -0.000015040               0.000001501               0.000166864               0.000168366               0.000000000               0.000000000               0.000000000               0.000000000               0.000165607               0.000494138              -0.000015588               0.000000335               0.000164599               0.000164934               0.000000000               0.000000000               0.000000000               0.000000000               0.000152365               0.000492014              -0.000014096              -0.000004365               0.000165458               0.000161093               0.000000000               0.000000000               0.000000000               0.000000000               0.000133434               0.000496950              -0.000012398              -0.000012081               0.000169675               0.000157594               0.000000000               0.000000000               0.000000000               0.000000000               0.000108739               0.000508985              -0.000009694              -0.000022846               0.000177275               0.000154429               0.000000000               0.000000000               0.000000000               0.000000000               0.000076621               0.000527071              -0.000006424              -0.000037151               0.000188072               0.000150921               0.000000000               0.000000000               0.000000000               0.000000000               0.000039240               0.000550827              -0.000003191              -0.000054138               0.000201653               0.000147515               0.000000000               0.000000000               0.000000000               0.000000000               0.000023189               0.000572598              -0.000002694              -0.000062879               0.000211824               0.000148945               0.000000000               0.000000000               0.000000000               0.000000000               0.000102187               0.000756847              -0.000121440              -0.000056286               0.000271042               0.000214756               0.000000000               0.000000000               0.000000000               0.000000000               0.000114843               0.000652381              -0.000081136              -0.000038481               0.000230285               0.000191804               0.000000000               0.000000000               0.000000000               0.000000000               0.000155809               0.000579305              -0.000037470              -0.000013985               0.000197761               0.000183777               0.000000000               0.000000000               0.000000000               0.000000000               0.000170205               0.000551915              -0.000012983              -0.000005162               0.000185691               0.000180528               0.000000000               0.000000000               0.000000000               0.000000000               0.000172440               0.000546325              -0.000000164              -0.000003626               0.000183315               0.000179689               0.000000000               0.000000000               0.000000000               0.000000000               0.000170585               0.000545966              -0.000000317              -0.000004276               0.000183412               0.000179136               0.000000000               0.000000000               0.000000000               0.000000000               0.000170613               0.000540977              -0.000012916              -0.000003642               0.000181538               0.000177896               0.000000000               0.000000000               0.000000000               0.000000000               0.000171431               0.000533551              -0.000022674              -0.000002407               0.000178651               0.000176244               0.000000000               0.000000000               0.000000000               0.000000000               0.000168051               0.000530610              -0.000023615              -0.000003307               0.000177970               0.000174663               0.000000000               0.000000000               0.000000000               0.000000000               0.000161133               0.000531452              -0.000025978              -0.000006007               0.000179151               0.000173145               0.000000000               0.000000000               0.000000000               0.000000000               0.000149154               0.000536387              -0.000026969              -0.000011115               0.000182499               0.000171384               0.000000000               0.000000000               0.000000000               0.000000000               0.000130930               0.000544867              -0.000025163              -0.000019009               0.000187957               0.000168948               0.000000000               0.000000000               0.000000000               0.000000000               0.000111096               0.000558031              -0.000022476              -0.000028093               0.000195373               0.000167280               0.000000000               0.000000000               0.000000000               0.000000000               0.000089655               0.000576150              -0.000018111              -0.000038398               0.000204847               0.000166449               0.000000000               0.000000000               0.000000000               0.000000000               0.000062760               0.000597809              -0.000012546              -0.000051191               0.000216331               0.000165140               0.000000000               0.000000000               0.000000000               0.000000000               0.000031491               0.000623705              -0.000006395              -0.000066154               0.000229951               0.000163797               0.000000000               0.000000000               0.000000000               0.000000000               0.000019630               0.000646694              -0.000005453              -0.000073475               0.000240054               0.000166579               0.000000000               0.000000000               0.000000000               0.000000000               0.000125984               0.000708896              -0.000166354              -0.000041368               0.000250086               0.000208718               0.000000000               0.000000000               0.000000000               0.000000000               0.000125288               0.000616033              -0.000110588              -0.000030021               0.000215349               0.000185328               0.000000000               0.000000000               0.000000000               0.000000000               0.000152596               0.000563412              -0.000049428              -0.000013203               0.000192203               0.000179000               0.000000000               0.000000000               0.000000000               0.000000000               0.000160134               0.000550179              -0.000016834              -0.000008722               0.000186298               0.000177576               0.000000000               0.000000000               0.000000000               0.000000000               0.000160859               0.000549291              -0.000002415              -0.000008339               0.000185875               0.000177536               0.000000000               0.000000000               0.000000000               0.000000000               0.000163920               0.000550606              -0.000004465              -0.000007356               0.000185985               0.000178630               0.000000000               0.000000000               0.000000000               0.000000000               0.000169187               0.000549009              -0.000019851              -0.000005181               0.000184728               0.000179547               0.000000000               0.000000000               0.000000000               0.000000000               0.000173713               0.000553958              -0.000030675              -0.000004102               0.000186018               0.000181916               0.000000000               0.000000000               0.000000000               0.000000000               0.000168752               0.000567120              -0.000032439              -0.000007608               0.000191574               0.000183966               0.000000000               0.000000000               0.000000000               0.000000000               0.000153677               0.000584854              -0.000036315              -0.000015478               0.000200109               0.000184631               0.000000000               0.000000000               0.000000000               0.000000000               0.000134035               0.000607880              -0.000038107              -0.000025722               0.000211199               0.000185477               0.000000000               0.000000000               0.000000000               0.000000000               0.000110847               0.000633951              -0.000036903              -0.000037676               0.000223874               0.000186198               0.000000000               0.000000000               0.000000000               0.000000000               0.000088580               0.000662885              -0.000034081              -0.000049643               0.000237507               0.000187864               0.000000000               0.000000000               0.000000000               0.000000000               0.000069145               0.000694241              -0.000028695              -0.000060851               0.000251695               0.000190844               0.000000000               0.000000000               0.000000000               0.000000000               0.000046968               0.000725963              -0.000021232              -0.000073132               0.000266363               0.000193230               0.000000000               0.000000000               0.000000000               0.000000000               0.000022367               0.000758458              -0.000011608              -0.000086419               0.000281623               0.000195204               0.000000000               0.000000000               0.000000000               0.000000000               0.000015381               0.000784028              -0.000009154              -0.000092235               0.000292085               0.000199850               0.000000000               0.000000000               0.000000000               0.000000000               0.000148268               0.000649019              -0.000197877              -0.000025527               0.000224847               0.000199320               0.000000000               0.000000000               0.000000000               0.000000000               0.000133153               0.000575316              -0.000129459              -0.000021982               0.000199097               0.000177115               0.000000000               0.000000000               0.000000000               0.000000000               0.000145575               0.000549692              -0.000055629              -0.000014121               0.000187936               0.000173815               0.000000000               0.000000000               0.000000000               0.000000000               0.000145800               0.000552291              -0.000020880              -0.000014361               0.000188882               0.000174521               0.000000000               0.000000000               0.000000000               0.000000000               0.000147438               0.000561920              -0.000006872              -0.000014951               0.000192289               0.000177338               0.000000000               0.000000000               0.000000000               0.000000000               0.000158831               0.000572325              -0.000011705              -0.000011979               0.000194766               0.000182787               0.000000000               0.000000000               0.000000000               0.000000000               0.000170391               0.000581016              -0.000029454              -0.000008730               0.000196580               0.000187850               0.000000000               0.000000000               0.000000000               0.000000000               0.000176682               0.000604217              -0.000040029              -0.000009271               0.000204494               0.000195223               0.000000000               0.000000000               0.000000000               0.000000000               0.000170555               0.000636571              -0.000041480              -0.000015613               0.000217393               0.000201779               0.000000000               0.000000000               0.000000000               0.000000000               0.000155361               0.000675489              -0.000044692              -0.000026176               0.000233886               0.000207710               0.000000000               0.000000000               0.000000000               0.000000000               0.000134213               0.000718294              -0.000045939              -0.000039457               0.000252581               0.000213125               0.000000000               0.000000000               0.000000000               0.000000000               0.000108278               0.000762371              -0.000043996              -0.000054692               0.000272352               0.000217660               0.000000000               0.000000000               0.000000000               0.000000000               0.000084952               0.000808207              -0.000040104              -0.000069169               0.000292456               0.000223287               0.000000000               0.000000000               0.000000000               0.000000000               0.000064324               0.000853789              -0.000033516              -0.000082602               0.000312127               0.000229526               0.000000000               0.000000000               0.000000000               0.000000000               0.000041410               0.000896614              -0.000024610              -0.000096548               0.000331051               0.000234503               0.000000000               0.000000000               0.000000000               0.000000000               0.000018838               0.000936251              -0.000013314              -0.000109967               0.000348736               0.000238769               0.000000000               0.000000000               0.000000000               0.000000000               0.000013780               0.000963727              -0.000010048              -0.000115298               0.000359672               0.000244374               0.000000000               0.000000000               0.000000000               0.000000000               0.000172270               0.000583194              -0.000214511              -0.000008298               0.000197162               0.000188864               0.000000000               0.000000000               0.000000000               0.000000000               0.000139522               0.000536136              -0.000138970              -0.000014696               0.000183609               0.000168913               0.000000000               0.000000000               0.000000000               0.000000000               0.000134701               0.000543396              -0.000060886              -0.000017411               0.000186934               0.000169523               0.000000000               0.000000000               0.000000000               0.000000000               0.000132704               0.000565950              -0.000027268              -0.000020980               0.000195641               0.000174662               0.000000000               0.000000000               0.000000000               0.000000000               0.000139409               0.000590835              -0.000015055              -0.000021576               0.000204135               0.000182559               0.000000000               0.000000000               0.000000000               0.000000000               0.000156069               0.000616522              -0.000021766              -0.000018539               0.000211685               0.000193146               0.000000000               0.000000000               0.000000000               0.000000000               0.000176059               0.000651273              -0.000037932              -0.000015387               0.000222218               0.000206831               0.000000000               0.000000000               0.000000000               0.000000000               0.000186556               0.000698349              -0.000045566              -0.000017335               0.000238559               0.000221224               0.000000000               0.000000000               0.000000000               0.000000000               0.000178649               0.000751851              -0.000046118              -0.000026988               0.000259610               0.000232623               0.000000000               0.000000000               0.000000000               0.000000000               0.000160721               0.000806754              -0.000047981              -0.000040574               0.000282440               0.000241866               0.000000000               0.000000000               0.000000000               0.000000000               0.000137962               0.000862317              -0.000048828              -0.000056054               0.000306121               0.000250067               0.000000000               0.000000000               0.000000000               0.000000000               0.000113703               0.000917435              -0.000045949              -0.000072041               0.000329822               0.000257782               0.000000000               0.000000000               0.000000000               0.000000000               0.000092193               0.000972217              -0.000040495              -0.000086955               0.000353054               0.000266099               0.000000000               0.000000000               0.000000000               0.000000000               0.000070297               0.001024494              -0.000032827              -0.000101700               0.000375395               0.000273695               0.000000000               0.000000000               0.000000000               0.000000000               0.000045389               0.001071069              -0.000023342              -0.000116862               0.000395974               0.000279111               0.000000000               0.000000000               0.000000000               0.000000000               0.000020958               0.001112183              -0.000012278              -0.000131163               0.000414445               0.000283282               0.000000000               0.000000000               0.000000000               0.000000000               0.000014703               0.001139569              -0.000009286              -0.000136932               0.000425497               0.000288564               0.000000000               0.000000000               0.000000000               0.000000000               0.000188964               0.000518056              -0.000216630               0.000006104               0.000170649               0.000176753               0.000000000               0.000000000               0.000000000               0.000000000               0.000142526               0.000499890              -0.000142157              -0.000009039               0.000169641               0.000160602               0.000000000               0.000000000               0.000000000               0.000000000               0.000125338               0.000545515              -0.000067356              -0.000021187               0.000188899               0.000167711               0.000000000               0.000000000               0.000000000               0.000000000               0.000124413               0.000593422              -0.000036604              -0.000027523               0.000206980               0.000179457               0.000000000               0.000000000               0.000000000               0.000000000               0.000139876               0.000642573              -0.000026084              -0.000027868               0.000223478               0.000195610               0.000000000               0.000000000               0.000000000               0.000000000               0.000168444               0.000694381              -0.000029626              -0.000023631               0.000239335               0.000215704               0.000000000               0.000000000               0.000000000               0.000000000               0.000193948               0.000752011              -0.000043341              -0.000021271               0.000257758               0.000236487               0.000000000               0.000000000               0.000000000               0.000000000               0.000200993               0.000816169              -0.000049940              -0.000026649               0.000280937               0.000254288               0.000000000               0.000000000               0.000000000               0.000000000               0.000189734               0.000885748              -0.000050463              -0.000039568               0.000308436               0.000268868               0.000000000               0.000000000               0.000000000               0.000000000               0.000168741               0.000950208              -0.000052567              -0.000055498               0.000335232               0.000279734               0.000000000               0.000000000               0.000000000               0.000000000               0.000143462               0.001011076              -0.000051241              -0.000072586               0.000361217               0.000288631               0.000000000               0.000000000               0.000000000               0.000000000               0.000118756               0.001071203              -0.000045781              -0.000089367               0.000386853               0.000297486               0.000000000               0.000000000               0.000000000               0.000000000               0.000097377               0.001129086              -0.000037724              -0.000104619               0.000411231               0.000306612               0.000000000               0.000000000               0.000000000               0.000000000               0.000073029               0.001181713              -0.000029013              -0.000120328               0.000434010               0.000313682               0.000000000               0.000000000               0.000000000               0.000000000               0.000047108               0.001228869              -0.000020040              -0.000135943               0.000454933               0.000318990               0.000000000               0.000000000               0.000000000               0.000000000               0.000023196               0.001271318              -0.000010067              -0.000150216               0.000473840               0.000323624               0.000000000               0.000000000               0.000000000               0.000000000               0.000016792               0.001299911              -0.000008110              -0.000156192               0.000485363               0.000329172               0.000000000               0.000000000               0.000000000               0.000000000               0.000192467               0.000453108              -0.000209954               0.000015536               0.000145856               0.000161392               0.000000000               0.000000000               0.000000000               0.000000000               0.000140799               0.000471420              -0.000142600              -0.000006128               0.000159181               0.000153053               0.000000000               0.000000000               0.000000000               0.000000000               0.000119549               0.000560037              -0.000075442              -0.000025174               0.000195068               0.000169895               0.000000000               0.000000000               0.000000000               0.000000000               0.000128282               0.000638422              -0.000047688              -0.000031697               0.000223371               0.000191674               0.000000000               0.000000000               0.000000000               0.000000000               0.000156476               0.000714379              -0.000036650              -0.000030619               0.000248330               0.000217711               0.000000000               0.000000000               0.000000000               0.000000000               0.000193157               0.000786245              -0.000040075              -0.000025847               0.000270695               0.000244848               0.000000000               0.000000000               0.000000000               0.000000000               0.000218072               0.000856008              -0.000050885              -0.000025224               0.000293741               0.000268517               0.000000000               0.000000000               0.000000000               0.000000000               0.000219146               0.000934159              -0.000054130              -0.000034590               0.000322913               0.000288323               0.000000000               0.000000000               0.000000000               0.000000000               0.000200794               0.001009072              -0.000052770              -0.000050836               0.000353300               0.000302463               0.000000000               0.000000000               0.000000000               0.000000000               0.000175250               0.001077020              -0.000053812              -0.000068909               0.000381973               0.000313064               0.000000000               0.000000000               0.000000000               0.000000000               0.000149712               0.001143210              -0.000049085              -0.000086759               0.000409986               0.000323227               0.000000000               0.000000000               0.000000000               0.000000000               0.000124635               0.001209031              -0.000039748              -0.000104391               0.000437803               0.000333413               0.000000000               0.000000000               0.000000000               0.000000000               0.000098547               0.001271803              -0.000030995              -0.000122020               0.000464603               0.000342583               0.000000000               0.000000000               0.000000000               0.000000000               0.000070594               0.001329992              -0.000021966              -0.000139776               0.000489918               0.000350142               0.000000000               0.000000000               0.000000000               0.000000000               0.000045016               0.001386836              -0.000013534              -0.000156473               0.000514432               0.000357959               0.000000000               0.000000000               0.000000000               0.000000000               0.000022351               0.001440512              -0.000006560              -0.000171682               0.000537393               0.000365711               0.000000000               0.000000000               0.000000000               0.000000000               0.000015316               0.001474956              -0.000006402              -0.000178625               0.000551189               0.000372563               0.000000000               0.000000000               0.000000000               0.000000000               0.000197059               0.000393819              -0.000196826               0.000024669               0.000123049               0.000147718               0.000000000               0.000000000               0.000000000               0.000000000               0.000143041               0.000450876              -0.000143006              -0.000002719               0.000151197               0.000148478               0.000000000               0.000000000               0.000000000               0.000000000               0.000121485               0.000579753              -0.000087714              -0.000026912               0.000202220               0.000175307               0.000000000               0.000000000               0.000000000               0.000000000               0.000138767               0.000684135              -0.000061514              -0.000033479               0.000239202               0.000205723               0.000000000               0.000000000               0.000000000               0.000000000               0.000174915               0.000776429              -0.000048724              -0.000031461               0.000269294               0.000237833               0.000000000               0.000000000               0.000000000               0.000000000               0.000215874               0.000857146              -0.000048129              -0.000026191               0.000294443               0.000268252               0.000000000               0.000000000               0.000000000               0.000000000               0.000239600               0.000933708              -0.000050148              -0.000026863               0.000320187               0.000293324               0.000000000               0.000000000               0.000000000               0.000000000               0.000234503               0.001016886              -0.000050600              -0.000039172               0.000352016               0.000312844               0.000000000               0.000000000               0.000000000               0.000000000               0.000210182               0.001092866              -0.000050095              -0.000057790               0.000383549               0.000325758               0.000000000               0.000000000               0.000000000               0.000000000               0.000185208               0.001164158              -0.000048756              -0.000076067               0.000413404               0.000337338               0.000000000               0.000000000               0.000000000               0.000000000               0.000161405               0.001238152              -0.000041579              -0.000094242               0.000444127               0.000349885               0.000000000               0.000000000               0.000000000               0.000000000               0.000138254               0.001312758              -0.000031407              -0.000112249               0.000474998               0.000362749               0.000000000               0.000000000               0.000000000               0.000000000               0.000113256               0.001384371              -0.000022771              -0.000130575               0.000504977               0.000374402               0.000000000               0.000000000               0.000000000               0.000000000               0.000088161               0.001455043              -0.000014062              -0.000148820               0.000534616               0.000385796               0.000000000               0.000000000               0.000000000               0.000000000               0.000065486               0.001525051              -0.000005783              -0.000166074               0.000563703               0.000397629               0.000000000               0.000000000               0.000000000               0.000000000               0.000046198               0.001590780              -0.000001203              -0.000181523               0.000590762               0.000409240               0.000000000               0.000000000               0.000000000               0.000000000               0.000035787               0.001624343              -0.000000256              -0.000189622               0.000604650               0.000415027               0.000000000               0.000000000               0.000000000               0.000000000               0.000198477               0.000336971              -0.000180302               0.000032307               0.000101553               0.000133861               0.000000000               0.000000000               0.000000000               0.000000000               0.000150578               0.000417528              -0.000146220               0.000004276               0.000137749               0.000142025               0.000000000               0.000000000               0.000000000               0.000000000               0.000133249               0.000572624              -0.000107683              -0.000021610               0.000198076               0.000176466               0.000000000               0.000000000               0.000000000               0.000000000               0.000151229               0.000694747              -0.000081875              -0.000030133               0.000241624               0.000211492               0.000000000               0.000000000               0.000000000               0.000000000               0.000184463               0.000802818              -0.000065972              -0.000031179               0.000277996               0.000246818               0.000000000               0.000000000               0.000000000               0.000000000               0.000220028               0.000889292              -0.000055880              -0.000028651               0.000305978               0.000277327               0.000000000               0.000000000               0.000000000               0.000000000               0.000246263               0.000962406              -0.000048375              -0.000027952               0.000330116               0.000302164               0.000000000               0.000000000               0.000000000               0.000000000               0.000251081               0.001040490              -0.000045270              -0.000035906               0.000358795               0.000322889               0.000000000               0.000000000               0.000000000               0.000000000               0.000235631               0.001118870              -0.000046705              -0.000051497               0.000390119               0.000338622               0.000000000               0.000000000               0.000000000               0.000000000               0.000215176               0.001193015              -0.000046262              -0.000068436               0.000420480               0.000352044               0.000000000               0.000000000               0.000000000               0.000000000               0.000194998               0.001267459              -0.000041200              -0.000085308               0.000450918               0.000365610               0.000000000               0.000000000               0.000000000               0.000000000               0.000176242               0.001344227              -0.000034858              -0.000101937               0.000482050               0.000380113               0.000000000               0.000000000               0.000000000               0.000000000               0.000158115               0.001423501              -0.000026507              -0.000118644               0.000514044               0.000395400               0.000000000               0.000000000               0.000000000               0.000000000               0.000137644               0.001499605              -0.000017834              -0.000135834               0.000545141               0.000409308               0.000000000               0.000000000               0.000000000               0.000000000               0.000118237               0.001576536              -0.000010411              -0.000152728               0.000576416               0.000423688               0.000000000               0.000000000               0.000000000               0.000000000               0.000100706               0.001652238              -0.000003828              -0.000168764               0.000606995               0.000438231               0.000000000               0.000000000               0.000000000               0.000000000               0.000084757               0.001681549               0.000001870              -0.000178409               0.000619981               0.000441571               0.000000000               0.000000000               0.000000000               0.000000000               0.000190266               0.000279623              -0.000162091               0.000036396               0.000081075               0.000117471               0.000000000               0.000000000               0.000000000               0.000000000               0.000160828               0.000376766              -0.000147974               0.000013215               0.000121183               0.000134397               0.000000000               0.000000000               0.000000000               0.000000000               0.000148726               0.000547247              -0.000125904              -0.000012634               0.000186625               0.000173991               0.000000000               0.000000000               0.000000000               0.000000000               0.000162779               0.000684606              -0.000100119              -0.000024534               0.000236378               0.000211844               0.000000000               0.000000000               0.000000000               0.000000000               0.000187483               0.000802537              -0.000079335              -0.000030011               0.000277513               0.000247503               0.000000000               0.000000000               0.000000000               0.000000000               0.000214503               0.000890082              -0.000062133              -0.000030821               0.000306965               0.000276143               0.000000000               0.000000000               0.000000000               0.000000000               0.000244405               0.000965350              -0.000047626              -0.000029017               0.000331452               0.000302436               0.000000000               0.000000000               0.000000000               0.000000000               0.000264978               0.001044665              -0.000039778              -0.000031216               0.000358624               0.000327407               0.000000000               0.000000000               0.000000000               0.000000000               0.000267004               0.001127710              -0.000041113              -0.000040837               0.000389512               0.000348675               0.000000000               0.000000000               0.000000000               0.000000000               0.000256127               0.001206281              -0.000043199              -0.000054737               0.000420336               0.000365598               0.000000000               0.000000000               0.000000000               0.000000000               0.000243419               0.001280302              -0.000042920              -0.000068755               0.000449682               0.000380926               0.000000000               0.000000000               0.000000000               0.000000000               0.000229253               0.001353041              -0.000039979              -0.000083160               0.000478729               0.000395569               0.000000000               0.000000000               0.000000000               0.000000000               0.000215742               0.001430672              -0.000032977              -0.000097931               0.000509530               0.000411599               0.000000000               0.000000000               0.000000000               0.000000000               0.000201019               0.001507267              -0.000023692              -0.000113026               0.000540093               0.000427067               0.000000000               0.000000000               0.000000000               0.000000000               0.000183279               0.001581369              -0.000014599              -0.000128941               0.000570098               0.000441157               0.000000000               0.000000000               0.000000000               0.000000000               0.000163210               0.001650940              -0.000006109              -0.000145163               0.000598695               0.000453532               0.000000000               0.000000000               0.000000000               0.000000000               0.000143933               0.001676787               0.000001147              -0.000155623               0.000610798               0.000455175               0.000000000               0.000000000               0.000000000               0.000000000               0.000178111               0.000218964              -0.000140057               0.000039421               0.000059847               0.000099267               0.000000000               0.000000000               0.000000000               0.000000000               0.000169200               0.000330256              -0.000142830               0.000022167               0.000102695               0.000124863               0.000000000               0.000000000               0.000000000               0.000000000               0.000166424               0.000511930              -0.000134280              -0.000001583               0.000171169               0.000169587               0.000000000               0.000000000               0.000000000               0.000000000               0.000178693               0.000660104              -0.000111874              -0.000015503               0.000225200               0.000209697               0.000000000               0.000000000               0.000000000               0.000000000               0.000196765               0.000778807              -0.000089378              -0.000023564               0.000267454               0.000243891               0.000000000               0.000000000               0.000000000               0.000000000               0.000218158               0.000873550              -0.000069039              -0.000027385               0.000300309               0.000272924               0.000000000               0.000000000               0.000000000               0.000000000               0.000247028               0.000961010              -0.000051566              -0.000027491               0.000329497               0.000302006               0.000000000               0.000000000               0.000000000               0.000000000               0.000277949               0.001049876              -0.000040498              -0.000027004               0.000358956               0.000331953               0.000000000               0.000000000               0.000000000               0.000000000               0.000295886               0.001138762              -0.000037349              -0.000031388               0.000390046               0.000358658               0.000000000               0.000000000               0.000000000               0.000000000               0.000297641               0.001221592              -0.000038559              -0.000041083               0.000420888               0.000379804               0.000000000               0.000000000               0.000000000               0.000000000               0.000291417               0.001295550              -0.000039812              -0.000052662               0.000449400               0.000396737               0.000000000               0.000000000               0.000000000               0.000000000               0.000280730               0.001363370              -0.000039053              -0.000065147               0.000476168               0.000411021               0.000000000               0.000000000               0.000000000               0.000000000               0.000270166               0.001434578              -0.000035174              -0.000078010               0.000504191               0.000426181               0.000000000               0.000000000               0.000000000               0.000000000               0.000260244               0.001507869              -0.000027274              -0.000090892               0.000532915               0.000442023               0.000000000               0.000000000               0.000000000               0.000000000               0.000248467               0.001580894              -0.000017843              -0.000104436               0.000561772               0.000457335               0.000000000               0.000000000               0.000000000               0.000000000               0.000233941               0.001653421              -0.000009365              -0.000118950               0.000590785               0.000471835               0.000000000               0.000000000               0.000000000               0.000000000               0.000216337               0.001683497              -0.000002159              -0.000129311               0.000604263               0.000474953               0.000000000               0.000000000               0.000000000               0.000000000               0.000161544               0.000169375              -0.000111707               0.000039407               0.000043322               0.000082729               0.000000000               0.000000000               0.000000000               0.000000000               0.000173373               0.000284358              -0.000127934               0.000029470               0.000084962               0.000114431               0.000000000               0.000000000               0.000000000               0.000000000               0.000185447               0.000465883              -0.000131268               0.000011307               0.000151524               0.000162831               0.000000000               0.000000000               0.000000000               0.000000000               0.000200334               0.000615119              -0.000114322              -0.000001765               0.000205626               0.000203861               0.000000000               0.000000000               0.000000000               0.000000000               0.000214353               0.000738500              -0.000093465              -0.000011930               0.000250141               0.000238211               0.000000000               0.000000000               0.000000000               0.000000000               0.000232820               0.000850825              -0.000074176              -0.000019046               0.000289954               0.000270908               0.000000000               0.000000000               0.000000000               0.000000000               0.000261006               0.000956441              -0.000057101              -0.000021678               0.000326037               0.000304359               0.000000000               0.000000000               0.000000000               0.000000000               0.000292432               0.001053534              -0.000043353              -0.000022030               0.000358518               0.000336488               0.000000000               0.000000000               0.000000000               0.000000000               0.000316427               0.001143159              -0.000034213              -0.000024235               0.000389128               0.000364893               0.000000000               0.000000000               0.000000000               0.000000000               0.000328169               0.001227462              -0.000031474              -0.000030369               0.000419273               0.000388904               0.000000000               0.000000000               0.000000000               0.000000000               0.000331471               0.001304660              -0.000031455              -0.000038781               0.000447809               0.000409028               0.000000000               0.000000000               0.000000000               0.000000000               0.000329385               0.001374454              -0.000031707              -0.000048287               0.000474243               0.000425955               0.000000000               0.000000000               0.000000000               0.000000000               0.000323994               0.001439772              -0.000031053              -0.000058474               0.000499410               0.000440937               0.000000000               0.000000000               0.000000000               0.000000000               0.000319686               0.001508711              -0.000026859              -0.000068707               0.000525801               0.000457094               0.000000000               0.000000000               0.000000000               0.000000000               0.000317680               0.001584530              -0.000019976              -0.000078936               0.000554483               0.000475547               0.000000000               0.000000000               0.000000000               0.000000000               0.000313212               0.001660202              -0.000010896              -0.000090071               0.000583419               0.000493348               0.000000000               0.000000000               0.000000000               0.000000000               0.000302307               0.001692410              -0.000003091              -0.000098186               0.000596860               0.000498674               0.000000000               0.000000000               0.000000000               0.000000000               0.000137716               0.000129569              -0.000080464               0.000035447               0.000031373               0.000066821               0.000000000               0.000000000               0.000000000               0.000000000               0.000175379               0.000238145              -0.000103489               0.000035999               0.000067381               0.000103380               0.000000000               0.000000000               0.000000000               0.000000000               0.000204896               0.000411598              -0.000114783               0.000025386               0.000128736               0.000154122               0.000000000               0.000000000               0.000000000               0.000000000               0.000222991               0.000563237              -0.000103352               0.000013217               0.000183338               0.000196555               0.000000000               0.000000000               0.000000000               0.000000000               0.000237525               0.000698476              -0.000087572               0.000001762               0.000232236               0.000233998               0.000000000               0.000000000               0.000000000               0.000000000               0.000256155               0.000824687              -0.000073202              -0.000007028               0.000277235               0.000270208               0.000000000               0.000000000               0.000000000               0.000000000               0.000279286               0.000940212              -0.000058188              -0.000012794               0.000317666               0.000304871               0.000000000               0.000000000               0.000000000               0.000000000               0.000305128               0.001043076              -0.000042193              -0.000015961               0.000353009               0.000337048               0.000000000               0.000000000               0.000000000               0.000000000               0.000329896               0.001136528              -0.000028769              -0.000018355               0.000384957               0.000366602               0.000000000               0.000000000               0.000000000               0.000000000               0.000349665               0.001225824              -0.000022858              -0.000022104               0.000415972               0.000393868               0.000000000               0.000000000               0.000000000               0.000000000               0.000363682               0.001310336              -0.000022148              -0.000027411               0.000445911               0.000418500               0.000000000               0.000000000               0.000000000               0.000000000               0.000372620               0.001385921              -0.000022105              -0.000033508               0.000473138               0.000439631               0.000000000               0.000000000               0.000000000               0.000000000               0.000375498               0.001449926              -0.000022310              -0.000040429               0.000496780               0.000456351               0.000000000               0.000000000               0.000000000               0.000000000               0.000378263               0.001515442              -0.000021671              -0.000047581               0.000521003               0.000473421               0.000000000               0.000000000               0.000000000               0.000000000               0.000384011               0.001587691              -0.000017455              -0.000054457               0.000547378               0.000492920               0.000000000               0.000000000               0.000000000               0.000000000               0.000388953               0.001658133              -0.000009269              -0.000061409               0.000573175               0.000511766               0.000000000               0.000000000               0.000000000               0.000000000               0.000387221               0.001689254              -0.000002958              -0.000065949               0.000585062               0.000519113               0.000000000               0.000000000               0.000000000               0.000000000               0.000112507               0.000096426              -0.000050807               0.000030137               0.000022096               0.000052233               0.000000000               0.000000000               0.000000000               0.000000000               0.000174270               0.000197797              -0.000071825               0.000040626               0.000052390               0.000093016               0.000000000               0.000000000               0.000000000               0.000000000               0.000220364               0.000363561              -0.000084552               0.000037191               0.000108789               0.000145980               0.000000000               0.000000000               0.000000000               0.000000000               0.000244829               0.000518057              -0.000078731               0.000027053               0.000163666               0.000190720               0.000000000               0.000000000               0.000000000               0.000000000               0.000263566               0.000660938              -0.000069475               0.000016220               0.000214904               0.000231123               0.000000000               0.000000000               0.000000000               0.000000000               0.000280198               0.000794186              -0.000059192               0.000005801               0.000262792               0.000268593               0.000000000               0.000000000               0.000000000               0.000000000               0.000296828               0.000915805              -0.000046971              -0.000003165               0.000306320               0.000303155               0.000000000               0.000000000               0.000000000               0.000000000               0.000316854               0.001025371              -0.000033709              -0.000009351               0.000344904               0.000335553               0.000000000               0.000000000               0.000000000               0.000000000               0.000341381               0.001126958              -0.000022155              -0.000012852               0.000379933               0.000367081               0.000000000               0.000000000               0.000000000               0.000000000               0.000366769               0.001223080              -0.000015687              -0.000015347               0.000412805               0.000397458               0.000000000               0.000000000               0.000000000               0.000000000               0.000388131               0.001312361              -0.000013644              -0.000018496               0.000443615               0.000425119               0.000000000               0.000000000               0.000000000               0.000000000               0.000404539               0.001389895              -0.000012389              -0.000022035               0.000470639               0.000448604               0.000000000               0.000000000               0.000000000               0.000000000               0.000416832               0.001457313              -0.000011711              -0.000025852               0.000494383               0.000468531               0.000000000               0.000000000               0.000000000               0.000000000               0.000427774               0.001522847              -0.000012287              -0.000029941               0.000517591               0.000487650               0.000000000               0.000000000               0.000000000               0.000000000               0.000438653               0.001587321              -0.000010282              -0.000033920               0.000540408               0.000506488               0.000000000               0.000000000               0.000000000               0.000000000               0.000451443               0.001652676              -0.000005572              -0.000037293               0.000563317               0.000526024               0.000000000               0.000000000               0.000000000               0.000000000               0.000457355               0.001684623              -0.000002514              -0.000039070               0.000574559               0.000535489               0.000000000               0.000000000               0.000000000               0.000000000               0.000092177               0.000076323              -0.000024973               0.000025026               0.000017099               0.000042125               0.000000000               0.000000000               0.000000000               0.000000000               0.000169253               0.000171605              -0.000037071               0.000042019               0.000043195               0.000085214               0.000000000               0.000000000               0.000000000               0.000000000               0.000230799               0.000330615              -0.000044816               0.000045222               0.000095130               0.000140352               0.000000000               0.000000000               0.000000000               0.000000000               0.000262155               0.000486040              -0.000042831               0.000037553               0.000149494               0.000187047               0.000000000               0.000000000               0.000000000               0.000000000               0.000282090               0.000632685              -0.000038440               0.000026698               0.000201994               0.000228691               0.000000000               0.000000000               0.000000000               0.000000000               0.000296053               0.000768988              -0.000032670               0.000014896               0.000251361               0.000266258               0.000000000               0.000000000               0.000000000               0.000000000               0.000310155               0.000895001              -0.000026272               0.000004433               0.000296853               0.000301286               0.000000000               0.000000000               0.000000000               0.000000000               0.000328401               0.001012438              -0.000019203              -0.000003405               0.000338611               0.000335206               0.000000000               0.000000000               0.000000000               0.000000000               0.000351589               0.001120230              -0.000012457              -0.000008183               0.000376134               0.000367951               0.000000000               0.000000000               0.000000000               0.000000000               0.000377389               0.001217744              -0.000007703              -0.000010697               0.000409476               0.000398779               0.000000000               0.000000000               0.000000000               0.000000000               0.000402783               0.001308909              -0.000005694              -0.000012570               0.000440489               0.000427919               0.000000000               0.000000000               0.000000000               0.000000000               0.000424255               0.001388302              -0.000004700              -0.000014442               0.000467577               0.000453135               0.000000000               0.000000000               0.000000000               0.000000000               0.000443336               0.001460151              -0.000004045              -0.000016268               0.000492135               0.000475867               0.000000000               0.000000000               0.000000000               0.000000000               0.000459991               0.001526572              -0.000004195              -0.000018325               0.000514961               0.000496636               0.000000000               0.000000000               0.000000000               0.000000000               0.000473609               0.001585359              -0.000003347              -0.000020567               0.000535303               0.000514737               0.000000000               0.000000000               0.000000000               0.000000000               0.000490000               0.001649781              -0.000001799              -0.000022472               0.000557412               0.000534940               0.000000000               0.000000000               0.000000000               0.000000000               0.000498583               0.001683969              -0.000001030              -0.000023527               0.000569160               0.000545632               0.000000000               0.000000000               0.000000000               0.000000000               0.000000000               0.000000000               0.000000000               0.000000000               0.000000000               0.000000000               0.000000000               0.000000000               0.000000000               0.000000000               0.000000000               0.000000000               0.000000000               0.000000000               0.000000000               0.000000000               0.000000000               0.000000000               0.000000000               0.000000000               0.000000000               0.000000000               0.000000000               0.000000000               0.000000000               0.000000000               0.000000000               0.000000000               0.000000000               0.000000000               0.000000000               0.000000000               0.000000000               0.000000000               0.000000000               0.000000000               0.000000000               0.000000000               0.000000000               0.000000000               0.000000000               0.000000000               0.000000000               0.000000000               0.000000000               0.000000000               0.000000000               0.000000000               0.000000000               0.000000000               0.000000000               0.000000000               0.000000000               0.000000000               0.000000000               0.000000000               0.000000000               0.000000000               0.000000000               0.000000000               0.000000000               0.000000000               0.000000000               0.000000000               0.000000000               0.000000000               0.000000000               0.000000000               0.000000000               0.000000000               0.000000000               0.000000000               0.000000000               0.000000000               0.000000000               0.000000000               0.000000000               0.000000000               0.000000000               0.000000000               0.000000000               0.000000000               0.000000000               0.000000000               0.000000000               0.000000000               0.000000000               0.000000000               0.000000000               0.000000000               0.000000000               0.000000000               0.000000000               0.000000000               0.000000000               0.000000000               0.000000000               0.000000000               0.000000000               0.000000000               0.000000000               0.000000000               0.000000000               0.000000000               0.000000000               0.000000000               0.000000000               0.000000000               0.000000000               0.000000000               0.000000000               0.000000000               0.000000000               0.000000000               0.000000000               0.000000000               0.000000000               0.000000000               0.000000000               0.000000000               0.000000000               0.000000000               0.000000000               0.000000000               0.000000000               0.000000000               0.000000000               0.000000000               0.000000000               0.000000000               0.000000000               0.000000000               0.000000000               0.000000000               0.000000000               0.000000000               0.000000000               0.000000000               0.000000000               0.000000000               0.000000000               0.000000000               0.000000000               0.000000000               0.000000000               0.000000000               0.000000000               0.000000000               0.000000000               0.000000000               0.000000000               0.000000000               0.000000000               0.000000000               0.000000000               0.000000000               0.000000000               0.000000000               0.000000000               0.000000000               0.000000000               0.000000000               0.000000000               0.000000000               0.000000000               0.000000000               0.000000000               0.000000000               0.000000000               0.000000000               0.000000000               0.000000000               0.000000000               0.000000000               0.000000000               0.000000000               0.000000000               0.000000000               0.000000000               0.000000000               0.000000000               0.000000000               0.000000000               0.000000000               0.000000000               0.000000000               0.000000000               0.000000000               0.000000000               0.000000000               0.000000000               0.000000000               0.000000000               0.000000000               0.000000000               0.000000000               0.000000000               0.000000000               0.000000000               0.000000000               0.000000000               0.000000000               0.000000000               0.000000000               0.000000000               0.000000000               0.000000000               0.000000000               0.000000000               0.000000000               0.000000000               0.000000000               0.000000000               0.000000000               0.000000000               0.000000000               0.000000000               0.000000000               0.000000000               0.000000000               0.000000000               0.000000000               0.000000000               0.000000000               0.000000000               0.000000000               0.000000000               0.000000000               0.000000000               0.000000000               0.000000000               0.000000000               0.000000000               0.000000000               0.000000000               0.000000000               0.000000000               0.000000000               0.000000000               0.000000000               0.000000000               0.000000000               0.000000000               0.000000000               0.000000000               0.000000000               0.000000000               0.000000000               0.000000000               0.000000000               0.000000000               0.000000000               0.000000000               0.000000000               0.000000000               0.000000000               0.000000000               0.000000000               0.000000000               0.000000000               0.000000000               0.000000000               0.000000000               0.000000000               0.000000000               0.000000000               0.000000000               0.000000000               0.000000000               0.000000000               0.000000000               0.000000000               0.000000000               0.000000000               0.000000000               0.000000000               0.000000000               0.000000000               0.000000000               0.000000000               0.000000000               0.000000000               0.000000000               0.000000000               0.000000000               0.000000000               0.000000000               0.000000000               0.000000000               0.000000000               0.000000000               0.000000000               0.000000000               0.000000000               0.000000000               0.000000000               0.000000000               0.000000000               0.000000000               0.000000000               0.000000000               0.000000000               0.000000000               0.000000000               0.000000000               0.000000000               0.000000000               0.000000000               0.000000000               0.000000000               0.000000000               0.000000000               0.000000000               0.000000000               0.000000000               0.000000000               0.000000000               0.000000000               0.000000000               0.000000000               0.000000000               0.000000000               0.000000000               0.000000000               0.000000000               0.000000000               0.000000000               0.000000000               0.000000000               0.000000000               0.000000000               0.000000000               0.000000000               0.000000000               0.000000000               0.000000000               0.000000000               0.000000000               0.000000000               0.000000000               0.000085917               0.000788313               0.000063665              -0.000066320               0.000284875               0.000218555               0.000000000               0.000000000               0.000000000               0.000000000               0.000106243               0.000673768               0.000042702              -0.000044380               0.000239380               0.000195001               0.000000000               0.000000000               0.000000000               0.000000000               0.000157675               0.000591402               0.000020050              -0.000014797               0.000202064               0.000187267               0.000000000               0.000000000               0.000000000               0.000000000               0.000176921               0.000555383               0.000007120              -0.000003077               0.000186152               0.000183074               0.000000000               0.000000000               0.000000000               0.000000000               0.000177886               0.000546504               0.000000162              -0.000001606               0.000182702               0.000181096               0.000000000               0.000000000               0.000000000               0.000000000               0.000173053               0.000546951              -0.000000547              -0.000003474               0.000183473               0.000179999               0.000000000               0.000000000               0.000000000               0.000000000               0.000173566               0.000543577               0.000006280              -0.000002860               0.000182144               0.000179284               0.000000000               0.000000000               0.000000000               0.000000000               0.000175669               0.000528957               0.000012260              -0.000000244               0.000176399               0.000176155               0.000000000               0.000000000               0.000000000               0.000000000               0.000174156               0.000513759               0.000013101               0.000001089               0.000170888               0.000171977               0.000000000               0.000000000               0.000000000               0.000000000               0.000171370               0.000502099               0.000015040               0.000001501               0.000166864               0.000168366               0.000000000               0.000000000               0.000000000               0.000000000               0.000165607               0.000494138               0.000015588               0.000000335               0.000164599               0.000164934               0.000000000               0.000000000               0.000000000               0.000000000               0.000152365               0.000492014               0.000014096              -0.000004365               0.000165458               0.000161093               0.000000000               0.000000000               0.000000000               0.000000000               0.000133434               0.000496950               0.000012398              -0.000012081               0.000169675               0.000157594               0.000000000               0.000000000               0.000000000               0.000000000               0.000108739               0.000508985               0.000009694              -0.000022846               0.000177275               0.000154429               0.000000000               0.000000000               0.000000000               0.000000000               0.000076621               0.000527071               0.000006424              -0.000037151               0.000188072               0.000150921               0.000000000               0.000000000               0.000000000               0.000000000               0.000039240               0.000550827               0.000003191              -0.000054138               0.000201653               0.000147515               0.000000000               0.000000000               0.000000000               0.000000000               0.000023189               0.000572598               0.000002694              -0.000062879               0.000211824               0.000148945               0.000000000               0.000000000               0.000000000               0.000000000               0.000102187               0.000756847               0.000121440              -0.000056286               0.000271042               0.000214756               0.000000000               0.000000000               0.000000000               0.000000000               0.000114843               0.000652381               0.000081136              -0.000038481               0.000230285               0.000191804               0.000000000               0.000000000               0.000000000               0.000000000               0.000155809               0.000579305               0.000037470              -0.000013985               0.000197761               0.000183777               0.000000000               0.000000000               0.000000000               0.000000000               0.000170205               0.000551915               0.000012983              -0.000005162               0.000185691               0.000180528               0.000000000               0.000000000               0.000000000               0.000000000               0.000172440               0.000546325               0.000000164              -0.000003626               0.000183315               0.000179689               0.000000000               0.000000000               0.000000000               0.000000000               0.000170585               0.000545966               0.000000317              -0.000004276               0.000183412               0.000179136               0.000000000               0.000000000               0.000000000               0.000000000               0.000170613               0.000540977               0.000012916              -0.000003642               0.000181538               0.000177896               0.000000000               0.000000000               0.000000000               0.000000000               0.000171431               0.000533551               0.000022674              -0.000002407               0.000178651               0.000176244               0.000000000               0.000000000               0.000000000               0.000000000               0.000168051               0.000530610               0.000023615              -0.000003307               0.000177970               0.000174663               0.000000000               0.000000000               0.000000000               0.000000000               0.000161133               0.000531452               0.000025978              -0.000006007               0.000179151               0.000173145               0.000000000               0.000000000               0.000000000               0.000000000               0.000149154               0.000536387               0.000026969              -0.000011115               0.000182499               0.000171384               0.000000000               0.000000000               0.000000000               0.000000000               0.000130930               0.000544867               0.000025163              -0.000019009               0.000187957               0.000168948               0.000000000               0.000000000               0.000000000               0.000000000               0.000111096               0.000558031               0.000022476              -0.000028093               0.000195373               0.000167280               0.000000000               0.000000000               0.000000000               0.000000000               0.000089655               0.000576150               0.000018111              -0.000038398               0.000204847               0.000166449               0.000000000               0.000000000               0.000000000               0.000000000               0.000062760               0.000597809               0.000012546              -0.000051191               0.000216331               0.000165140               0.000000000               0.000000000               0.000000000               0.000000000               0.000031491               0.000623705               0.000006395              -0.000066154               0.000229951               0.000163797               0.000000000               0.000000000               0.000000000               0.000000000               0.000019630               0.000646694               0.000005453              -0.000073475               0.000240054               0.000166579               0.000000000               0.000000000               0.000000000               0.000000000               0.000125984               0.000708896               0.000166354              -0.000041368               0.000250086               0.000208718               0.000000000               0.000000000               0.000000000               0.000000000               0.000125288               0.000616033               0.000110588              -0.000030021               0.000215349               0.000185328               0.000000000               0.000000000               0.000000000               0.000000000               0.000152596               0.000563412               0.000049428              -0.000013203               0.000192203               0.000179000               0.000000000               0.000000000               0.000000000               0.000000000               0.000160134               0.000550179               0.000016834              -0.000008722               0.000186298               0.000177576               0.000000000               0.000000000               0.000000000               0.000000000               0.000160859               0.000549291               0.000002415              -0.000008339               0.000185875               0.000177536               0.000000000               0.000000000               0.000000000               0.000000000               0.000163920               0.000550606               0.000004465              -0.000007356               0.000185985               0.000178630               0.000000000               0.000000000               0.000000000               0.000000000               0.000169187               0.000549009               0.000019851              -0.000005181               0.000184728               0.000179547               0.000000000               0.000000000               0.000000000               0.000000000               0.000173713               0.000553958               0.000030675              -0.000004102               0.000186018               0.000181916               0.000000000               0.000000000               0.000000000               0.000000000               0.000168752               0.000567120               0.000032439              -0.000007608               0.000191574               0.000183966               0.000000000               0.000000000               0.000000000               0.000000000               0.000153677               0.000584854               0.000036315              -0.000015478               0.000200109               0.000184631               0.000000000               0.000000000               0.000000000               0.000000000               0.000134035               0.000607880               0.000038107              -0.000025722               0.000211199               0.000185477               0.000000000               0.000000000               0.000000000               0.000000000               0.000110847               0.000633951               0.000036903              -0.000037676               0.000223874               0.000186198               0.000000000               0.000000000               0.000000000               0.000000000               0.000088580               0.000662885               0.000034081              -0.000049643               0.000237507               0.000187864               0.000000000               0.000000000               0.000000000               0.000000000               0.000069145               0.000694241               0.000028695              -0.000060851               0.000251695               0.000190844               0.000000000               0.000000000               0.000000000               0.000000000               0.000046968               0.000725963               0.000021232              -0.000073132               0.000266363               0.000193230               0.000000000               0.000000000               0.000000000               0.000000000               0.000022367               0.000758458               0.000011608              -0.000086419               0.000281623               0.000195204               0.000000000               0.000000000               0.000000000               0.000000000               0.000015381               0.000784028               0.000009154              -0.000092235               0.000292085               0.000199850               0.000000000               0.000000000               0.000000000               0.000000000               0.000148268               0.000649019               0.000197877              -0.000025527               0.000224847               0.000199320               0.000000000               0.000000000               0.000000000               0.000000000               0.000133153               0.000575316               0.000129459              -0.000021982               0.000199097               0.000177115               0.000000000               0.000000000               0.000000000               0.000000000               0.000145575               0.000549692               0.000055629              -0.000014121               0.000187936               0.000173815               0.000000000               0.000000000               0.000000000               0.000000000               0.000145800               0.000552291               0.000020880              -0.000014361               0.000188882               0.000174521               0.000000000               0.000000000               0.000000000               0.000000000               0.000147438               0.000561920               0.000006872              -0.000014951               0.000192289               0.000177338               0.000000000               0.000000000               0.000000000               0.000000000               0.000158831               0.000572325               0.000011705              -0.000011979               0.000194766               0.000182787               0.000000000               0.000000000               0.000000000               0.000000000               0.000170391               0.000581016               0.000029454              -0.000008730               0.000196580               0.000187850               0.000000000               0.000000000               0.000000000               0.000000000               0.000176682               0.000604217               0.000040029              -0.000009271               0.000204494               0.000195223               0.000000000               0.000000000               0.000000000               0.000000000               0.000170555               0.000636571               0.000041480              -0.000015613               0.000217393               0.000201779               0.000000000               0.000000000               0.000000000               0.000000000               0.000155361               0.000675489               0.000044692              -0.000026176               0.000233886               0.000207710               0.000000000               0.000000000               0.000000000               0.000000000               0.000134213               0.000718294               0.000045939              -0.000039457               0.000252581               0.000213125               0.000000000               0.000000000               0.000000000               0.000000000               0.000108278               0.000762371               0.000043996              -0.000054692               0.000272352               0.000217660               0.000000000               0.000000000               0.000000000               0.000000000               0.000084952               0.000808207               0.000040104              -0.000069169               0.000292456               0.000223287               0.000000000               0.000000000               0.000000000               0.000000000               0.000064324               0.000853789               0.000033516              -0.000082602               0.000312127               0.000229526               0.000000000               0.000000000               0.000000000               0.000000000               0.000041410               0.000896614               0.000024610              -0.000096548               0.000331051               0.000234503               0.000000000               0.000000000               0.000000000               0.000000000               0.000018838               0.000936251               0.000013314              -0.000109967               0.000348736               0.000238769               0.000000000               0.000000000               0.000000000               0.000000000               0.000013780               0.000963727               0.000010048              -0.000115298               0.000359672               0.000244374               0.000000000               0.000000000               0.000000000               0.000000000               0.000172270               0.000583194               0.000214511              -0.000008298               0.000197162               0.000188864               0.000000000               0.000000000               0.000000000               0.000000000               0.000139522               0.000536136               0.000138970              -0.000014696               0.000183609               0.000168913               0.000000000               0.000000000               0.000000000               0.000000000               0.000134701               0.000543396               0.000060886              -0.000017411               0.000186934               0.000169523               0.000000000               0.000000000               0.000000000               0.000000000               0.000132704               0.000565950               0.000027268              -0.000020980               0.000195641               0.000174662               0.000000000               0.000000000               0.000000000               0.000000000               0.000139409               0.000590835               0.000015055              -0.000021576               0.000204135               0.000182559               0.000000000               0.000000000               0.000000000               0.000000000               0.000156069               0.000616522               0.000021766              -0.000018539               0.000211685               0.000193146               0.000000000               0.000000000               0.000000000               0.000000000               0.000176059               0.000651273               0.000037932              -0.000015387               0.000222218               0.000206831               0.000000000               0.000000000               0.000000000               0.000000000               0.000186556               0.000698349               0.000045566              -0.000017335               0.000238559               0.000221224               0.000000000               0.000000000               0.000000000               0.000000000               0.000178649               0.000751851               0.000046118              -0.000026988               0.000259610               0.000232623               0.000000000               0.000000000               0.000000000               0.000000000               0.000160721               0.000806754               0.000047981              -0.000040574               0.000282440               0.000241866               0.000000000               0.000000000               0.000000000               0.000000000               0.000137962               0.000862317               0.000048828              -0.000056054               0.000306121               0.000250067               0.000000000               0.000000000               0.000000000               0.000000000               0.000113703               0.000917435               0.000045949              -0.000072041               0.000329822               0.000257782               0.000000000               0.000000000               0.000000000               0.000000000               0.000092193               0.000972217               0.000040495              -0.000086955               0.000353054               0.000266099               0.000000000               0.000000000               0.000000000               0.000000000               0.000070297               0.001024494               0.000032827              -0.000101700               0.000375395               0.000273695               0.000000000               0.000000000               0.000000000               0.000000000               0.000045389               0.001071069               0.000023342              -0.000116862               0.000395974               0.000279111               0.000000000               0.000000000               0.000000000               0.000000000               0.000020958               0.001112183               0.000012278              -0.000131163               0.000414445               0.000283282               0.000000000               0.000000000               0.000000000               0.000000000               0.000014703               0.001139569               0.000009286              -0.000136932               0.000425497               0.000288564               0.000000000               0.000000000               0.000000000               0.000000000               0.000188964               0.000518056               0.000216630               0.000006104               0.000170649               0.000176753               0.000000000               0.000000000               0.000000000               0.000000000               0.000142526               0.000499890               0.000142157              -0.000009039               0.000169641               0.000160602               0.000000000               0.000000000               0.000000000               0.000000000               0.000125338               0.000545515               0.000067356              -0.000021187               0.000188899               0.000167711               0.000000000               0.000000000               0.000000000               0.000000000               0.000124413               0.000593422               0.000036604              -0.000027523               0.000206980               0.000179457               0.000000000               0.000000000               0.000000000               0.000000000               0.000139876               0.000642573               0.000026084              -0.000027868               0.000223478               0.000195610               0.000000000               0.000000000               0.000000000               0.000000000               0.000168444               0.000694381               0.000029626              -0.000023631               0.000239335               0.000215704               0.000000000               0.000000000               0.000000000               0.000000000               0.000193948               0.000752011               0.000043341              -0.000021271               0.000257758               0.000236487               0.000000000               0.000000000               0.000000000               0.000000000               0.000200993               0.000816169               0.000049940              -0.000026649               0.000280937               0.000254288               0.000000000               0.000000000               0.000000000               0.000000000               0.000189734               0.000885748               0.000050463              -0.000039568               0.000308436               0.000268868               0.000000000               0.000000000               0.000000000               0.000000000               0.000168741               0.000950208               0.000052567              -0.000055498               0.000335232               0.000279734               0.000000000               0.000000000               0.000000000               0.000000000               0.000143462               0.001011076               0.000051241              -0.000072586               0.000361217               0.000288631               0.000000000               0.000000000               0.000000000               0.000000000               0.000118756               0.001071203               0.000045781              -0.000089367               0.000386853               0.000297486               0.000000000               0.000000000               0.000000000               0.000000000               0.000097377               0.001129086               0.000037724              -0.000104619               0.000411231               0.000306612               0.000000000               0.000000000               0.000000000               0.000000000               0.000073029               0.001181713               0.000029013              -0.000120328               0.000434010               0.000313682               0.000000000               0.000000000               0.000000000               0.000000000               0.000047108               0.001228869               0.000020040              -0.000135943               0.000454933               0.000318990               0.000000000               0.000000000               0.000000000               0.000000000               0.000023196               0.001271318               0.000010067              -0.000150216               0.000473840               0.000323624               0.000000000               0.000000000               0.000000000               0.000000000               0.000016792               0.001299911               0.000008110              -0.000156192               0.000485363               0.000329172               0.000000000               0.000000000               0.000000000               0.000000000               0.000192467               0.000453108               0.000209954               0.000015536               0.000145856               0.000161392               0.000000000               0.000000000               0.000000000               0.000000000               0.000140799               0.000471420               0.000142600              -0.000006128               0.000159181               0.000153053               0.000000000               0.000000000               0.000000000               0.000000000               0.000119549               0.000560037               0.000075442              -0.000025174               0.000195068               0.000169895               0.000000000               0.000000000               0.000000000               0.000000000               0.000128282               0.000638422               0.000047688              -0.000031697               0.000223371               0.000191674               0.000000000               0.000000000               0.000000000               0.000000000               0.000156476               0.000714379               0.000036650              -0.000030619               0.000248330               0.000217711               0.000000000               0.000000000               0.000000000               0.000000000               0.000193157               0.000786245               0.000040075              -0.000025847               0.000270695               0.000244848               0.000000000               0.000000000               0.000000000               0.000000000               0.000218072               0.000856008               0.000050885              -0.000025224               0.000293741               0.000268517               0.000000000               0.000000000               0.000000000               0.000000000               0.000219146               0.000934159               0.000054130              -0.000034590               0.000322913               0.000288323               0.000000000               0.000000000               0.000000000               0.000000000               0.000200794               0.001009072               0.000052770              -0.000050836               0.000353300               0.000302463               0.000000000               0.000000000               0.000000000               0.000000000               0.000175250               0.001077020               0.000053812              -0.000068909               0.000381973               0.000313064               0.000000000               0.000000000               0.000000000               0.000000000               0.000149712               0.001143210               0.000049085              -0.000086759               0.000409986               0.000323227               0.000000000               0.000000000               0.000000000               0.000000000               0.000124635               0.001209031               0.000039748              -0.000104391               0.000437803               0.000333413               0.000000000               0.000000000               0.000000000               0.000000000               0.000098547               0.001271803               0.000030995              -0.000122020               0.000464603               0.000342583               0.000000000               0.000000000               0.000000000               0.000000000               0.000070594               0.001329992               0.000021966              -0.000139776               0.000489918               0.000350142               0.000000000               0.000000000               0.000000000               0.000000000               0.000045016               0.001386836               0.000013534              -0.000156473               0.000514432               0.000357959               0.000000000               0.000000000               0.000000000               0.000000000               0.000022351               0.001440512               0.000006560              -0.000171682               0.000537393               0.000365711               0.000000000               0.000000000               0.000000000               0.000000000               0.000015316               0.001474956               0.000006402              -0.000178625               0.000551189               0.000372563               0.000000000               0.000000000               0.000000000               0.000000000               0.000197059               0.000393819               0.000196826               0.000024669               0.000123049               0.000147718               0.000000000               0.000000000               0.000000000               0.000000000               0.000143041               0.000450876               0.000143006              -0.000002719               0.000151197               0.000148478               0.000000000               0.000000000               0.000000000               0.000000000               0.000121485               0.000579753               0.000087714              -0.000026912               0.000202220               0.000175307               0.000000000               0.000000000               0.000000000               0.000000000               0.000138767               0.000684135               0.000061514              -0.000033479               0.000239202               0.000205723               0.000000000               0.000000000               0.000000000               0.000000000               0.000174915               0.000776429               0.000048724              -0.000031461               0.000269294               0.000237833               0.000000000               0.000000000               0.000000000               0.000000000               0.000215874               0.000857146               0.000048129              -0.000026191               0.000294443               0.000268252               0.000000000               0.000000000               0.000000000               0.000000000               0.000239600               0.000933708               0.000050148              -0.000026863               0.000320187               0.000293324               0.000000000               0.000000000               0.000000000               0.000000000               0.000234503               0.001016886               0.000050600              -0.000039172               0.000352016               0.000312844               0.000000000               0.000000000               0.000000000               0.000000000               0.000210182               0.001092866               0.000050095              -0.000057790               0.000383549               0.000325758               0.000000000               0.000000000               0.000000000               0.000000000               0.000185208               0.001164158               0.000048756              -0.000076067               0.000413404               0.000337338               0.000000000               0.000000000               0.000000000               0.000000000               0.000161405               0.001238152               0.000041579              -0.000094242               0.000444127               0.000349885               0.000000000               0.000000000               0.000000000               0.000000000               0.000138254               0.001312758               0.000031407              -0.000112249               0.000474998               0.000362749               0.000000000               0.000000000               0.000000000               0.000000000               0.000113256               0.001384371               0.000022771              -0.000130575               0.000504977               0.000374402               0.000000000               0.000000000               0.000000000               0.000000000               0.000088161               0.001455043               0.000014062              -0.000148820               0.000534616               0.000385796               0.000000000               0.000000000               0.000000000               0.000000000               0.000065486               0.001525051               0.000005783              -0.000166074               0.000563703               0.000397629               0.000000000               0.000000000               0.000000000               0.000000000               0.000046198               0.001590780               0.000001203              -0.000181523               0.000590762               0.000409240               0.000000000               0.000000000               0.000000000               0.000000000               0.000035787               0.001624343               0.000000256              -0.000189622               0.000604650               0.000415027               0.000000000               0.000000000               0.000000000               0.000000000               0.000198477               0.000336971               0.000180302               0.000032307               0.000101553               0.000133861               0.000000000               0.000000000               0.000000000               0.000000000               0.000150578               0.000417528               0.000146220               0.000004276               0.000137749               0.000142025               0.000000000               0.000000000               0.000000000               0.000000000               0.000133249               0.000572624               0.000107683              -0.000021610               0.000198076               0.000176466               0.000000000               0.000000000               0.000000000               0.000000000               0.000151229               0.000694747               0.000081875              -0.000030133               0.000241624               0.000211492               0.000000000               0.000000000               0.000000000               0.000000000               0.000184463               0.000802818               0.000065972              -0.000031179               0.000277996               0.000246818               0.000000000               0.000000000               0.000000000               0.000000000               0.000220028               0.000889292               0.000055880              -0.000028651               0.000305978               0.000277327               0.000000000               0.000000000               0.000000000               0.000000000               0.000246263               0.000962406               0.000048375              -0.000027952               0.000330116               0.000302164               0.000000000               0.000000000               0.000000000               0.000000000               0.000251081               0.001040490               0.000045270              -0.000035906               0.000358795               0.000322889               0.000000000               0.000000000               0.000000000               0.000000000               0.000235631               0.001118870               0.000046705              -0.000051497               0.000390119               0.000338622               0.000000000               0.000000000               0.000000000               0.000000000               0.000215176               0.001193015               0.000046262              -0.000068436               0.000420480               0.000352044               0.000000000               0.000000000               0.000000000               0.000000000               0.000194998               0.001267459               0.000041200              -0.000085308               0.000450918               0.000365610               0.000000000               0.000000000               0.000000000               0.000000000               0.000176242               0.001344227               0.000034858              -0.000101937               0.000482050               0.000380113               0.000000000               0.000000000               0.000000000               0.000000000               0.000158115               0.001423501               0.000026507              -0.000118644               0.000514044               0.000395400               0.000000000               0.000000000               0.000000000               0.000000000               0.000137644               0.001499605               0.000017834              -0.000135834               0.000545141               0.000409308               0.000000000               0.000000000               0.000000000               0.000000000               0.000118237               0.001576536               0.000010411              -0.000152728               0.000576416               0.000423688               0.000000000               0.000000000               0.000000000               0.000000000               0.000100706               0.001652238               0.000003828              -0.000168764               0.000606995               0.000438231               0.000000000               0.000000000               0.000000000               0.000000000               0.000084757               0.001681549              -0.000001870              -0.000178409               0.000619981               0.000441571               0.000000000               0.000000000               0.000000000               0.000000000               0.000190266               0.000279623               0.000162091               0.000036396               0.000081075               0.000117471               0.000000000               0.000000000               0.000000000               0.000000000               0.000160828               0.000376766               0.000147974               0.000013215               0.000121183               0.000134397               0.000000000               0.000000000               0.000000000               0.000000000               0.000148726               0.000547247               0.000125904              -0.000012634               0.000186625               0.000173991               0.000000000               0.000000000               0.000000000               0.000000000               0.000162779               0.000684606               0.000100119              -0.000024534               0.000236378               0.000211844               0.000000000               0.000000000               0.000000000               0.000000000               0.000187483               0.000802537               0.000079335              -0.000030011               0.000277513               0.000247503               0.000000000               0.000000000               0.000000000               0.000000000               0.000214503               0.000890082               0.000062133              -0.000030821               0.000306965               0.000276143               0.000000000               0.000000000               0.000000000               0.000000000               0.000244405               0.000965350               0.000047626              -0.000029017               0.000331452               0.000302436               0.000000000               0.000000000               0.000000000               0.000000000               0.000264978               0.001044665               0.000039778              -0.000031216               0.000358624               0.000327407               0.000000000               0.000000000               0.000000000               0.000000000               0.000267004               0.001127710               0.000041113              -0.000040837               0.000389512               0.000348675               0.000000000               0.000000000               0.000000000               0.000000000               0.000256127               0.001206281               0.000043199              -0.000054737               0.000420336               0.000365598               0.000000000               0.000000000               0.000000000               0.000000000               0.000243419               0.001280302               0.000042920              -0.000068755               0.000449682               0.000380926               0.000000000               0.000000000               0.000000000               0.000000000               0.000229253               0.001353041               0.000039979              -0.000083160               0.000478729               0.000395569               0.000000000               0.000000000               0.000000000               0.000000000               0.000215742               0.001430672               0.000032977              -0.000097931               0.000509530               0.000411599               0.000000000               0.000000000               0.000000000               0.000000000               0.000201019               0.001507267               0.000023692              -0.000113026               0.000540093               0.000427067               0.000000000               0.000000000               0.000000000               0.000000000               0.000183279               0.001581369               0.000014599              -0.000128941               0.000570098               0.000441157               0.000000000               0.000000000               0.000000000               0.000000000               0.000163210               0.001650940               0.000006109              -0.000145163               0.000598695               0.000453532               0.000000000               0.000000000               0.000000000               0.000000000               0.000143933               0.001676787              -0.000001147              -0.000155623               0.000610798               0.000455175               0.000000000               0.000000000               0.000000000               0.000000000               0.000178111               0.000218964               0.000140057               0.000039421               0.000059847               0.000099267               0.000000000               0.000000000               0.000000000               0.000000000               0.000169200               0.000330256               0.000142830               0.000022167               0.000102695               0.000124863               0.000000000               0.000000000               0.000000000               0.000000000               0.000166424               0.000511930               0.000134280              -0.000001583               0.000171169               0.000169587               0.000000000               0.000000000               0.000000000               0.000000000               0.000178693               0.000660104               0.000111874              -0.000015503               0.000225200               0.000209697               0.000000000               0.000000000               0.000000000               0.000000000               0.000196765               0.000778807               0.000089378              -0.000023564               0.000267454               0.000243891               0.000000000               0.000000000               0.000000000               0.000000000               0.000218158               0.000873550               0.000069039              -0.000027385               0.000300309               0.000272924               0.000000000               0.000000000               0.000000000               0.000000000               0.000247028               0.000961010               0.000051566              -0.000027491               0.000329497               0.000302006               0.000000000               0.000000000               0.000000000               0.000000000               0.000277949               0.001049876               0.000040498              -0.000027004               0.000358956               0.000331953               0.000000000               0.000000000               0.000000000               0.000000000               0.000295886               0.001138762               0.000037349              -0.000031388               0.000390046               0.000358658               0.000000000               0.000000000               0.000000000               0.000000000               0.000297641               0.001221592               0.000038559              -0.000041083               0.000420888               0.000379804               0.000000000               0.000000000               0.000000000               0.000000000               0.000291417               0.001295550               0.000039812              -0.000052662               0.000449400               0.000396737               0.000000000               0.000000000               0.000000000               0.000000000               0.000280730               0.001363370               0.000039053              -0.000065147               0.000476168               0.000411021               0.000000000               0.000000000               0.000000000               0.000000000               0.000270166               0.001434578               0.000035174              -0.000078010               0.000504191               0.000426181               0.000000000               0.000000000               0.000000000               0.000000000               0.000260244               0.001507869               0.000027274              -0.000090892               0.000532915               0.000442023               0.000000000               0.000000000               0.000000000               0.000000000               0.000248467               0.001580894               0.000017843              -0.000104436               0.000561772               0.000457335               0.000000000               0.000000000               0.000000000               0.000000000               0.000233941               0.001653421               0.000009365              -0.000118950               0.000590785               0.000471835               0.000000000               0.000000000               0.000000000               0.000000000               0.000216337               0.001683497               0.000002159              -0.000129311               0.000604263               0.000474953               0.000000000               0.000000000               0.000000000               0.000000000               0.000161544               0.000169375               0.000111707               0.000039407               0.000043322               0.000082729               0.000000000               0.000000000               0.000000000               0.000000000               0.000173373               0.000284358               0.000127934               0.000029470               0.000084962               0.000114431               0.000000000               0.000000000               0.000000000               0.000000000               0.000185447               0.000465883               0.000131268               0.000011307               0.000151524               0.000162831               0.000000000               0.000000000               0.000000000               0.000000000               0.000200334               0.000615119               0.000114322              -0.000001765               0.000205626               0.000203861               0.000000000               0.000000000               0.000000000               0.000000000               0.000214353               0.000738500               0.000093465              -0.000011930               0.000250141               0.000238211               0.000000000               0.000000000               0.000000000               0.000000000               0.000232820               0.000850825               0.000074176              -0.000019046               0.000289954               0.000270908               0.000000000               0.000000000               0.000000000               0.000000000               0.000261006               0.000956441               0.000057101              -0.000021678               0.000326037               0.000304359               0.000000000               0.000000000               0.000000000               0.000000000               0.000292432               0.001053534               0.000043353              -0.000022030               0.000358518               0.000336488               0.000000000               0.000000000               0.000000000               0.000000000               0.000316427               0.001143159               0.000034213              -0.000024235               0.000389128               0.000364893               0.000000000               0.000000000               0.000000000               0.000000000               0.000328169               0.001227462               0.000031474              -0.000030369               0.000419273               0.000388904               0.000000000               0.000000000               0.000000000               0.000000000               0.000331471               0.001304660               0.000031455              -0.000038781               0.000447809               0.000409028               0.000000000               0.000000000               0.000000000               0.000000000               0.000329385               0.001374454               0.000031707              -0.000048287               0.000474243               0.000425955               0.000000000               0.000000000               0.000000000               0.000000000               0.000323994               0.001439772               0.000031053              -0.000058474               0.000499410               0.000440937               0.000000000               0.000000000               0.000000000               0.000000000               0.000319686               0.001508711               0.000026859              -0.000068707               0.000525801               0.000457094               0.000000000               0.000000000               0.000000000               0.000000000               0.000317680               0.001584530               0.000019976              -0.000078936               0.000554483               0.000475547               0.000000000               0.000000000               0.000000000               0.000000000               0.000313212               0.001660202               0.000010896              -0.000090071               0.000583419               0.000493348               0.000000000               0.000000000               0.000000000               0.000000000               0.000302307               0.001692410               0.000003091              -0.000098186               0.000596860               0.000498674               0.000000000               0.000000000               0.000000000               0.000000000               0.000137716               0.000129569               0.000080464               0.000035447               0.000031373               0.000066821               0.000000000               0.000000000               0.000000000               0.000000000               0.000175379               0.000238145               0.000103489               0.000035999               0.000067381               0.000103380               0.000000000               0.000000000               0.000000000               0.000000000               0.000204896               0.000411598               0.000114783               0.000025386               0.000128736               0.000154122               0.000000000               0.000000000               0.000000000               0.000000000               0.000222991               0.000563237               0.000103352               0.000013217               0.000183338               0.000196555               0.000000000               0.000000000               0.000000000               0.000000000               0.000237525               0.000698476               0.000087572               0.000001762               0.000232236               0.000233998               0.000000000               0.000000000               0.000000000               0.000000000               0.000256155               0.000824687               0.000073202              -0.000007028               0.000277235               0.000270208               0.000000000               0.000000000               0.000000000               0.000000000               0.000279286               0.000940212               0.000058188              -0.000012794               0.000317666               0.000304871               0.000000000               0.000000000               0.000000000               0.000000000               0.000305128               0.001043076               0.000042193              -0.000015961               0.000353009               0.000337048               0.000000000               0.000000000               0.000000000               0.000000000               0.000329896               0.001136528               0.000028769              -0.000018355               0.000384957               0.000366602               0.000000000               0.000000000               0.000000000               0.000000000               0.000349665               0.001225824               0.000022858              -0.000022104               0.000415972               0.000393868               0.000000000               0.000000000               0.000000000               0.000000000               0.000363682               0.001310336               0.000022148              -0.000027411               0.000445911               0.000418500               0.000000000               0.000000000               0.000000000               0.000000000               0.000372620               0.001385921               0.000022105              -0.000033508               0.000473138               0.000439631               0.000000000               0.000000000               0.000000000               0.000000000               0.000375498               0.001449926               0.000022310              -0.000040429               0.000496780               0.000456351               0.000000000               0.000000000               0.000000000               0.000000000               0.000378263               0.001515442               0.000021671              -0.000047581               0.000521003               0.000473421               0.000000000               0.000000000               0.000000000               0.000000000               0.000384011               0.001587691               0.000017455              -0.000054457               0.000547378               0.000492920               0.000000000               0.000000000               0.000000000               0.000000000               0.000388953               0.001658133               0.000009269              -0.000061409               0.000573175               0.000511766               0.000000000               0.000000000               0.000000000               0.000000000               0.000387221               0.001689254               0.000002958              -0.000065949               0.000585062               0.000519113               0.000000000               0.000000000               0.000000000               0.000000000               0.000112507               0.000096426               0.000050807               0.000030137               0.000022096               0.000052233               0.000000000               0.000000000               0.000000000               0.000000000               0.000174270               0.000197797               0.000071825               0.000040626               0.000052390               0.000093016               0.000000000               0.000000000               0.000000000               0.000000000               0.000220364               0.000363561               0.000084552               0.000037191               0.000108789               0.000145980               0.000000000               0.000000000               0.000000000               0.000000000               0.000244829               0.000518057               0.000078731               0.000027053               0.000163666               0.000190720               0.000000000               0.000000000               0.000000000               0.000000000               0.000263566               0.000660938               0.000069475               0.000016220               0.000214904               0.000231123               0.000000000               0.000000000               0.000000000               0.000000000               0.000280198               0.000794186               0.000059192               0.000005801               0.000262792               0.000268593               0.000000000               0.000000000               0.000000000               0.000000000               0.000296828               0.000915805               0.000046971              -0.000003165               0.000306320               0.000303155               0.000000000               0.000000000               0.000000000               0.000000000               0.000316854               0.001025371               0.000033709              -0.000009351               0.000344904               0.000335553               0.000000000               0.000000000               0.000000000               0.000000000               0.000341381               0.001126958               0.000022155              -0.000012852               0.000379933               0.000367081               0.000000000               0.000000000               0.000000000               0.000000000               0.000366769               0.001223080               0.000015687              -0.000015347               0.000412805               0.000397458               0.000000000               0.000000000               0.000000000               0.000000000               0.000388131               0.001312361               0.000013644              -0.000018496               0.000443615               0.000425119               0.000000000               0.000000000               0.000000000               0.000000000               0.000404539               0.001389895               0.000012389              -0.000022035               0.000470639               0.000448604               0.000000000               0.000000000               0.000000000               0.000000000               0.000416832               0.001457313               0.000011711              -0.000025852               0.000494383               0.000468531               0.000000000               0.000000000               0.000000000               0.000000000               0.000427774               0.001522847               0.000012287              -0.000029941               0.000517591               0.000487650               0.000000000               0.000000000               0.000000000               0.000000000               0.000438653               0.001587321               0.000010282              -0.000033920               0.000540408               0.000506488               0.000000000               0.000000000               0.000000000               0.000000000               0.000451443               0.001652676               0.000005572              -0.000037293               0.000563317               0.000526024               0.000000000               0.000000000               0.000000000               0.000000000               0.000457355               0.001684623               0.000002514              -0.000039070               0.000574559               0.000535489               0.000000000               0.000000000               0.000000000               0.000000000               0.000092177               0.000076323               0.000024973               0.000025026               0.000017099               0.000042125               0.000000000               0.000000000               0.000000000               0.000000000               0.000169253               0.000171605               0.000037071               0.000042019               0.000043195               0.000085214               0.000000000               0.000000000               0.000000000               0.000000000               0.000230799               0.000330615               0.000044816               0.000045222               0.000095130               0.000140352               0.000000000               0.000000000               0.000000000               0.000000000               0.000262155               0.000486040               0.000042831               0.000037553               0.000149494               0.000187047               0.000000000               0.000000000               0.000000000               0.000000000               0.000282090               0.000632685               0.000038440               0.000026698               0.000201994               0.000228691               0.000000000               0.000000000               0.000000000               0.000000000               0.000296053               0.000768988               0.000032670               0.000014896               0.000251361               0.000266258               0.000000000               0.000000000               0.000000000               0.000000000               0.000310155               0.000895001               0.000026272               0.000004433               0.000296853               0.000301286               0.000000000               0.000000000               0.000000000               0.000000000               0.000328401               0.001012438               0.000019203              -0.000003405               0.000338611               0.000335206               0.000000000               0.000000000               0.000000000               0.000000000               0.000351589               0.001120230               0.000012457              -0.000008183               0.000376134               0.000367951               0.000000000               0.000000000               0.000000000               0.000000000               0.000377389               0.001217744               0.000007703              -0.000010697               0.000409476               0.000398779               0.000000000               0.000000000               0.000000000               0.000000000               0.000402783               0.001308909               0.000005694              -0.000012570               0.000440489               0.000427919               0.000000000               0.000000000               0.000000000               0.000000000               0.000424255               0.001388302               0.000004700              -0.000014442               0.000467577               0.000453135               0.000000000               0.000000000               0.000000000               0.000000000               0.000443336               0.001460151               0.000004045              -0.000016268               0.000492135               0.000475867               0.000000000               0.000000000               0.000000000               0.000000000               0.000459991               0.001526572               0.000004195              -0.000018325               0.000514961               0.000496636               0.000000000               0.000000000               0.000000000               0.000000000               0.000473609               0.001585359               0.000003347              -0.000020567               0.000535303               0.000514737               0.000000000               0.000000000               0.000000000               0.000000000               0.000490000               0.001649781               0.000001799              -0.000022472               0.000557412               0.000534940               0.000000000               0.000000000               0.000000000               0.000000000               0.000498583               0.001683969               0.000001030              -0.000023527               0.000569160               0.000545632               0.000000000               0.000000000               0.000000000               0.000000000               0.000000000               0.000000000               0.000000000               0.000000000               0.000000000               0.000000000               0.000000000               0.000000000               0.000000000               0.000000000               0.000000000               0.000000000               0.000000000               0.000000000               0.000000000               0.000000000               0.000000000               0.000000000               0.000000000               0.000000000               0.000000000               0.000000000               0.000000000               0.000000000               0.000000000               0.000000000               0.000000000               0.000000000               0.000000000               0.000000000               0.000000000               0.000000000               0.000000000               0.000000000               0.000000000               0.000000000               0.000000000               0.000000000               0.000000000               0.000000000               0.000000000               0.000000000               0.000000000               0.000000000               0.000000000               0.000000000               0.000000000               0.000000000               0.000000000               0.000000000               0.000000000               0.000000000               0.000000000               0.000000000               0.000000000               0.000000000               0.000000000               0.000000000               0.000000000               0.000000000               0.000000000               0.000000000               0.000000000               0.000000000               0.000000000               0.000000000               0.000000000               0.000000000               0.000000000               0.000000000               0.000000000               0.000000000               0.000000000               0.000000000               0.000000000               0.000000000               0.000000000               0.000000000               0.000000000               0.000000000               0.000000000               0.000000000               0.000000000               0.000000000               0.000000000               0.000000000               0.000000000               0.000000000               0.000000000               0.000000000               0.000000000               0.000000000               0.000000000               0.000000000               0.000000000               0.000000000               0.000000000               0.000000000               0.000000000               0.000000000               0.000000000               0.000000000               0.000000000               0.000000000               0.000000000               0.000000000               0.000000000               0.000000000               0.000000000               0.000000000               0.000000000               0.000000000               0.000000000               0.000000000               0.000000000               0.000000000               0.000000000               0.000000000               0.000000000               0.000000000               0.000000000               0.000000000               0.000000000               0.000000000               0.000000000               0.000000000               0.000000000               0.000000000               0.000000000               0.000000000               0.000000000               0.000000000               0.000000000               0.000000000               0.000000000               0.000000000               0.000000000               0.000000000               0.000000000               0.000000000               0.000000000               0.000000000               0.000000000               0.000000000               0.000000000               0.000000000               0.000000000               0.000000000               0.000000000               0.000000000               0.000000000               0.000000000               0.000000000               0.000000000               0.000000000               0.000000000               0.000000000               0.000000000               0.000000000               0.000000000               0.000000000               0.000000000               0.000000000               0.000000000               0.000000000               0.000000000               0.000000000               0.000000000               0.000000000               0.000000000 </DataArray>
</PointData>
</Piece>
</UnstructuredGrid> </VTKFile>
