<?xml version="1.0"?>
<VTKFile type="UnstructuredGrid" version="0.1">
<UnstructuredGrid>
<Piece NumberOfPoints="      1156" NumberOfCells="      1024">
<Points>
<DataArray type="Float64"                                    Name="coordinates"                                                      NumberOfComponents=" 3" format="ascii">
              0.133000000               0.000000000               0.000000000               0.155937500               0.000000000               0.000000000               0.178875000               0.000000000               0.000000000               0.201812500               0.000000000               0.000000000               0.224750000               0.000000000               0.000000000               0.247687500               0.000000000               0.000000000               0.270625000               0.000000000               0.000000000               0.293562500               0.000000000               0.000000000               0.316500000               0.000000000               0.000000000               0.339437500               0.000000000               0.000000000               0.362375000               0.000000000               0.000000000               0.385312500               0.000000000               0.000000000               0.408250000               0.000000000               0.000000000               0.431187500               0.000000000               0.000000000               0.454125000               0.000000000               0.000000000               0.477062500               0.000000000               0.000000000               0.500000000               0.000000000               0.000000000               0.132359569               0.013036280               0.000000000               0.155337096               0.016127762               0.000000000               0.178314623               0.019219245               0.000000000               0.201292150               0.022310727               0.000000000               0.224269676               0.025402210               0.000000000               0.247247203               0.028493692               0.000000000               0.270224730               0.031585175               0.000000000               0.293202257               0.034676657               0.000000000               0.316179784               0.037768140               0.000000000               0.339157311               0.040859622               0.000000000               0.362134838               0.043951105               0.000000000               0.385112365               0.047042587               0.000000000               0.408089892               0.050134070               0.000000000               0.431067419               0.053225552               0.000000000               0.454044946               0.056317035               0.000000000               0.477022473               0.059408517               0.000000000               0.500000000               0.062500000               0.000000000               0.130444442               0.025947013               0.000000000               0.153541665               0.032137825               0.000000000               0.176638887               0.038328636               0.000000000               0.199736109               0.044519448               0.000000000               0.222833332               0.050710260               0.000000000               0.245930554               0.056901071               0.000000000               0.269027776               0.063091883               0.000000000               0.292124999               0.069282695               0.000000000               0.315222221               0.075473506               0.000000000               0.338319444               0.081664318               0.000000000               0.361416666               0.087855130               0.000000000               0.384513888               0.094045942               0.000000000               0.407611111               0.100236753               0.000000000               0.430708333               0.106427565               0.000000000               0.453805555               0.112618377               0.000000000               0.476902778               0.118809188               0.000000000               0.500000000               0.125000000               0.000000000               0.127273065               0.038607862               0.000000000               0.150568498               0.047913621               0.000000000               0.173863932               0.057219379               0.000000000               0.197159365               0.066525138               0.000000000               0.220454798               0.075830897               0.000000000               0.243750232               0.085136655               0.000000000               0.267045665               0.094442414               0.000000000               0.290341099               0.103748172               0.000000000               0.313636532               0.113053931               0.000000000               0.336931966               0.122359690               0.000000000               0.360227399               0.131665448               0.000000000               0.383522833               0.140971207               0.000000000               0.406818266               0.150276966               0.000000000               0.430113700               0.159582724               0.000000000               0.453409133               0.168888483               0.000000000               0.476704567               0.178194241               0.000000000               0.500000000               0.187500000               0.000000000               0.122875978               0.050896897               0.000000000               0.146446229               0.063340840               0.000000000               0.170016481               0.075784784               0.000000000               0.193586732               0.088228728               0.000000000               0.217156983               0.100672672               0.000000000               0.240727235               0.113116616               0.000000000               0.264297486               0.125560560               0.000000000               0.287867738               0.138004504               0.000000000               0.311437989               0.150448448               0.000000000               0.335008240               0.162892392               0.000000000               0.358578492               0.175336336               0.000000000               0.382148743               0.187780280               0.000000000               0.405718994               0.200224224               0.000000000               0.429289246               0.212668168               0.000000000               0.452859497               0.225112112               0.000000000               0.476429749               0.237556056               0.000000000               0.500000000               0.250000000               0.000000000               0.117295528               0.062695766               0.000000000               0.141214558               0.078308531               0.000000000               0.165133587               0.093921295               0.000000000               0.189052617               0.109534060               0.000000000               0.212971646               0.125146824               0.000000000               0.236890676               0.140759589               0.000000000               0.260809705               0.156372354               0.000000000               0.284728735               0.171985118               0.000000000               0.308647764               0.187597883               0.000000000               0.332566794               0.203210648               0.000000000               0.356485823               0.218823412               0.000000000               0.380404853               0.234436177               0.000000000               0.404323882               0.250048941               0.000000000               0.428242912               0.265661706               0.000000000               0.452161941               0.281274471               0.000000000               0.476080971               0.296887235               0.000000000               0.500000000               0.312500000               0.000000000               0.110585458               0.073890841               0.000000000               0.134923867               0.092710163               0.000000000               0.159262276               0.111529486               0.000000000               0.183600685               0.130348808               0.000000000               0.207939094               0.149168131               0.000000000               0.232277503               0.167987453               0.000000000               0.256615912               0.186806776               0.000000000               0.280954320               0.205626098               0.000000000               0.305292729               0.224445420               0.000000000               0.329631138               0.243264743               0.000000000               0.353969547               0.262084065               0.000000000               0.378307956               0.280903388               0.000000000               0.402646365               0.299722710               0.000000000               0.426984773               0.318542033               0.000000000               0.451323182               0.337361355               0.000000000               0.475661591               0.356180678               0.000000000               0.500000000               0.375000000               0.000000000               0.102810390               0.084374307               0.000000000               0.127634741               0.106444663               0.000000000               0.152459092               0.128515018               0.000000000               0.177283442               0.150585374               0.000000000               0.202107793               0.172655730               0.000000000               0.226932143               0.194726086               0.000000000               0.251756494               0.216796442               0.000000000               0.276580845               0.238866798               0.000000000               0.301405195               0.260937153               0.000000000               0.326229546               0.283007509               0.000000000               0.351053896               0.305077865               0.000000000               0.375878247               0.327148221               0.000000000               0.400702598               0.349218577               0.000000000               0.425526948               0.371288933               0.000000000               0.450351299               0.393359288               0.000000000               0.475175649               0.415429644               0.000000000               0.500000000               0.437500000               0.000000000               0.094045202               0.094045202               0.000000000               0.119417377               0.119417377               0.000000000               0.144789552               0.144789552               0.000000000               0.170161727               0.170161727               0.000000000               0.195533901               0.195533901               0.000000000               0.220906076               0.220906076               0.000000000               0.246278251               0.246278251               0.000000000               0.271650426               0.271650426               0.000000000               0.297022601               0.297022601               0.000000000               0.322394776               0.322394776               0.000000000               0.347766951               0.347766951               0.000000000               0.373139126               0.373139126               0.000000000               0.398511300               0.398511300               0.000000000               0.423883475               0.423883475               0.000000000               0.449255650               0.449255650               0.000000000               0.474627825               0.474627825               0.000000000               0.500000000               0.500000000               0.000000000               0.084374307               0.102810390               0.000000000               0.106444663               0.127634741               0.000000000               0.128515018               0.152459092               0.000000000               0.150585374               0.177283442               0.000000000               0.172655730               0.202107793               0.000000000               0.194726086               0.226932143               0.000000000               0.216796442               0.251756494               0.000000000               0.238866798               0.276580845               0.000000000               0.260937153               0.301405195               0.000000000               0.283007509               0.326229546               0.000000000               0.305077865               0.351053896               0.000000000               0.327148221               0.375878247               0.000000000               0.349218577               0.400702598               0.000000000               0.371288933               0.425526948               0.000000000               0.393359288               0.450351299               0.000000000               0.415429644               0.475175649               0.000000000               0.437500000               0.500000000               0.000000000               0.073890841               0.110585458               0.000000000               0.092710163               0.134923867               0.000000000               0.111529486               0.159262276               0.000000000               0.130348808               0.183600685               0.000000000               0.149168131               0.207939094               0.000000000               0.167987453               0.232277503               0.000000000               0.186806776               0.256615912               0.000000000               0.205626098               0.280954320               0.000000000               0.224445420               0.305292729               0.000000000               0.243264743               0.329631138               0.000000000               0.262084065               0.353969547               0.000000000               0.280903388               0.378307956               0.000000000               0.299722710               0.402646365               0.000000000               0.318542033               0.426984773               0.000000000               0.337361355               0.451323182               0.000000000               0.356180678               0.475661591               0.000000000               0.375000000               0.500000000               0.000000000               0.062695766               0.117295528               0.000000000               0.078308531               0.141214558               0.000000000               0.093921295               0.165133587               0.000000000               0.109534060               0.189052617               0.000000000               0.125146824               0.212971646               0.000000000               0.140759589               0.236890676               0.000000000               0.156372354               0.260809705               0.000000000               0.171985118               0.284728735               0.000000000               0.187597883               0.308647764               0.000000000               0.203210648               0.332566794               0.000000000               0.218823412               0.356485823               0.000000000               0.234436177               0.380404853               0.000000000               0.250048941               0.404323882               0.000000000               0.265661706               0.428242912               0.000000000               0.281274471               0.452161941               0.000000000               0.296887235               0.476080971               0.000000000               0.312500000               0.500000000               0.000000000               0.050896897               0.122875978               0.000000000               0.063340840               0.146446229               0.000000000               0.075784784               0.170016481               0.000000000               0.088228728               0.193586732               0.000000000               0.100672672               0.217156983               0.000000000               0.113116616               0.240727235               0.000000000               0.125560560               0.264297486               0.000000000               0.138004504               0.287867738               0.000000000               0.150448448               0.311437989               0.000000000               0.162892392               0.335008240               0.000000000               0.175336336               0.358578492               0.000000000               0.187780280               0.382148743               0.000000000               0.200224224               0.405718994               0.000000000               0.212668168               0.429289246               0.000000000               0.225112112               0.452859497               0.000000000               0.237556056               0.476429749               0.000000000               0.250000000               0.500000000               0.000000000               0.038607862               0.127273065               0.000000000               0.047913621               0.150568498               0.000000000               0.057219379               0.173863932               0.000000000               0.066525138               0.197159365               0.000000000               0.075830897               0.220454798               0.000000000               0.085136655               0.243750232               0.000000000               0.094442414               0.267045665               0.000000000               0.103748172               0.290341099               0.000000000               0.113053931               0.313636532               0.000000000               0.122359690               0.336931966               0.000000000               0.131665448               0.360227399               0.000000000               0.140971207               0.383522833               0.000000000               0.150276966               0.406818266               0.000000000               0.159582724               0.430113700               0.000000000               0.168888483               0.453409133               0.000000000               0.178194241               0.476704567               0.000000000               0.187500000               0.500000000               0.000000000               0.025947013               0.130444442               0.000000000               0.032137825               0.153541665               0.000000000               0.038328636               0.176638887               0.000000000               0.044519448               0.199736109               0.000000000               0.050710260               0.222833332               0.000000000               0.056901071               0.245930554               0.000000000               0.063091883               0.269027776               0.000000000               0.069282695               0.292124999               0.000000000               0.075473506               0.315222221               0.000000000               0.081664318               0.338319444               0.000000000               0.087855130               0.361416666               0.000000000               0.094045942               0.384513888               0.000000000               0.100236753               0.407611111               0.000000000               0.106427565               0.430708333               0.000000000               0.112618377               0.453805555               0.000000000               0.118809188               0.476902778               0.000000000               0.125000000               0.500000000               0.000000000               0.013036280               0.132359569               0.000000000               0.016127762               0.155337096               0.000000000               0.019219245               0.178314623               0.000000000               0.022310727               0.201292150               0.000000000               0.025402210               0.224269676               0.000000000               0.028493692               0.247247203               0.000000000               0.031585175               0.270224730               0.000000000               0.034676657               0.293202257               0.000000000               0.037768140               0.316179784               0.000000000               0.040859622               0.339157311               0.000000000               0.043951105               0.362134838               0.000000000               0.047042587               0.385112365               0.000000000               0.050134070               0.408089892               0.000000000               0.053225552               0.431067419               0.000000000               0.056317035               0.454044946               0.000000000               0.059408517               0.477022473               0.000000000               0.062500000               0.500000000               0.000000000               0.000000000               0.133000000               0.000000000               0.000000000               0.155937500               0.000000000               0.000000000               0.178875000               0.000000000               0.000000000               0.201812500               0.000000000               0.000000000               0.224750000               0.000000000               0.000000000               0.247687500               0.000000000               0.000000000               0.270625000               0.000000000               0.000000000               0.293562500               0.000000000               0.000000000               0.316500000               0.000000000               0.000000000               0.339437500               0.000000000               0.000000000               0.362375000               0.000000000               0.000000000               0.385312500               0.000000000               0.000000000               0.408250000               0.000000000               0.000000000               0.431187500               0.000000000               0.000000000               0.454125000               0.000000000               0.000000000               0.477062500               0.000000000               0.000000000               0.500000000               0.000000000               0.133000000               0.000000000               0.000000000               0.155937500               0.000000000               0.000000000               0.178875000               0.000000000               0.000000000               0.201812500               0.000000000               0.000000000               0.224750000               0.000000000               0.000000000               0.247687500               0.000000000               0.000000000               0.270625000               0.000000000               0.000000000               0.293562500               0.000000000               0.000000000               0.316500000               0.000000000               0.000000000               0.339437500               0.000000000               0.000000000               0.362375000               0.000000000               0.000000000               0.385312500               0.000000000               0.000000000               0.408250000               0.000000000               0.000000000               0.431187500               0.000000000               0.000000000               0.454125000               0.000000000               0.000000000               0.477062500               0.000000000               0.000000000               0.500000000               0.000000000               0.000000000               0.132359569              -0.013036280               0.000000000               0.155337096              -0.016127762               0.000000000               0.178314623              -0.019219245               0.000000000               0.201292150              -0.022310727               0.000000000               0.224269676              -0.025402210               0.000000000               0.247247203              -0.028493692               0.000000000               0.270224730              -0.031585175               0.000000000               0.293202257              -0.034676657               0.000000000               0.316179784              -0.037768140               0.000000000               0.339157311              -0.040859622               0.000000000               0.362134838              -0.043951105               0.000000000               0.385112365              -0.047042587               0.000000000               0.408089892              -0.050134070               0.000000000               0.431067419              -0.053225552               0.000000000               0.454044946              -0.056317035               0.000000000               0.477022473              -0.059408517               0.000000000               0.500000000              -0.062500000               0.000000000               0.130444442              -0.025947013               0.000000000               0.153541665              -0.032137825               0.000000000               0.176638887              -0.038328636               0.000000000               0.199736109              -0.044519448               0.000000000               0.222833332              -0.050710260               0.000000000               0.245930554              -0.056901071               0.000000000               0.269027776              -0.063091883               0.000000000               0.292124999              -0.069282695               0.000000000               0.315222221              -0.075473506               0.000000000               0.338319444              -0.081664318               0.000000000               0.361416666              -0.087855130               0.000000000               0.384513888              -0.094045942               0.000000000               0.407611111              -0.100236753               0.000000000               0.430708333              -0.106427565               0.000000000               0.453805555              -0.112618377               0.000000000               0.476902778              -0.118809188               0.000000000               0.500000000              -0.125000000               0.000000000               0.127273065              -0.038607862               0.000000000               0.150568498              -0.047913621               0.000000000               0.173863932              -0.057219379               0.000000000               0.197159365              -0.066525138               0.000000000               0.220454798              -0.075830897               0.000000000               0.243750232              -0.085136655               0.000000000               0.267045665              -0.094442414               0.000000000               0.290341099              -0.103748172               0.000000000               0.313636532              -0.113053931               0.000000000               0.336931966              -0.122359690               0.000000000               0.360227399              -0.131665448               0.000000000               0.383522833              -0.140971207               0.000000000               0.406818266              -0.150276966               0.000000000               0.430113700              -0.159582724               0.000000000               0.453409133              -0.168888483               0.000000000               0.476704567              -0.178194241               0.000000000               0.500000000              -0.187500000               0.000000000               0.122875978              -0.050896897               0.000000000               0.146446229              -0.063340840               0.000000000               0.170016481              -0.075784784               0.000000000               0.193586732              -0.088228728               0.000000000               0.217156983              -0.100672672               0.000000000               0.240727235              -0.113116616               0.000000000               0.264297486              -0.125560560               0.000000000               0.287867738              -0.138004504               0.000000000               0.311437989              -0.150448448               0.000000000               0.335008240              -0.162892392               0.000000000               0.358578492              -0.175336336               0.000000000               0.382148743              -0.187780280               0.000000000               0.405718994              -0.200224224               0.000000000               0.429289246              -0.212668168               0.000000000               0.452859497              -0.225112112               0.000000000               0.476429749              -0.237556056               0.000000000               0.500000000              -0.250000000               0.000000000               0.117295528              -0.062695766               0.000000000               0.141214558              -0.078308531               0.000000000               0.165133587              -0.093921295               0.000000000               0.189052617              -0.109534060               0.000000000               0.212971646              -0.125146824               0.000000000               0.236890676              -0.140759589               0.000000000               0.260809705              -0.156372354               0.000000000               0.284728735              -0.171985118               0.000000000               0.308647764              -0.187597883               0.000000000               0.332566794              -0.203210648               0.000000000               0.356485823              -0.218823412               0.000000000               0.380404853              -0.234436177               0.000000000               0.404323882              -0.250048941               0.000000000               0.428242912              -0.265661706               0.000000000               0.452161941              -0.281274471               0.000000000               0.476080971              -0.296887235               0.000000000               0.500000000              -0.312500000               0.000000000               0.110585458              -0.073890841               0.000000000               0.134923867              -0.092710163               0.000000000               0.159262276              -0.111529486               0.000000000               0.183600685              -0.130348808               0.000000000               0.207939094              -0.149168131               0.000000000               0.232277503              -0.167987453               0.000000000               0.256615912              -0.186806776               0.000000000               0.280954320              -0.205626098               0.000000000               0.305292729              -0.224445420               0.000000000               0.329631138              -0.243264743               0.000000000               0.353969547              -0.262084065               0.000000000               0.378307956              -0.280903388               0.000000000               0.402646365              -0.299722710               0.000000000               0.426984773              -0.318542033               0.000000000               0.451323182              -0.337361355               0.000000000               0.475661591              -0.356180678               0.000000000               0.500000000              -0.375000000               0.000000000               0.102810390              -0.084374307               0.000000000               0.127634741              -0.106444663               0.000000000               0.152459092              -0.128515018               0.000000000               0.177283442              -0.150585374               0.000000000               0.202107793              -0.172655730               0.000000000               0.226932143              -0.194726086               0.000000000               0.251756494              -0.216796442               0.000000000               0.276580845              -0.238866798               0.000000000               0.301405195              -0.260937153               0.000000000               0.326229546              -0.283007509               0.000000000               0.351053896              -0.305077865               0.000000000               0.375878247              -0.327148221               0.000000000               0.400702598              -0.349218577               0.000000000               0.425526948              -0.371288933               0.000000000               0.450351299              -0.393359288               0.000000000               0.475175649              -0.415429644               0.000000000               0.500000000              -0.437500000               0.000000000               0.094045202              -0.094045202               0.000000000               0.119417377              -0.119417377               0.000000000               0.144789552              -0.144789552               0.000000000               0.170161727              -0.170161727               0.000000000               0.195533901              -0.195533901               0.000000000               0.220906076              -0.220906076               0.000000000               0.246278251              -0.246278251               0.000000000               0.271650426              -0.271650426               0.000000000               0.297022601              -0.297022601               0.000000000               0.322394776              -0.322394776               0.000000000               0.347766951              -0.347766951               0.000000000               0.373139126              -0.373139126               0.000000000               0.398511300              -0.398511300               0.000000000               0.423883475              -0.423883475               0.000000000               0.449255650              -0.449255650               0.000000000               0.474627825              -0.474627825               0.000000000               0.500000000              -0.500000000               0.000000000               0.084374307              -0.102810390               0.000000000               0.106444663              -0.127634741               0.000000000               0.128515018              -0.152459092               0.000000000               0.150585374              -0.177283442               0.000000000               0.172655730              -0.202107793               0.000000000               0.194726086              -0.226932143               0.000000000               0.216796442              -0.251756494               0.000000000               0.238866798              -0.276580845               0.000000000               0.260937153              -0.301405195               0.000000000               0.283007509              -0.326229546               0.000000000               0.305077865              -0.351053896               0.000000000               0.327148221              -0.375878247               0.000000000               0.349218577              -0.400702598               0.000000000               0.371288933              -0.425526948               0.000000000               0.393359288              -0.450351299               0.000000000               0.415429644              -0.475175649               0.000000000               0.437500000              -0.500000000               0.000000000               0.073890841              -0.110585458               0.000000000               0.092710163              -0.134923867               0.000000000               0.111529486              -0.159262276               0.000000000               0.130348808              -0.183600685               0.000000000               0.149168131              -0.207939094               0.000000000               0.167987453              -0.232277503               0.000000000               0.186806776              -0.256615912               0.000000000               0.205626098              -0.280954320               0.000000000               0.224445420              -0.305292729               0.000000000               0.243264743              -0.329631138               0.000000000               0.262084065              -0.353969547               0.000000000               0.280903388              -0.378307956               0.000000000               0.299722710              -0.402646365               0.000000000               0.318542033              -0.426984773               0.000000000               0.337361355              -0.451323182               0.000000000               0.356180678              -0.475661591               0.000000000               0.375000000              -0.500000000               0.000000000               0.062695766              -0.117295528               0.000000000               0.078308531              -0.141214558               0.000000000               0.093921295              -0.165133587               0.000000000               0.109534060              -0.189052617               0.000000000               0.125146824              -0.212971646               0.000000000               0.140759589              -0.236890676               0.000000000               0.156372354              -0.260809705               0.000000000               0.171985118              -0.284728735               0.000000000               0.187597883              -0.308647764               0.000000000               0.203210648              -0.332566794               0.000000000               0.218823412              -0.356485823               0.000000000               0.234436177              -0.380404853               0.000000000               0.250048941              -0.404323882               0.000000000               0.265661706              -0.428242912               0.000000000               0.281274471              -0.452161941               0.000000000               0.296887235              -0.476080971               0.000000000               0.312500000              -0.500000000               0.000000000               0.050896897              -0.122875978               0.000000000               0.063340840              -0.146446229               0.000000000               0.075784784              -0.170016481               0.000000000               0.088228728              -0.193586732               0.000000000               0.100672672              -0.217156983               0.000000000               0.113116616              -0.240727235               0.000000000               0.125560560              -0.264297486               0.000000000               0.138004504              -0.287867738               0.000000000               0.150448448              -0.311437989               0.000000000               0.162892392              -0.335008240               0.000000000               0.175336336              -0.358578492               0.000000000               0.187780280              -0.382148743               0.000000000               0.200224224              -0.405718994               0.000000000               0.212668168              -0.429289246               0.000000000               0.225112112              -0.452859497               0.000000000               0.237556056              -0.476429749               0.000000000               0.250000000              -0.500000000               0.000000000               0.038607862              -0.127273065               0.000000000               0.047913621              -0.150568498               0.000000000               0.057219379              -0.173863932               0.000000000               0.066525138              -0.197159365               0.000000000               0.075830897              -0.220454798               0.000000000               0.085136655              -0.243750232               0.000000000               0.094442414              -0.267045665               0.000000000               0.103748172              -0.290341099               0.000000000               0.113053931              -0.313636532               0.000000000               0.122359690              -0.336931966               0.000000000               0.131665448              -0.360227399               0.000000000               0.140971207              -0.383522833               0.000000000               0.150276966              -0.406818266               0.000000000               0.159582724              -0.430113700               0.000000000               0.168888483              -0.453409133               0.000000000               0.178194241              -0.476704567               0.000000000               0.187500000              -0.500000000               0.000000000               0.025947013              -0.130444442               0.000000000               0.032137825              -0.153541665               0.000000000               0.038328636              -0.176638887               0.000000000               0.044519448              -0.199736109               0.000000000               0.050710260              -0.222833332               0.000000000               0.056901071              -0.245930554               0.000000000               0.063091883              -0.269027776               0.000000000               0.069282695              -0.292124999               0.000000000               0.075473506              -0.315222221               0.000000000               0.081664318              -0.338319444               0.000000000               0.087855130              -0.361416666               0.000000000               0.094045942              -0.384513888               0.000000000               0.100236753              -0.407611111               0.000000000               0.106427565              -0.430708333               0.000000000               0.112618377              -0.453805555               0.000000000               0.118809188              -0.476902778               0.000000000               0.125000000              -0.500000000               0.000000000               0.013036280              -0.132359569               0.000000000               0.016127762              -0.155337096               0.000000000               0.019219245              -0.178314623               0.000000000               0.022310727              -0.201292150               0.000000000               0.025402210              -0.224269676               0.000000000               0.028493692              -0.247247203               0.000000000               0.031585175              -0.270224730               0.000000000               0.034676657              -0.293202257               0.000000000               0.037768140              -0.316179784               0.000000000               0.040859622              -0.339157311               0.000000000               0.043951105              -0.362134838               0.000000000               0.047042587              -0.385112365               0.000000000               0.050134070              -0.408089892               0.000000000               0.053225552              -0.431067419               0.000000000               0.056317035              -0.454044946               0.000000000               0.059408517              -0.477022473               0.000000000               0.062500000              -0.500000000               0.000000000               0.000000000              -0.133000000               0.000000000               0.000000000              -0.155937500               0.000000000               0.000000000              -0.178875000               0.000000000               0.000000000              -0.201812500               0.000000000               0.000000000              -0.224750000               0.000000000               0.000000000              -0.247687500               0.000000000               0.000000000              -0.270625000               0.000000000               0.000000000              -0.293562500               0.000000000               0.000000000              -0.316500000               0.000000000               0.000000000              -0.339437500               0.000000000               0.000000000              -0.362375000               0.000000000               0.000000000              -0.385312500               0.000000000               0.000000000              -0.408250000               0.000000000               0.000000000              -0.431187500               0.000000000               0.000000000              -0.454125000               0.000000000               0.000000000              -0.477062500               0.000000000               0.000000000              -0.500000000               0.000000000              -0.133000000               0.000000000               0.000000000              -0.155937500               0.000000000               0.000000000              -0.178875000               0.000000000               0.000000000              -0.201812500               0.000000000               0.000000000              -0.224750000               0.000000000               0.000000000              -0.247687500               0.000000000               0.000000000              -0.270625000               0.000000000               0.000000000              -0.293562500               0.000000000               0.000000000              -0.316500000               0.000000000               0.000000000              -0.339437500               0.000000000               0.000000000              -0.362375000               0.000000000               0.000000000              -0.385312500               0.000000000               0.000000000              -0.408250000               0.000000000               0.000000000              -0.431187500               0.000000000               0.000000000              -0.454125000               0.000000000               0.000000000              -0.477062500               0.000000000               0.000000000              -0.500000000               0.000000000               0.000000000              -0.132359569              -0.013036280               0.000000000              -0.155337096              -0.016127762               0.000000000              -0.178314623              -0.019219245               0.000000000              -0.201292150              -0.022310727               0.000000000              -0.224269676              -0.025402210               0.000000000              -0.247247203              -0.028493692               0.000000000              -0.270224730              -0.031585175               0.000000000              -0.293202257              -0.034676657               0.000000000              -0.316179784              -0.037768140               0.000000000              -0.339157311              -0.040859622               0.000000000              -0.362134838              -0.043951105               0.000000000              -0.385112365              -0.047042587               0.000000000              -0.408089892              -0.050134070               0.000000000              -0.431067419              -0.053225552               0.000000000              -0.454044946              -0.056317035               0.000000000              -0.477022473              -0.059408517               0.000000000              -0.500000000              -0.062500000               0.000000000              -0.130444442              -0.025947013               0.000000000              -0.153541665              -0.032137825               0.000000000              -0.176638887              -0.038328636               0.000000000              -0.199736109              -0.044519448               0.000000000              -0.222833332              -0.050710260               0.000000000              -0.245930554              -0.056901071               0.000000000              -0.269027776              -0.063091883               0.000000000              -0.292124999              -0.069282695               0.000000000              -0.315222221              -0.075473506               0.000000000              -0.338319444              -0.081664318               0.000000000              -0.361416666              -0.087855130               0.000000000              -0.384513888              -0.094045942               0.000000000              -0.407611111              -0.100236753               0.000000000              -0.430708333              -0.106427565               0.000000000              -0.453805555              -0.112618377               0.000000000              -0.476902778              -0.118809188               0.000000000              -0.500000000              -0.125000000               0.000000000              -0.127273065              -0.038607862               0.000000000              -0.150568498              -0.047913621               0.000000000              -0.173863932              -0.057219379               0.000000000              -0.197159365              -0.066525138               0.000000000              -0.220454798              -0.075830897               0.000000000              -0.243750232              -0.085136655               0.000000000              -0.267045665              -0.094442414               0.000000000              -0.290341099              -0.103748172               0.000000000              -0.313636532              -0.113053931               0.000000000              -0.336931966              -0.122359690               0.000000000              -0.360227399              -0.131665448               0.000000000              -0.383522833              -0.140971207               0.000000000              -0.406818266              -0.150276966               0.000000000              -0.430113700              -0.159582724               0.000000000              -0.453409133              -0.168888483               0.000000000              -0.476704567              -0.178194241               0.000000000              -0.500000000              -0.187500000               0.000000000              -0.122875978              -0.050896897               0.000000000              -0.146446229              -0.063340840               0.000000000              -0.170016481              -0.075784784               0.000000000              -0.193586732              -0.088228728               0.000000000              -0.217156983              -0.100672672               0.000000000              -0.240727235              -0.113116616               0.000000000              -0.264297486              -0.125560560               0.000000000              -0.287867738              -0.138004504               0.000000000              -0.311437989              -0.150448448               0.000000000              -0.335008240              -0.162892392               0.000000000              -0.358578492              -0.175336336               0.000000000              -0.382148743              -0.187780280               0.000000000              -0.405718994              -0.200224224               0.000000000              -0.429289246              -0.212668168               0.000000000              -0.452859497              -0.225112112               0.000000000              -0.476429749              -0.237556056               0.000000000              -0.500000000              -0.250000000               0.000000000              -0.117295528              -0.062695766               0.000000000              -0.141214558              -0.078308531               0.000000000              -0.165133587              -0.093921295               0.000000000              -0.189052617              -0.109534060               0.000000000              -0.212971646              -0.125146824               0.000000000              -0.236890676              -0.140759589               0.000000000              -0.260809705              -0.156372354               0.000000000              -0.284728735              -0.171985118               0.000000000              -0.308647764              -0.187597883               0.000000000              -0.332566794              -0.203210648               0.000000000              -0.356485823              -0.218823412               0.000000000              -0.380404853              -0.234436177               0.000000000              -0.404323882              -0.250048941               0.000000000              -0.428242912              -0.265661706               0.000000000              -0.452161941              -0.281274471               0.000000000              -0.476080971              -0.296887235               0.000000000              -0.500000000              -0.312500000               0.000000000              -0.110585458              -0.073890841               0.000000000              -0.134923867              -0.092710163               0.000000000              -0.159262276              -0.111529486               0.000000000              -0.183600685              -0.130348808               0.000000000              -0.207939094              -0.149168131               0.000000000              -0.232277503              -0.167987453               0.000000000              -0.256615912              -0.186806776               0.000000000              -0.280954320              -0.205626098               0.000000000              -0.305292729              -0.224445420               0.000000000              -0.329631138              -0.243264743               0.000000000              -0.353969547              -0.262084065               0.000000000              -0.378307956              -0.280903388               0.000000000              -0.402646365              -0.299722710               0.000000000              -0.426984773              -0.318542033               0.000000000              -0.451323182              -0.337361355               0.000000000              -0.475661591              -0.356180678               0.000000000              -0.500000000              -0.375000000               0.000000000              -0.102810390              -0.084374307               0.000000000              -0.127634741              -0.106444663               0.000000000              -0.152459092              -0.128515018               0.000000000              -0.177283442              -0.150585374               0.000000000              -0.202107793              -0.172655730               0.000000000              -0.226932143              -0.194726086               0.000000000              -0.251756494              -0.216796442               0.000000000              -0.276580845              -0.238866798               0.000000000              -0.301405195              -0.260937153               0.000000000              -0.326229546              -0.283007509               0.000000000              -0.351053896              -0.305077865               0.000000000              -0.375878247              -0.327148221               0.000000000              -0.400702598              -0.349218577               0.000000000              -0.425526948              -0.371288933               0.000000000              -0.450351299              -0.393359288               0.000000000              -0.475175649              -0.415429644               0.000000000              -0.500000000              -0.437500000               0.000000000              -0.094045202              -0.094045202               0.000000000              -0.119417377              -0.119417377               0.000000000              -0.144789552              -0.144789552               0.000000000              -0.170161727              -0.170161727               0.000000000              -0.195533901              -0.195533901               0.000000000              -0.220906076              -0.220906076               0.000000000              -0.246278251              -0.246278251               0.000000000              -0.271650426              -0.271650426               0.000000000              -0.297022601              -0.297022601               0.000000000              -0.322394776              -0.322394776               0.000000000              -0.347766951              -0.347766951               0.000000000              -0.373139126              -0.373139126               0.000000000              -0.398511300              -0.398511300               0.000000000              -0.423883475              -0.423883475               0.000000000              -0.449255650              -0.449255650               0.000000000              -0.474627825              -0.474627825               0.000000000              -0.500000000              -0.500000000               0.000000000              -0.084374307              -0.102810390               0.000000000              -0.106444663              -0.127634741               0.000000000              -0.128515018              -0.152459092               0.000000000              -0.150585374              -0.177283442               0.000000000              -0.172655730              -0.202107793               0.000000000              -0.194726086              -0.226932143               0.000000000              -0.216796442              -0.251756494               0.000000000              -0.238866798              -0.276580845               0.000000000              -0.260937153              -0.301405195               0.000000000              -0.283007509              -0.326229546               0.000000000              -0.305077865              -0.351053896               0.000000000              -0.327148221              -0.375878247               0.000000000              -0.349218577              -0.400702598               0.000000000              -0.371288933              -0.425526948               0.000000000              -0.393359288              -0.450351299               0.000000000              -0.415429644              -0.475175649               0.000000000              -0.437500000              -0.500000000               0.000000000              -0.073890841              -0.110585458               0.000000000              -0.092710163              -0.134923867               0.000000000              -0.111529486              -0.159262276               0.000000000              -0.130348808              -0.183600685               0.000000000              -0.149168131              -0.207939094               0.000000000              -0.167987453              -0.232277503               0.000000000              -0.186806776              -0.256615912               0.000000000              -0.205626098              -0.280954320               0.000000000              -0.224445420              -0.305292729               0.000000000              -0.243264743              -0.329631138               0.000000000              -0.262084065              -0.353969547               0.000000000              -0.280903388              -0.378307956               0.000000000              -0.299722710              -0.402646365               0.000000000              -0.318542033              -0.426984773               0.000000000              -0.337361355              -0.451323182               0.000000000              -0.356180678              -0.475661591               0.000000000              -0.375000000              -0.500000000               0.000000000              -0.062695766              -0.117295528               0.000000000              -0.078308531              -0.141214558               0.000000000              -0.093921295              -0.165133587               0.000000000              -0.109534060              -0.189052617               0.000000000              -0.125146824              -0.212971646               0.000000000              -0.140759589              -0.236890676               0.000000000              -0.156372354              -0.260809705               0.000000000              -0.171985118              -0.284728735               0.000000000              -0.187597883              -0.308647764               0.000000000              -0.203210648              -0.332566794               0.000000000              -0.218823412              -0.356485823               0.000000000              -0.234436177              -0.380404853               0.000000000              -0.250048941              -0.404323882               0.000000000              -0.265661706              -0.428242912               0.000000000              -0.281274471              -0.452161941               0.000000000              -0.296887235              -0.476080971               0.000000000              -0.312500000              -0.500000000               0.000000000              -0.050896897              -0.122875978               0.000000000              -0.063340840              -0.146446229               0.000000000              -0.075784784              -0.170016481               0.000000000              -0.088228728              -0.193586732               0.000000000              -0.100672672              -0.217156983               0.000000000              -0.113116616              -0.240727235               0.000000000              -0.125560560              -0.264297486               0.000000000              -0.138004504              -0.287867738               0.000000000              -0.150448448              -0.311437989               0.000000000              -0.162892392              -0.335008240               0.000000000              -0.175336336              -0.358578492               0.000000000              -0.187780280              -0.382148743               0.000000000              -0.200224224              -0.405718994               0.000000000              -0.212668168              -0.429289246               0.000000000              -0.225112112              -0.452859497               0.000000000              -0.237556056              -0.476429749               0.000000000              -0.250000000              -0.500000000               0.000000000              -0.038607862              -0.127273065               0.000000000              -0.047913621              -0.150568498               0.000000000              -0.057219379              -0.173863932               0.000000000              -0.066525138              -0.197159365               0.000000000              -0.075830897              -0.220454798               0.000000000              -0.085136655              -0.243750232               0.000000000              -0.094442414              -0.267045665               0.000000000              -0.103748172              -0.290341099               0.000000000              -0.113053931              -0.313636532               0.000000000              -0.122359690              -0.336931966               0.000000000              -0.131665448              -0.360227399               0.000000000              -0.140971207              -0.383522833               0.000000000              -0.150276966              -0.406818266               0.000000000              -0.159582724              -0.430113700               0.000000000              -0.168888483              -0.453409133               0.000000000              -0.178194241              -0.476704567               0.000000000              -0.187500000              -0.500000000               0.000000000              -0.025947013              -0.130444442               0.000000000              -0.032137825              -0.153541665               0.000000000              -0.038328636              -0.176638887               0.000000000              -0.044519448              -0.199736109               0.000000000              -0.050710260              -0.222833332               0.000000000              -0.056901071              -0.245930554               0.000000000              -0.063091883              -0.269027776               0.000000000              -0.069282695              -0.292124999               0.000000000              -0.075473506              -0.315222221               0.000000000              -0.081664318              -0.338319444               0.000000000              -0.087855130              -0.361416666               0.000000000              -0.094045942              -0.384513888               0.000000000              -0.100236753              -0.407611111               0.000000000              -0.106427565              -0.430708333               0.000000000              -0.112618377              -0.453805555               0.000000000              -0.118809188              -0.476902778               0.000000000              -0.125000000              -0.500000000               0.000000000              -0.013036280              -0.132359569               0.000000000              -0.016127762              -0.155337096               0.000000000              -0.019219245              -0.178314623               0.000000000              -0.022310727              -0.201292150               0.000000000              -0.025402210              -0.224269676               0.000000000              -0.028493692              -0.247247203               0.000000000              -0.031585175              -0.270224730               0.000000000              -0.034676657              -0.293202257               0.000000000              -0.037768140              -0.316179784               0.000000000              -0.040859622              -0.339157311               0.000000000              -0.043951105              -0.362134838               0.000000000              -0.047042587              -0.385112365               0.000000000              -0.050134070              -0.408089892               0.000000000              -0.053225552              -0.431067419               0.000000000              -0.056317035              -0.454044946               0.000000000              -0.059408517              -0.477022473               0.000000000              -0.062500000              -0.500000000               0.000000000               0.000000000              -0.133000000               0.000000000               0.000000000              -0.155937500               0.000000000               0.000000000              -0.178875000               0.000000000               0.000000000              -0.201812500               0.000000000               0.000000000              -0.224750000               0.000000000               0.000000000              -0.247687500               0.000000000               0.000000000              -0.270625000               0.000000000               0.000000000              -0.293562500               0.000000000               0.000000000              -0.316500000               0.000000000               0.000000000              -0.339437500               0.000000000               0.000000000              -0.362375000               0.000000000               0.000000000              -0.385312500               0.000000000               0.000000000              -0.408250000               0.000000000               0.000000000              -0.431187500               0.000000000               0.000000000              -0.454125000               0.000000000               0.000000000              -0.477062500               0.000000000               0.000000000              -0.500000000               0.000000000              -0.133000000               0.000000000               0.000000000              -0.155937500               0.000000000               0.000000000              -0.178875000               0.000000000               0.000000000              -0.201812500               0.000000000               0.000000000              -0.224750000               0.000000000               0.000000000              -0.247687500               0.000000000               0.000000000              -0.270625000               0.000000000               0.000000000              -0.293562500               0.000000000               0.000000000              -0.316500000               0.000000000               0.000000000              -0.339437500               0.000000000               0.000000000              -0.362375000               0.000000000               0.000000000              -0.385312500               0.000000000               0.000000000              -0.408250000               0.000000000               0.000000000              -0.431187500               0.000000000               0.000000000              -0.454125000               0.000000000               0.000000000              -0.477062500               0.000000000               0.000000000              -0.500000000               0.000000000               0.000000000              -0.132359569               0.013036280               0.000000000              -0.155337096               0.016127762               0.000000000              -0.178314623               0.019219245               0.000000000              -0.201292150               0.022310727               0.000000000              -0.224269676               0.025402210               0.000000000              -0.247247203               0.028493692               0.000000000              -0.270224730               0.031585175               0.000000000              -0.293202257               0.034676657               0.000000000              -0.316179784               0.037768140               0.000000000              -0.339157311               0.040859622               0.000000000              -0.362134838               0.043951105               0.000000000              -0.385112365               0.047042587               0.000000000              -0.408089892               0.050134070               0.000000000              -0.431067419               0.053225552               0.000000000              -0.454044946               0.056317035               0.000000000              -0.477022473               0.059408517               0.000000000              -0.500000000               0.062500000               0.000000000              -0.130444442               0.025947013               0.000000000              -0.153541665               0.032137825               0.000000000              -0.176638887               0.038328636               0.000000000              -0.199736109               0.044519448               0.000000000              -0.222833332               0.050710260               0.000000000              -0.245930554               0.056901071               0.000000000              -0.269027776               0.063091883               0.000000000              -0.292124999               0.069282695               0.000000000              -0.315222221               0.075473506               0.000000000              -0.338319444               0.081664318               0.000000000              -0.361416666               0.087855130               0.000000000              -0.384513888               0.094045942               0.000000000              -0.407611111               0.100236753               0.000000000              -0.430708333               0.106427565               0.000000000              -0.453805555               0.112618377               0.000000000              -0.476902778               0.118809188               0.000000000              -0.500000000               0.125000000               0.000000000              -0.127273065               0.038607862               0.000000000              -0.150568498               0.047913621               0.000000000              -0.173863932               0.057219379               0.000000000              -0.197159365               0.066525138               0.000000000              -0.220454798               0.075830897               0.000000000              -0.243750232               0.085136655               0.000000000              -0.267045665               0.094442414               0.000000000              -0.290341099               0.103748172               0.000000000              -0.313636532               0.113053931               0.000000000              -0.336931966               0.122359690               0.000000000              -0.360227399               0.131665448               0.000000000              -0.383522833               0.140971207               0.000000000              -0.406818266               0.150276966               0.000000000              -0.430113700               0.159582724               0.000000000              -0.453409133               0.168888483               0.000000000              -0.476704567               0.178194241               0.000000000              -0.500000000               0.187500000               0.000000000              -0.122875978               0.050896897               0.000000000              -0.146446229               0.063340840               0.000000000              -0.170016481               0.075784784               0.000000000              -0.193586732               0.088228728               0.000000000              -0.217156983               0.100672672               0.000000000              -0.240727235               0.113116616               0.000000000              -0.264297486               0.125560560               0.000000000              -0.287867738               0.138004504               0.000000000              -0.311437989               0.150448448               0.000000000              -0.335008240               0.162892392               0.000000000              -0.358578492               0.175336336               0.000000000              -0.382148743               0.187780280               0.000000000              -0.405718994               0.200224224               0.000000000              -0.429289246               0.212668168               0.000000000              -0.452859497               0.225112112               0.000000000              -0.476429749               0.237556056               0.000000000              -0.500000000               0.250000000               0.000000000              -0.117295528               0.062695766               0.000000000              -0.141214558               0.078308531               0.000000000              -0.165133587               0.093921295               0.000000000              -0.189052617               0.109534060               0.000000000              -0.212971646               0.125146824               0.000000000              -0.236890676               0.140759589               0.000000000              -0.260809705               0.156372354               0.000000000              -0.284728735               0.171985118               0.000000000              -0.308647764               0.187597883               0.000000000              -0.332566794               0.203210648               0.000000000              -0.356485823               0.218823412               0.000000000              -0.380404853               0.234436177               0.000000000              -0.404323882               0.250048941               0.000000000              -0.428242912               0.265661706               0.000000000              -0.452161941               0.281274471               0.000000000              -0.476080971               0.296887235               0.000000000              -0.500000000               0.312500000               0.000000000              -0.110585458               0.073890841               0.000000000              -0.134923867               0.092710163               0.000000000              -0.159262276               0.111529486               0.000000000              -0.183600685               0.130348808               0.000000000              -0.207939094               0.149168131               0.000000000              -0.232277503               0.167987453               0.000000000              -0.256615912               0.186806776               0.000000000              -0.280954320               0.205626098               0.000000000              -0.305292729               0.224445420               0.000000000              -0.329631138               0.243264743               0.000000000              -0.353969547               0.262084065               0.000000000              -0.378307956               0.280903388               0.000000000              -0.402646365               0.299722710               0.000000000              -0.426984773               0.318542033               0.000000000              -0.451323182               0.337361355               0.000000000              -0.475661591               0.356180678               0.000000000              -0.500000000               0.375000000               0.000000000              -0.102810390               0.084374307               0.000000000              -0.127634741               0.106444663               0.000000000              -0.152459092               0.128515018               0.000000000              -0.177283442               0.150585374               0.000000000              -0.202107793               0.172655730               0.000000000              -0.226932143               0.194726086               0.000000000              -0.251756494               0.216796442               0.000000000              -0.276580845               0.238866798               0.000000000              -0.301405195               0.260937153               0.000000000              -0.326229546               0.283007509               0.000000000              -0.351053896               0.305077865               0.000000000              -0.375878247               0.327148221               0.000000000              -0.400702598               0.349218577               0.000000000              -0.425526948               0.371288933               0.000000000              -0.450351299               0.393359288               0.000000000              -0.475175649               0.415429644               0.000000000              -0.500000000               0.437500000               0.000000000              -0.094045202               0.094045202               0.000000000              -0.119417377               0.119417377               0.000000000              -0.144789552               0.144789552               0.000000000              -0.170161727               0.170161727               0.000000000              -0.195533901               0.195533901               0.000000000              -0.220906076               0.220906076               0.000000000              -0.246278251               0.246278251               0.000000000              -0.271650426               0.271650426               0.000000000              -0.297022601               0.297022601               0.000000000              -0.322394776               0.322394776               0.000000000              -0.347766951               0.347766951               0.000000000              -0.373139126               0.373139126               0.000000000              -0.398511300               0.398511300               0.000000000              -0.423883475               0.423883475               0.000000000              -0.449255650               0.449255650               0.000000000              -0.474627825               0.474627825               0.000000000              -0.500000000               0.500000000               0.000000000              -0.084374307               0.102810390               0.000000000              -0.106444663               0.127634741               0.000000000              -0.128515018               0.152459092               0.000000000              -0.150585374               0.177283442               0.000000000              -0.172655730               0.202107793               0.000000000              -0.194726086               0.226932143               0.000000000              -0.216796442               0.251756494               0.000000000              -0.238866798               0.276580845               0.000000000              -0.260937153               0.301405195               0.000000000              -0.283007509               0.326229546               0.000000000              -0.305077865               0.351053896               0.000000000              -0.327148221               0.375878247               0.000000000              -0.349218577               0.400702598               0.000000000              -0.371288933               0.425526948               0.000000000              -0.393359288               0.450351299               0.000000000              -0.415429644               0.475175649               0.000000000              -0.437500000               0.500000000               0.000000000              -0.073890841               0.110585458               0.000000000              -0.092710163               0.134923867               0.000000000              -0.111529486               0.159262276               0.000000000              -0.130348808               0.183600685               0.000000000              -0.149168131               0.207939094               0.000000000              -0.167987453               0.232277503               0.000000000              -0.186806776               0.256615912               0.000000000              -0.205626098               0.280954320               0.000000000              -0.224445420               0.305292729               0.000000000              -0.243264743               0.329631138               0.000000000              -0.262084065               0.353969547               0.000000000              -0.280903388               0.378307956               0.000000000              -0.299722710               0.402646365               0.000000000              -0.318542033               0.426984773               0.000000000              -0.337361355               0.451323182               0.000000000              -0.356180678               0.475661591               0.000000000              -0.375000000               0.500000000               0.000000000              -0.062695766               0.117295528               0.000000000              -0.078308531               0.141214558               0.000000000              -0.093921295               0.165133587               0.000000000              -0.109534060               0.189052617               0.000000000              -0.125146824               0.212971646               0.000000000              -0.140759589               0.236890676               0.000000000              -0.156372354               0.260809705               0.000000000              -0.171985118               0.284728735               0.000000000              -0.187597883               0.308647764               0.000000000              -0.203210648               0.332566794               0.000000000              -0.218823412               0.356485823               0.000000000              -0.234436177               0.380404853               0.000000000              -0.250048941               0.404323882               0.000000000              -0.265661706               0.428242912               0.000000000              -0.281274471               0.452161941               0.000000000              -0.296887235               0.476080971               0.000000000              -0.312500000               0.500000000               0.000000000              -0.050896897               0.122875978               0.000000000              -0.063340840               0.146446229               0.000000000              -0.075784784               0.170016481               0.000000000              -0.088228728               0.193586732               0.000000000              -0.100672672               0.217156983               0.000000000              -0.113116616               0.240727235               0.000000000              -0.125560560               0.264297486               0.000000000              -0.138004504               0.287867738               0.000000000              -0.150448448               0.311437989               0.000000000              -0.162892392               0.335008240               0.000000000              -0.175336336               0.358578492               0.000000000              -0.187780280               0.382148743               0.000000000              -0.200224224               0.405718994               0.000000000              -0.212668168               0.429289246               0.000000000              -0.225112112               0.452859497               0.000000000              -0.237556056               0.476429749               0.000000000              -0.250000000               0.500000000               0.000000000              -0.038607862               0.127273065               0.000000000              -0.047913621               0.150568498               0.000000000              -0.057219379               0.173863932               0.000000000              -0.066525138               0.197159365               0.000000000              -0.075830897               0.220454798               0.000000000              -0.085136655               0.243750232               0.000000000              -0.094442414               0.267045665               0.000000000              -0.103748172               0.290341099               0.000000000              -0.113053931               0.313636532               0.000000000              -0.122359690               0.336931966               0.000000000              -0.131665448               0.360227399               0.000000000              -0.140971207               0.383522833               0.000000000              -0.150276966               0.406818266               0.000000000              -0.159582724               0.430113700               0.000000000              -0.168888483               0.453409133               0.000000000              -0.178194241               0.476704567               0.000000000              -0.187500000               0.500000000               0.000000000              -0.025947013               0.130444442               0.000000000              -0.032137825               0.153541665               0.000000000              -0.038328636               0.176638887               0.000000000              -0.044519448               0.199736109               0.000000000              -0.050710260               0.222833332               0.000000000              -0.056901071               0.245930554               0.000000000              -0.063091883               0.269027776               0.000000000              -0.069282695               0.292124999               0.000000000              -0.075473506               0.315222221               0.000000000              -0.081664318               0.338319444               0.000000000              -0.087855130               0.361416666               0.000000000              -0.094045942               0.384513888               0.000000000              -0.100236753               0.407611111               0.000000000              -0.106427565               0.430708333               0.000000000              -0.112618377               0.453805555               0.000000000              -0.118809188               0.476902778               0.000000000              -0.125000000               0.500000000               0.000000000              -0.013036280               0.132359569               0.000000000              -0.016127762               0.155337096               0.000000000              -0.019219245               0.178314623               0.000000000              -0.022310727               0.201292150               0.000000000              -0.025402210               0.224269676               0.000000000              -0.028493692               0.247247203               0.000000000              -0.031585175               0.270224730               0.000000000              -0.034676657               0.293202257               0.000000000              -0.037768140               0.316179784               0.000000000              -0.040859622               0.339157311               0.000000000              -0.043951105               0.362134838               0.000000000              -0.047042587               0.385112365               0.000000000              -0.050134070               0.408089892               0.000000000              -0.053225552               0.431067419               0.000000000              -0.056317035               0.454044946               0.000000000              -0.059408517               0.477022473               0.000000000              -0.062500000               0.500000000               0.000000000               0.000000000               0.133000000               0.000000000               0.000000000               0.155937500               0.000000000               0.000000000               0.178875000               0.000000000               0.000000000               0.201812500               0.000000000               0.000000000               0.224750000               0.000000000               0.000000000               0.247687500               0.000000000               0.000000000               0.270625000               0.000000000               0.000000000               0.293562500               0.000000000               0.000000000               0.316500000               0.000000000               0.000000000               0.339437500               0.000000000               0.000000000               0.362375000               0.000000000               0.000000000               0.385312500               0.000000000               0.000000000               0.408250000               0.000000000               0.000000000               0.431187500               0.000000000               0.000000000               0.454125000               0.000000000               0.000000000               0.477062500               0.000000000               0.000000000               0.500000000               0.000000000 </DataArray>
</Points>
<Cells>
<DataArray type="Int32"                                    Name="connectivity"                                                      NumberOfComponents=" 1" format="ascii">
         0          1         18         17          1          2         19         18          2          3         20         19          3          4         21         20          4          5         22         21          5          6         23         22          6          7         24         23          7          8         25         24          8          9         26         25          9         10         27         26         10         11         28         27         11         12         29         28         12         13         30         29         13         14         31         30         14         15         32         31         15         16         33         32         17         18         35         34         18         19         36         35         19         20         37         36         20         21         38         37         21         22         39         38         22         23         40         39         23         24         41         40         24         25         42         41         25         26         43         42         26         27         44         43         27         28         45         44         28         29         46         45         29         30         47         46         30         31         48         47         31         32         49         48         32         33         50         49         34         35         52         51         35         36         53         52         36         37         54         53         37         38         55         54         38         39         56         55         39         40         57         56         40         41         58         57         41         42         59         58         42         43         60         59         43         44         61         60         44         45         62         61         45         46         63         62         46         47         64         63         47         48         65         64         48         49         66         65         49         50         67         66         51         52         69         68         52         53         70         69         53         54         71         70         54         55         72         71         55         56         73         72         56         57         74         73         57         58         75         74         58         59         76         75         59         60         77         76         60         61         78         77         61         62         79         78         62         63         80         79         63         64         81         80         64         65         82         81         65         66         83         82         66         67         84         83         68         69         86         85         69         70         87         86         70         71         88         87         71         72         89         88         72         73         90         89         73         74         91         90         74         75         92         91         75         76         93         92         76         77         94         93         77         78         95         94         78         79         96         95         79         80         97         96         80         81         98         97         81         82         99         98         82         83        100         99         83         84        101        100         85         86        103        102         86         87        104        103         87         88        105        104         88         89        106        105         89         90        107        106         90         91        108        107         91         92        109        108         92         93        110        109         93         94        111        110         94         95        112        111         95         96        113        112         96         97        114        113         97         98        115        114         98         99        116        115         99        100        117        116        100        101        118        117        102        103        120        119        103        104        121        120        104        105        122        121        105        106        123        122        106        107        124        123        107        108        125        124        108        109        126        125        109        110        127        126        110        111        128        127        111        112        129        128        112        113        130        129        113        114        131        130        114        115        132        131        115        116        133        132        116        117        134        133        117        118        135        134        119        120        137        136        120        121        138        137        121        122        139        138        122        123        140        139        123        124        141        140        124        125        142        141        125        126        143        142        126        127        144        143        127        128        145        144        128        129        146        145        129        130        147        146        130        131        148        147        131        132        149        148        132        133        150        149        133        134        151        150        134        135        152        151        136        137        154        153        137        138        155        154        138        139        156        155        139        140        157        156        140        141        158        157        141        142        159        158        142        143        160        159        143        144        161        160        144        145        162        161        145        146        163        162        146        147        164        163        147        148        165        164        148        149        166        165        149        150        167        166        150        151        168        167        151        152        169        168        153        154        171        170        154        155        172        171        155        156        173        172        156        157        174        173        157        158        175        174        158        159        176        175        159        160        177        176        160        161        178        177        161        162        179        178        162        163        180        179        163        164        181        180        164        165        182        181        165        166        183        182        166        167        184        183        167        168        185        184        168        169        186        185        170        171        188        187        171        172        189        188        172        173        190        189        173        174        191        190        174        175        192        191        175        176        193        192        176        177        194        193        177        178        195        194        178        179        196        195        179        180        197        196        180        181        198        197        181        182        199        198        182        183        200        199        183        184        201        200        184        185        202        201        185        186        203        202        187        188        205        204        188        189        206        205        189        190        207        206        190        191        208        207        191        192        209        208        192        193        210        209        193        194        211        210        194        195        212        211        195        196        213        212        196        197        214        213        197        198        215        214        198        199        216        215        199        200        217        216        200        201        218        217        201        202        219        218        202        203        220        219        204        205        222        221        205        206        223        222        206        207        224        223        207        208        225        224        208        209        226        225        209        210        227        226        210        211        228        227        211        212        229        228        212        213        230        229        213        214        231        230        214        215        232        231        215        216        233        232        216        217        234        233        217        218        235        234        218        219        236        235        219        220        237        236        221        222        239        238        222        223        240        239        223        224        241        240        224        225        242        241        225        226        243        242        226        227        244        243        227        228        245        244        228        229        246        245        229        230        247        246        230        231        248        247        231        232        249        248        232        233        250        249        233        234        251        250        234        235        252        251        235        236        253        252        236        237        254        253        238        239        256        255        239        240        257        256        240        241        258        257        241        242        259        258        242        243        260        259        243        244        261        260        244        245        262        261        245        246        263        262        246        247        264        263        247        248        265        264        248        249        266        265        249        250        267        266        250        251        268        267        251        252        269        268        252        253        270        269        253        254        271        270        255        256        273        272        256        257        274        273        257        258        275        274        258        259        276        275        259        260        277        276        260        261        278        277        261        262        279        278        262        263        280        279        263        264        281        280        264        265        282        281        265        266        283        282        266        267        284        283        267        268        285        284        268        269        286        285        269        270        287        286        270        271        288        287        306        307          1          0        307        308          2          1        308        309          3          2        309        310          4          3        310        311          5          4        311        312          6          5        312        313          7          6        313        314          8          7        314        315          9          8        315        316         10          9        316        317         11         10        317        318         12         11        318        319         13         12        319        320         14         13        320        321         15         14        321        322         16         15        323        324        307        306        324        325        308        307        325        326        309        308        326        327        310        309        327        328        311        310        328        329        312        311        329        330        313        312        330        331        314        313        331        332        315        314        332        333        316        315        333        334        317        316        334        335        318        317        335        336        319        318        336        337        320        319        337        338        321        320        338        339        322        321        340        341        324        323        341        342        325        324        342        343        326        325        343        344        327        326        344        345        328        327        345        346        329        328        346        347        330        329        347        348        331        330        348        349        332        331        349        350        333        332        350        351        334        333        351        352        335        334        352        353        336        335        353        354        337        336        354        355        338        337        355        356        339        338        357        358        341        340        358        359        342        341        359        360        343        342        360        361        344        343        361        362        345        344        362        363        346        345        363        364        347        346        364        365        348        347        365        366        349        348        366        367        350        349        367        368        351        350        368        369        352        351        369        370        353        352        370        371        354        353        371        372        355        354        372        373        356        355        374        375        358        357        375        376        359        358        376        377        360        359        377        378        361        360        378        379        362        361        379        380        363        362        380        381        364        363        381        382        365        364        382        383        366        365        383        384        367        366        384        385        368        367        385        386        369        368        386        387        370        369        387        388        371        370        388        389        372        371        389        390        373        372        391        392        375        374        392        393        376        375        393        394        377        376        394        395        378        377        395        396        379        378        396        397        380        379        397        398        381        380        398        399        382        381        399        400        383        382        400        401        384        383        401        402        385        384        402        403        386        385        403        404        387        386        404        405        388        387        405        406        389        388        406        407        390        389        408        409        392        391        409        410        393        392        410        411        394        393        411        412        395        394        412        413        396        395        413        414        397        396        414        415        398        397        415        416        399        398        416        417        400        399        417        418        401        400        418        419        402        401        419        420        403        402        420        421        404        403        421        422        405        404        422        423        406        405        423        424        407        406        425        426        409        408        426        427        410        409        427        428        411        410        428        429        412        411        429        430        413        412        430        431        414        413        431        432        415        414        432        433        416        415        433        434        417        416        434        435        418        417        435        436        419        418        436        437        420        419        437        438        421        420        438        439        422        421        439        440        423        422        440        441        424        423        442        443        426        425        443        444        427        426        444        445        428        427        445        446        429        428        446        447        430        429        447        448        431        430        448        449        432        431        449        450        433        432        450        451        434        433        451        452        435        434        452        453        436        435        453        454        437        436        454        455        438        437        455        456        439        438        456        457        440        439        457        458        441        440        459        460        443        442        460        461        444        443        461        462        445        444        462        463        446        445        463        464        447        446        464        465        448        447        465        466        449        448        466        467        450        449        467        468        451        450        468        469        452        451        469        470        453        452        470        471        454        453        471        472        455        454        472        473        456        455        473        474        457        456        474        475        458        457        476        477        460        459        477        478        461        460        478        479        462        461        479        480        463        462        480        481        464        463        481        482        465        464        482        483        466        465        483        484        467        466        484        485        468        467        485        486        469        468        486        487        470        469        487        488        471        470        488        489        472        471        489        490        473        472        490        491        474        473        491        492        475        474        493        494        477        476        494        495        478        477        495        496        479        478        496        497        480        479        497        498        481        480        498        499        482        481        499        500        483        482        500        501        484        483        501        502        485        484        502        503        486        485        503        504        487        486        504        505        488        487        505        506        489        488        506        507        490        489        507        508        491        490        508        509        492        491        510        511        494        493        511        512        495        494        512        513        496        495        513        514        497        496        514        515        498        497        515        516        499        498        516        517        500        499        517        518        501        500        518        519        502        501        519        520        503        502        520        521        504        503        521        522        505        504        522        523        506        505        523        524        507        506        524        525        508        507        525        526        509        508        527        528        511        510        528        529        512        511        529        530        513        512        530        531        514        513        531        532        515        514        532        533        516        515        533        534        517        516        534        535        518        517        535        536        519        518        536        537        520        519        537        538        521        520        538        539        522        521        539        540        523        522        540        541        524        523        541        542        525        524        542        543        526        525        544        545        528        527        545        546        529        528        546        547        530        529        547        548        531        530        548        549        532        531        549        550        533        532        550        551        534        533        551        552        535        534        552        553        536        535        553        554        537        536        554        555        538        537        555        556        539        538        556        557        540        539        557        558        541        540        558        559        542        541        559        560        543        542        561        562        545        544        562        563        546        545        563        564        547        546        564        565        548        547        565        566        549        548        566        567        550        549        567        568        551        550        568        569        552        551        569        570        553        552        570        571        554        553        571        572        555        554        572        573        556        555        573        574        557        556        574        575        558        557        575        576        559        558        576        577        560        559        578        579        596        595        579        580        597        596        580        581        598        597        581        582        599        598        582        583        600        599        583        584        601        600        584        585        602        601        585        586        603        602        586        587        604        603        587        588        605        604        588        589        606        605        589        590        607        606        590        591        608        607        591        592        609        608        592        593        610        609        593        594        611        610        595        596        613        612        596        597        614        613        597        598        615        614        598        599        616        615        599        600        617        616        600        601        618        617        601        602        619        618        602        603        620        619        603        604        621        620        604        605        622        621        605        606        623        622        606        607        624        623        607        608        625        624        608        609        626        625        609        610        627        626        610        611        628        627        612        613        630        629        613        614        631        630        614        615        632        631        615        616        633        632        616        617        634        633        617        618        635        634        618        619        636        635        619        620        637        636        620        621        638        637        621        622        639        638        622        623        640        639        623        624        641        640        624        625        642        641        625        626        643        642        626        627        644        643        627        628        645        644        629        630        647        646        630        631        648        647        631        632        649        648        632        633        650        649        633        634        651        650        634        635        652        651        635        636        653        652        636        637        654        653        637        638        655        654        638        639        656        655        639        640        657        656        640        641        658        657        641        642        659        658        642        643        660        659        643        644        661        660        644        645        662        661        646        647        664        663        647        648        665        664        648        649        666        665        649        650        667        666        650        651        668        667        651        652        669        668        652        653        670        669        653        654        671        670        654        655        672        671        655        656        673        672        656        657        674        673        657        658        675        674        658        659        676        675        659        660        677        676        660        661        678        677        661        662        679        678        663        664        681        680        664        665        682        681        665        666        683        682        666        667        684        683        667        668        685        684        668        669        686        685        669        670        687        686        670        671        688        687        671        672        689        688        672        673        690        689        673        674        691        690        674        675        692        691        675        676        693        692        676        677        694        693        677        678        695        694        678        679        696        695        680        681        698        697        681        682        699        698        682        683        700        699        683        684        701        700        684        685        702        701        685        686        703        702        686        687        704        703        687        688        705        704        688        689        706        705        689        690        707        706        690        691        708        707        691        692        709        708        692        693        710        709        693        694        711        710        694        695        712        711        695        696        713        712        697        698        715        714        698        699        716        715        699        700        717        716        700        701        718        717        701        702        719        718        702        703        720        719        703        704        721        720        704        705        722        721        705        706        723        722        706        707        724        723        707        708        725        724        708        709        726        725        709        710        727        726        710        711        728        727        711        712        729        728        712        713        730        729        714        715        732        731        715        716        733        732        716        717        734        733        717        718        735        734        718        719        736        735        719        720        737        736        720        721        738        737        721        722        739        738        722        723        740        739        723        724        741        740        724        725        742        741        725        726        743        742        726        727        744        743        727        728        745        744        728        729        746        745        729        730        747        746        731        732        749        748        732        733        750        749        733        734        751        750        734        735        752        751        735        736        753        752        736        737        754        753        737        738        755        754        738        739        756        755        739        740        757        756        740        741        758        757        741        742        759        758        742        743        760        759        743        744        761        760        744        745        762        761        745        746        763        762        746        747        764        763        748        749        766        765        749        750        767        766        750        751        768        767        751        752        769        768        752        753        770        769        753        754        771        770        754        755        772        771        755        756        773        772        756        757        774        773        757        758        775        774        758        759        776        775        759        760        777        776        760        761        778        777        761        762        779        778        762        763        780        779        763        764        781        780        765        766        783        782        766        767        784        783        767        768        785        784        768        769        786        785        769        770        787        786        770        771        788        787        771        772        789        788        772        773        790        789        773        774        791        790        774        775        792        791        775        776        793        792        776        777        794        793        777        778        795        794        778        779        796        795        779        780        797        796        780        781        798        797        782        783        800        799        783        784        801        800        784        785        802        801        785        786        803        802        786        787        804        803        787        788        805        804        788        789        806        805        789        790        807        806        790        791        808        807        791        792        809        808        792        793        810        809        793        794        811        810        794        795        812        811        795        796        813        812        796        797        814        813        797        798        815        814        799        800        817        816        800        801        818        817        801        802        819        818        802        803        820        819        803        804        821        820        804        805        822        821        805        806        823        822        806        807        824        823        807        808        825        824        808        809        826        825        809        810        827        826        810        811        828        827        811        812        829        828        812        813        830        829        813        814        831        830        814        815        832        831        816        817        834        833        817        818        835        834        818        819        836        835        819        820        837        836        820        821        838        837        821        822        839        838        822        823        840        839        823        824        841        840        824        825        842        841        825        826        843        842        826        827        844        843        827        828        845        844        828        829        846        845        829        830        847        846        830        831        848        847        831        832        849        848        833        834        562        561        834        835        563        562        835        836        564        563        836        837        565        564        837        838        566        565        838        839        567        566        839        840        568        567        840        841        569        568        841        842        570        569        842        843        571        570        843        844        572        571        844        845        573        572        845        846        574        573        846        847        575        574        847        848        576        575        848        849        577        576        884        885        579        578        885        886        580        579        886        887        581        580        887        888        582        581        888        889        583        582        889        890        584        583        890        891        585        584        891        892        586        585        892        893        587        586        893        894        588        587        894        895        589        588        895        896        590        589        896        897        591        590        897        898        592        591        898        899        593        592        899        900        594        593        901        902        885        884        902        903        886        885        903        904        887        886        904        905        888        887        905        906        889        888        906        907        890        889        907        908        891        890        908        909        892        891        909        910        893        892        910        911        894        893        911        912        895        894        912        913        896        895        913        914        897        896        914        915        898        897        915        916        899        898        916        917        900        899        918        919        902        901        919        920        903        902        920        921        904        903        921        922        905        904        922        923        906        905        923        924        907        906        924        925        908        907        925        926        909        908        926        927        910        909        927        928        911        910        928        929        912        911        929        930        913        912        930        931        914        913        931        932        915        914        932        933        916        915        933        934        917        916        935        936        919        918        936        937        920        919        937        938        921        920        938        939        922        921        939        940        923        922        940        941        924        923        941        942        925        924        942        943        926        925        943        944        927        926        944        945        928        927        945        946        929        928        946        947        930        929        947        948        931        930        948        949        932        931        949        950        933        932        950        951        934        933        952        953        936        935        953        954        937        936        954        955        938        937        955        956        939        938        956        957        940        939        957        958        941        940        958        959        942        941        959        960        943        942        960        961        944        943        961        962        945        944        962        963        946        945        963        964        947        946        964        965        948        947        965        966        949        948        966        967        950        949        967        968        951        950        969        970        953        952        970        971        954        953        971        972        955        954        972        973        956        955        973        974        957        956        974        975        958        957        975        976        959        958        976        977        960        959        977        978        961        960        978        979        962        961        979        980        963        962        980        981        964        963        981        982        965        964        982        983        966        965        983        984        967        966        984        985        968        967        986        987        970        969        987        988        971        970        988        989        972        971        989        990        973        972        990        991        974        973        991        992        975        974        992        993        976        975        993        994        977        976        994        995        978        977        995        996        979        978        996        997        980        979        997        998        981        980        998        999        982        981        999       1000        983        982       1000       1001        984        983       1001       1002        985        984       1003       1004        987        986       1004       1005        988        987       1005       1006        989        988       1006       1007        990        989       1007       1008        991        990       1008       1009        992        991       1009       1010        993        992       1010       1011        994        993       1011       1012        995        994       1012       1013        996        995       1013       1014        997        996       1014       1015        998        997       1015       1016        999        998       1016       1017       1000        999       1017       1018       1001       1000       1018       1019       1002       1001       1020       1021       1004       1003       1021       1022       1005       1004       1022       1023       1006       1005       1023       1024       1007       1006       1024       1025       1008       1007       1025       1026       1009       1008       1026       1027       1010       1009       1027       1028       1011       1010       1028       1029       1012       1011       1029       1030       1013       1012       1030       1031       1014       1013       1031       1032       1015       1014       1032       1033       1016       1015       1033       1034       1017       1016       1034       1035       1018       1017       1035       1036       1019       1018       1037       1038       1021       1020       1038       1039       1022       1021       1039       1040       1023       1022       1040       1041       1024       1023       1041       1042       1025       1024       1042       1043       1026       1025       1043       1044       1027       1026       1044       1045       1028       1027       1045       1046       1029       1028       1046       1047       1030       1029       1047       1048       1031       1030       1048       1049       1032       1031       1049       1050       1033       1032       1050       1051       1034       1033       1051       1052       1035       1034       1052       1053       1036       1035       1054       1055       1038       1037       1055       1056       1039       1038       1056       1057       1040       1039       1057       1058       1041       1040       1058       1059       1042       1041       1059       1060       1043       1042       1060       1061       1044       1043       1061       1062       1045       1044       1062       1063       1046       1045       1063       1064       1047       1046       1064       1065       1048       1047       1065       1066       1049       1048       1066       1067       1050       1049       1067       1068       1051       1050       1068       1069       1052       1051       1069       1070       1053       1052       1071       1072       1055       1054       1072       1073       1056       1055       1073       1074       1057       1056       1074       1075       1058       1057       1075       1076       1059       1058       1076       1077       1060       1059       1077       1078       1061       1060       1078       1079       1062       1061       1079       1080       1063       1062       1080       1081       1064       1063       1081       1082       1065       1064       1082       1083       1066       1065       1083       1084       1067       1066       1084       1085       1068       1067       1085       1086       1069       1068       1086       1087       1070       1069       1088       1089       1072       1071       1089       1090       1073       1072       1090       1091       1074       1073       1091       1092       1075       1074       1092       1093       1076       1075       1093       1094       1077       1076       1094       1095       1078       1077       1095       1096       1079       1078       1096       1097       1080       1079       1097       1098       1081       1080       1098       1099       1082       1081       1099       1100       1083       1082       1100       1101       1084       1083       1101       1102       1085       1084       1102       1103       1086       1085       1103       1104       1087       1086       1105       1106       1089       1088       1106       1107       1090       1089       1107       1108       1091       1090       1108       1109       1092       1091       1109       1110       1093       1092       1110       1111       1094       1093       1111       1112       1095       1094       1112       1113       1096       1095       1113       1114       1097       1096       1114       1115       1098       1097       1115       1116       1099       1098       1116       1117       1100       1099       1117       1118       1101       1100       1118       1119       1102       1101       1119       1120       1103       1102       1120       1121       1104       1103       1122       1123       1106       1105       1123       1124       1107       1106       1124       1125       1108       1107       1125       1126       1109       1108       1126       1127       1110       1109       1127       1128       1111       1110       1128       1129       1112       1111       1129       1130       1113       1112       1130       1131       1114       1113       1131       1132       1115       1114       1132       1133       1116       1115       1133       1134       1117       1116       1134       1135       1118       1117       1135       1136       1119       1118       1136       1137       1120       1119       1137       1138       1121       1120        272        273       1123       1122        273        274       1124       1123        274        275       1125       1124        275        276       1126       1125        276        277       1127       1126        277        278       1128       1127        278        279       1129       1128        279        280       1130       1129        280        281       1131       1130        281        282       1132       1131        282        283       1133       1132        283        284       1134       1133        284        285       1135       1134        285        286       1136       1135        286        287       1137       1136        287        288       1138       1137 </DataArray>
<DataArray type="Int32"                                    Name="offsets"                                                      NumberOfComponents=" 1" format="ascii">
         4          8         12         16         20         24         28         32         36         40         44         48         52         56         60         64         68         72         76         80         84         88         92         96        100        104        108        112        116        120        124        128        132        136        140        144        148        152        156        160        164        168        172        176        180        184        188        192        196        200        204        208        212        216        220        224        228        232        236        240        244        248        252        256        260        264        268        272        276        280        284        288        292        296        300        304        308        312        316        320        324        328        332        336        340        344        348        352        356        360        364        368        372        376        380        384        388        392        396        400        404        408        412        416        420        424        428        432        436        440        444        448        452        456        460        464        468        472        476        480        484        488        492        496        500        504        508        512        516        520        524        528        532        536        540        544        548        552        556        560        564        568        572        576        580        584        588        592        596        600        604        608        612        616        620        624        628        632        636        640        644        648        652        656        660        664        668        672        676        680        684        688        692        696        700        704        708        712        716        720        724        728        732        736        740        744        748        752        756        760        764        768        772        776        780        784        788        792        796        800        804        808        812        816        820        824        828        832        836        840        844        848        852        856        860        864        868        872        876        880        884        888        892        896        900        904        908        912        916        920        924        928        932        936        940        944        948        952        956        960        964        968        972        976        980        984        988        992        996       1000       1004       1008       1012       1016       1020       1024       1028       1032       1036       1040       1044       1048       1052       1056       1060       1064       1068       1072       1076       1080       1084       1088       1092       1096       1100       1104       1108       1112       1116       1120       1124       1128       1132       1136       1140       1144       1148       1152       1156       1160       1164       1168       1172       1176       1180       1184       1188       1192       1196       1200       1204       1208       1212       1216       1220       1224       1228       1232       1236       1240       1244       1248       1252       1256       1260       1264       1268       1272       1276       1280       1284       1288       1292       1296       1300       1304       1308       1312       1316       1320       1324       1328       1332       1336       1340       1344       1348       1352       1356       1360       1364       1368       1372       1376       1380       1384       1388       1392       1396       1400       1404       1408       1412       1416       1420       1424       1428       1432       1436       1440       1444       1448       1452       1456       1460       1464       1468       1472       1476       1480       1484       1488       1492       1496       1500       1504       1508       1512       1516       1520       1524       1528       1532       1536       1540       1544       1548       1552       1556       1560       1564       1568       1572       1576       1580       1584       1588       1592       1596       1600       1604       1608       1612       1616       1620       1624       1628       1632       1636       1640       1644       1648       1652       1656       1660       1664       1668       1672       1676       1680       1684       1688       1692       1696       1700       1704       1708       1712       1716       1720       1724       1728       1732       1736       1740       1744       1748       1752       1756       1760       1764       1768       1772       1776       1780       1784       1788       1792       1796       1800       1804       1808       1812       1816       1820       1824       1828       1832       1836       1840       1844       1848       1852       1856       1860       1864       1868       1872       1876       1880       1884       1888       1892       1896       1900       1904       1908       1912       1916       1920       1924       1928       1932       1936       1940       1944       1948       1952       1956       1960       1964       1968       1972       1976       1980       1984       1988       1992       1996       2000       2004       2008       2012       2016       2020       2024       2028       2032       2036       2040       2044       2048       2052       2056       2060       2064       2068       2072       2076       2080       2084       2088       2092       2096       2100       2104       2108       2112       2116       2120       2124       2128       2132       2136       2140       2144       2148       2152       2156       2160       2164       2168       2172       2176       2180       2184       2188       2192       2196       2200       2204       2208       2212       2216       2220       2224       2228       2232       2236       2240       2244       2248       2252       2256       2260       2264       2268       2272       2276       2280       2284       2288       2292       2296       2300       2304       2308       2312       2316       2320       2324       2328       2332       2336       2340       2344       2348       2352       2356       2360       2364       2368       2372       2376       2380       2384       2388       2392       2396       2400       2404       2408       2412       2416       2420       2424       2428       2432       2436       2440       2444       2448       2452       2456       2460       2464       2468       2472       2476       2480       2484       2488       2492       2496       2500       2504       2508       2512       2516       2520       2524       2528       2532       2536       2540       2544       2548       2552       2556       2560       2564       2568       2572       2576       2580       2584       2588       2592       2596       2600       2604       2608       2612       2616       2620       2624       2628       2632       2636       2640       2644       2648       2652       2656       2660       2664       2668       2672       2676       2680       2684       2688       2692       2696       2700       2704       2708       2712       2716       2720       2724       2728       2732       2736       2740       2744       2748       2752       2756       2760       2764       2768       2772       2776       2780       2784       2788       2792       2796       2800       2804       2808       2812       2816       2820       2824       2828       2832       2836       2840       2844       2848       2852       2856       2860       2864       2868       2872       2876       2880       2884       2888       2892       2896       2900       2904       2908       2912       2916       2920       2924       2928       2932       2936       2940       2944       2948       2952       2956       2960       2964       2968       2972       2976       2980       2984       2988       2992       2996       3000       3004       3008       3012       3016       3020       3024       3028       3032       3036       3040       3044       3048       3052       3056       3060       3064       3068       3072       3076       3080       3084       3088       3092       3096       3100       3104       3108       3112       3116       3120       3124       3128       3132       3136       3140       3144       3148       3152       3156       3160       3164       3168       3172       3176       3180       3184       3188       3192       3196       3200       3204       3208       3212       3216       3220       3224       3228       3232       3236       3240       3244       3248       3252       3256       3260       3264       3268       3272       3276       3280       3284       3288       3292       3296       3300       3304       3308       3312       3316       3320       3324       3328       3332       3336       3340       3344       3348       3352       3356       3360       3364       3368       3372       3376       3380       3384       3388       3392       3396       3400       3404       3408       3412       3416       3420       3424       3428       3432       3436       3440       3444       3448       3452       3456       3460       3464       3468       3472       3476       3480       3484       3488       3492       3496       3500       3504       3508       3512       3516       3520       3524       3528       3532       3536       3540       3544       3548       3552       3556       3560       3564       3568       3572       3576       3580       3584       3588       3592       3596       3600       3604       3608       3612       3616       3620       3624       3628       3632       3636       3640       3644       3648       3652       3656       3660       3664       3668       3672       3676       3680       3684       3688       3692       3696       3700       3704       3708       3712       3716       3720       3724       3728       3732       3736       3740       3744       3748       3752       3756       3760       3764       3768       3772       3776       3780       3784       3788       3792       3796       3800       3804       3808       3812       3816       3820       3824       3828       3832       3836       3840       3844       3848       3852       3856       3860       3864       3868       3872       3876       3880       3884       3888       3892       3896       3900       3904       3908       3912       3916       3920       3924       3928       3932       3936       3940       3944       3948       3952       3956       3960       3964       3968       3972       3976       3980       3984       3988       3992       3996       4000       4004       4008       4012       4016       4020       4024       4028       4032       4036       4040       4044       4048       4052       4056       4060       4064       4068       4072       4076       4080       4084       4088       4092       4096 </DataArray>
<DataArray type="UInt8"                                    Name="types"                                                      NumberOfComponents=" 1" format="ascii">
         9          9          9          9          9          9          9          9          9          9          9          9          9          9          9          9          9          9          9          9          9          9          9          9          9          9          9          9          9          9          9          9          9          9          9          9          9          9          9          9          9          9          9          9          9          9          9          9          9          9          9          9          9          9          9          9          9          9          9          9          9          9          9          9          9          9          9          9          9          9          9          9          9          9          9          9          9          9          9          9          9          9          9          9          9          9          9          9          9          9          9          9          9          9          9          9          9          9          9          9          9          9          9          9          9          9          9          9          9          9          9          9          9          9          9          9          9          9          9          9          9          9          9          9          9          9          9          9          9          9          9          9          9          9          9          9          9          9          9          9          9          9          9          9          9          9          9          9          9          9          9          9          9          9          9          9          9          9          9          9          9          9          9          9          9          9          9          9          9          9          9          9          9          9          9          9          9          9          9          9          9          9          9          9          9          9          9          9          9          9          9          9          9          9          9          9          9          9          9          9          9          9          9          9          9          9          9          9          9          9          9          9          9          9          9          9          9          9          9          9          9          9          9          9          9          9          9          9          9          9          9          9          9          9          9          9          9          9          9          9          9          9          9          9          9          9          9          9          9          9          9          9          9          9          9          9          9          9          9          9          9          9          9          9          9          9          9          9          9          9          9          9          9          9          9          9          9          9          9          9          9          9          9          9          9          9          9          9          9          9          9          9          9          9          9          9          9          9          9          9          9          9          9          9          9          9          9          9          9          9          9          9          9          9          9          9          9          9          9          9          9          9          9          9          9          9          9          9          9          9          9          9          9          9          9          9          9          9          9          9          9          9          9          9          9          9          9          9          9          9          9          9          9          9          9          9          9          9          9          9          9          9          9          9          9          9          9          9          9          9          9          9          9          9          9          9          9          9          9          9          9          9          9          9          9          9          9          9          9          9          9          9          9          9          9          9          9          9          9          9          9          9          9          9          9          9          9          9          9          9          9          9          9          9          9          9          9          9          9          9          9          9          9          9          9          9          9          9          9          9          9          9          9          9          9          9          9          9          9          9          9          9          9          9          9          9          9          9          9          9          9          9          9          9          9          9          9          9          9          9          9          9          9          9          9          9          9          9          9          9          9          9          9          9          9          9          9          9          9          9          9          9          9          9          9          9          9          9          9          9          9          9          9          9          9          9          9          9          9          9          9          9          9          9          9          9          9          9          9          9          9          9          9          9          9          9          9          9          9          9          9          9          9          9          9          9          9          9          9          9          9          9          9          9          9          9          9          9          9          9          9          9          9          9          9          9          9          9          9          9          9          9          9          9          9          9          9          9          9          9          9          9          9          9          9          9          9          9          9          9          9          9          9          9          9          9          9          9          9          9          9          9          9          9          9          9          9          9          9          9          9          9          9          9          9          9          9          9          9          9          9          9          9          9          9          9          9          9          9          9          9          9          9          9          9          9          9          9          9          9          9          9          9          9          9          9          9          9          9          9          9          9          9          9          9          9          9          9          9          9          9          9          9          9          9          9          9          9          9          9          9          9          9          9          9          9          9          9          9          9          9          9          9          9          9          9          9          9          9          9          9          9          9          9          9          9          9          9          9          9          9          9          9          9          9          9          9          9          9          9          9          9          9          9          9          9          9          9          9          9          9          9          9          9          9          9          9          9          9          9          9          9          9          9          9          9          9          9          9          9          9          9          9          9          9          9          9          9          9          9          9          9          9          9          9          9          9          9          9          9          9          9          9          9          9          9          9          9          9          9          9          9          9          9          9          9          9          9          9          9          9          9          9          9          9          9          9          9          9          9          9          9          9          9          9          9          9          9          9          9          9          9          9          9          9          9          9          9          9          9          9          9          9          9          9          9          9          9          9          9          9          9          9          9          9          9          9          9          9          9          9          9          9          9          9          9          9          9          9          9          9          9          9          9          9          9          9          9          9          9          9          9          9          9          9          9          9          9          9          9          9          9          9          9          9          9          9          9          9          9          9          9          9          9          9          9          9          9          9          9          9          9          9          9          9          9          9          9          9          9          9          9          9          9          9          9          9          9          9          9          9          9          9          9          9          9          9          9          9          9          9          9          9          9          9          9          9          9          9          9          9          9          9          9          9          9          9          9          9          9          9          9          9          9          9          9          9          9          9          9          9          9          9          9          9          9          9          9          9          9          9          9          9          9          9          9          9          9          9          9          9          9          9          9          9          9          9          9          9          9          9          9          9          9          9          9          9          9          9          9          9          9          9          9          9          9          9          9          9          9          9          9          9          9          9          9          9          9          9          9          9          9          9          9          9          9          9          9          9          9          9          9          9          9          9          9          9          9          9          9          9          9          9          9          9          9          9          9          9          9          9          9          9          9          9          9          9          9          9          9          9          9          9          9 </DataArray>
</Cells>
<CellData>
<DataArray type="Int32"                                    Name="material"                                                      NumberOfComponents=" 1" format="ascii">
         1          1          1          1          1          1          1          1          1          1          1          1          1          1          1          1          1          1          1          1          1          1          1          1          1          1          1          1          1          1          1          1          1          1          1          1          1          1          1          1          1          1          1          1          1          1          1          1          1          1          1          1          1          1          1          1          1          1          1          1          1          1          1          1          1          1          1          1          1          1          1          1          1          1          1          1          1          1          1          1          1          1          1          1          1          1          1          1          1          1          1          1          1          1          1          1          1          1          1          1          1          1          1          1          1          1          1          1          1          1          1          1          1          1          1          1          1          1          1          1          1          1          1          1          1          1          1          1          1          1          1          1          1          1          1          1          1          1          1          1          1          1          1          1          1          1          1          1          1          1          1          1          1          1          1          1          1          1          1          1          1          1          1          1          1          1          1          1          1          1          1          1          1          1          1          1          1          1          1          1          1          1          1          1          1          1          1          1          1          1          1          1          1          1          1          1          1          1          1          1          1          1          1          1          1          1          1          1          1          1          1          1          1          1          1          1          1          1          1          1          1          1          1          1          1          1          1          1          1          1          1          1          1          1          1          1          1          1          1          1          1          1          1          1          1          1          1          1          1          1          1          1          1          1          1          1          1          1          1          1          1          1          1          1          1          1          1          1          1          1          1          1          1          1          1          1          1          1          1          1          1          1          1          1          1          1          1          1          1          1          1          1          1          1          1          1          1          1          1          1          1          1          1          1          1          1          1          1          1          1          1          1          1          1          1          1          1          1          1          1          1          1          1          1          1          1          1          1          1          1          1          1          1          1          1          1          1          1          1          1          1          1          1          1          1          1          1          1          1          1          1          1          1          1          1          1          1          1          1          1          1          1          1          1          1          1          1          1          1          1          1          1          1          1          1          1          1          1          1          1          1          1          1          1          1          1          1          1          1          1          1          1          1          1          1          1          1          1          1          1          1          1          1          1          1          1          1          1          1          1          1          1          1          1          1          1          1          1          1          1          1          1          1          1          1          1          1          1          1          1          1          1          1          1          1          1          1          1          1          1          1          1          1          1          1          1          1          1          1          1          1          1          1          1          1          1          1          1          1          1          1          1          1          1          1          1          1          1          1          1          1          1          1          1          1          1          1          1          1          1          1          1          1          1          1          1          1          1          1          1          1          1          1          1          1          1          1          1          1          1          1          1          1          1          1          1          1          1          1          1          1          1          1          1          1          1          1          1          1          1          1          1          1          1          1          1          1          1          1          1          1          1          1          1          1          1          1          1          1          1          1          1          1          1          1          1          1          1          1          1          1          1          1          1          1          1          1          1          1          1          1          1          1          1          1          1          1          1          1          1          1          1          1          1          1          1          1          1          1          1          1          1          1          1          1          1          1          1          1          1          1          1          1          1          1          1          1          1          1          1          1          1          1          1          1          1          1          1          1          1          1          1          1          1          1          1          1          1          1          1          1          1          1          1          1          1          1          1          1          1          1          1          1          1          1          1          1          1          1          1          1          1          1          1          1          1          1          1          1          1          1          1          1          1          1          1          1          1          1          1          1          1          1          1          1          1          1          1          1          1          1          1          1          1          1          1          1          1          1          1          1          1          1          1          1          1          1          1          1          1          1          1          1          1          1          1          1          1          1          1          1          1          1          1          1          1          1          1          1          1          1          1          1          1          1          1          1          1          1          1          1          1          1          1          1          1          1          1          1          1          1          1          1          1          1          1          1          1          1          1          1          1          1          1          1          1          1          1          1          1          1          1          1          1          1          1          1          1          1          1          1          1          1          1          1          1          1          1          1          1          1          1          1          1          1          1          1          1          1          1          1          1          1          1          1          1          1          1          1          1          1          1          1          1          1          1          1          1          1          1          1          1          1          1          1          1          1          1          1          1          1          1          1          1          1          1          1          1          1          1          1          1          1          1          1          1          1          1          1          1          1          1          1          1          1          1          1          1          1          1          1          1          1          1          1          1          1          1          1          1          1          1          1          1          1          1          1          1          1          1          1          1          1          1          1          1          1          1          1          1          1          1          1          1          1          1          1          1          1          1          1          1          1          1          1          1          1          1          1          1          1          1          1          1          1          1          1          1          1          1          1          1          1          1          1          1          1          1          1          1          1          1          1          1          1          1          1          1          1          1          1          1          1          1          1          1          1          1          1          1          1          1          1          1          1          1          1          1          1          1          1          1          1          1          1          1          1          1          1          1          1          1          1          1          1          1          1          1          1          1          1          1          1          1          1          1          1          1          1          1          1          1          1          1          1          1          1          1          1          1          1          1          1          1          1          1          1          1          1          1          1          1          1          1          1          1          1          1          1          1          1          1          1          1          1          1          1          1          1          1          1          1          1          1          1          1          1          1          1          1          1          1          1          1 </DataArray>
</CellData>
<PointData>
<DataArray type="Float64"                                    Name="u"                                                      NumberOfComponents=" 3" format="ascii">
             -0.000019233               0.000000000               0.999999996              -0.000034572               0.000000000               0.999999996              -0.000042284              -0.000000000               0.999999996              -0.000047032               0.000000000               0.999999996              -0.000050795               0.000000000               0.999999996              -0.000054426              -0.000000000               0.999999996              -0.000058280              -0.000000000               0.999999996              -0.000062573              -0.000000000               0.999999996              -0.000067466              -0.000000000               0.999999996              -0.000072988              -0.000000000               0.999999996              -0.000079029              -0.000000000               0.999999996              -0.000085682               0.000000000               0.999999996              -0.000092976               0.000000000               0.999999996              -0.000100883               0.000000000               0.999999996              -0.000109367               0.000000000               0.999999996              -0.000118410               0.000000000               0.999999996              -0.000127995               0.000000000               0.999999996              -0.000019129               0.000037706               0.999999996              -0.000033841               0.000033538               0.999999996              -0.000041177               0.000032554               0.999999996              -0.000045735               0.000033333               0.999999996              -0.000049399               0.000035110               0.999999996              -0.000053055               0.000037551               0.999999996              -0.000057030               0.000040488               0.999999996              -0.000061487               0.000043825               0.999999996              -0.000066506               0.000047447               0.999999996              -0.000072084               0.000051175               0.999999996              -0.000078219               0.000055104               0.999999996              -0.000084964               0.000059221               0.999999996              -0.000092354               0.000063466               0.999999996              -0.000100355               0.000067785               0.999999996              -0.000108949               0.000072087               0.999999996              -0.000118098               0.000076321               0.999999996              -0.000127735               0.000080307               0.999999996              -0.000018782               0.000074983               0.999999996              -0.000031671               0.000066656               0.999999996              -0.000037993               0.000064839               0.999999996              -0.000042110               0.000066488               0.999999996              -0.000045692               0.000070205               0.999999996              -0.000049483               0.000075255               0.999999996              -0.000053714               0.000081203               0.999999996              -0.000058465               0.000087896               0.999999996              -0.000063830               0.000095096               0.999999996              -0.000069764               0.000102579               0.999999996              -0.000076262               0.000110447               0.999999996              -0.000083375               0.000118720               0.999999996              -0.000091113               0.000127265               0.999999996              -0.000099436               0.000135959               0.999999996              -0.000108311               0.000144622               0.999999996              -0.000117685               0.000153237               0.999999996              -0.000127551               0.000161632               0.999999996              -0.000018213               0.000111360               0.999999996              -0.000028159               0.000098977               0.999999996              -0.000033049               0.000096624               0.999999996              -0.000036699               0.000099477               0.999999996              -0.000040291               0.000105324               0.999999996              -0.000044351               0.000113086               0.999999996              -0.000049057               0.000122156               0.999999996              -0.000054370               0.000132180               0.999999996              -0.000060310               0.000143008               0.999999996              -0.000066933               0.000154238               0.999999996              -0.000074186               0.000165998               0.999999996              -0.000082042               0.000178394               0.999999996              -0.000090482               0.000191219               0.999999996              -0.000099424               0.000204250               0.999999996              -0.000108856               0.000217359               0.999999996              -0.000118772               0.000230617               0.999999996              -0.000129240               0.000244121               0.999999996              -0.000017377               0.000146420               0.999999996              -0.000023552               0.000130254               0.999999996              -0.000026980               0.000127754               0.999999996              -0.000030233               0.000132089               0.999999996              -0.000034030               0.000140269               0.999999996              -0.000038621               0.000150846               0.999999996              -0.000043952               0.000163031               0.999999996              -0.000050113               0.000176455               0.999999996              -0.000057063               0.000190886               0.999999996              -0.000064757               0.000205985               0.999999996              -0.000073114               0.000221657               0.999999996              -0.000082055               0.000238081               0.999999996              -0.000091498               0.000255092               0.999999996              -0.000101411               0.000272517               0.999999996              -0.000111809               0.000290327               0.999999996              -0.000122777               0.000308653               0.999999996              -0.000134422               0.000327716               0.999999996              -0.000016365               0.000179809               0.999999996              -0.000018261               0.000160313               0.999999996              -0.000020312               0.000158089               0.999999996              -0.000023482               0.000164092               0.999999996              -0.000027850               0.000174736               0.999999996              -0.000033234               0.000188115               0.999999996              -0.000039647               0.000203464               0.999999996              -0.000046987               0.000220326               0.999999996              -0.000055136               0.000238398               0.999999996              -0.000064086               0.000257494               0.999999996              -0.000073747               0.000277189               0.999999996              -0.000084006               0.000297665               0.999999996              -0.000094810               0.000318935               0.999999996              -0.000106114               0.000340840               0.999999996              -0.000118021               0.000363528               0.999999996              -0.000130598               0.000387068               0.999999996              -0.000143767               0.000411667               0.999999996              -0.000015292               0.000211205               0.999999996              -0.000012608               0.000189020               0.999999996              -0.000013611               0.000187394               0.999999996              -0.000017138               0.000195259               0.999999996              -0.000022431               0.000208329               0.999999996              -0.000028964               0.000224504               0.999999996              -0.000036645               0.000243203               0.999999996              -0.000045306               0.000263597               0.999999996              -0.000054915               0.000285451               0.999999996              -0.000065393               0.000308510               0.999999996              -0.000076656               0.000332276               0.999999996              -0.000088525               0.000356834               0.999999996              -0.000101020               0.000382385               0.999999996              -0.000114087               0.000408897               0.999999996              -0.000127742               0.000436414               0.999999996              -0.000141837               0.000464858               0.999999996              -0.000156103               0.000493861               0.999999996              -0.000014096               0.000240318               0.999999996              -0.000006916               0.000216312               0.999999996              -0.000007443               0.000215501               0.999999996              -0.000011780               0.000225190               0.999999996              -0.000018232               0.000240711               0.999999996              -0.000026074               0.000259857               0.999999996              -0.000035160               0.000281925               0.999999996              -0.000045364               0.000305987               0.999999996              -0.000056715               0.000331658               0.999999996              -0.000068934               0.000358750               0.999999996              -0.000081838               0.000386679               0.999999996              -0.000095331               0.000415463               0.999999996              -0.000109352               0.000445357               0.999999996              -0.000123818               0.000476367               0.999999996              -0.000138598               0.000508346               0.999999996              -0.000153409               0.000540933               0.999999996              -0.000167992               0.000573446               0.999999996              -0.000012985               0.000266641               0.999999996              -0.000001543               0.000242100               0.999999996              -0.000002231               0.000242219               0.999999996              -0.000007610               0.000253711               0.999999996              -0.000015403               0.000271694               0.999999996              -0.000024611               0.000293912               0.999999996              -0.000035305               0.000319399               0.999999996              -0.000047280               0.000347301               0.999999996              -0.000060348               0.000377003               0.999999996              -0.000074088               0.000408052               0.999999996              -0.000088287               0.000440098               0.999999996              -0.000102903               0.000473106               0.999999996              -0.000117933               0.000507343               0.999999996              -0.000133260               0.000542558               0.999999996              -0.000148719               0.000578488               0.999999996              -0.000164192               0.000614613               0.999999996              -0.000179523               0.000650470               0.999999996              -0.000012277               0.000291125               0.999999996               0.000002134               0.000268782               0.999999996               0.000002968               0.000266459               0.999999996              -0.000001376               0.000275019               0.999999996              -0.000008174               0.000290096               0.999999996              -0.000016392               0.000309509               0.999999996              -0.000025917               0.000332203               0.999999996              -0.000036726               0.000357588               0.999999996              -0.000048398               0.000384954               0.999999996              -0.000060608               0.000413769               0.999999996              -0.000073079               0.000443579               0.999999996              -0.000085732               0.000474175               0.999999996              -0.000098602               0.000505605               0.999999996              -0.000111627               0.000537923               0.999999996              -0.000124889               0.000571102               0.999999996              -0.000138526               0.000604832               0.999999996              -0.000152518               0.000638850               0.999999996              -0.000011262               0.000313169               0.999999996               0.000004606               0.000294119               0.999999996               0.000006914               0.000290813               0.999999996               0.000003829               0.000297116               0.999999996              -0.000001788               0.000309583               0.999999996              -0.000008942               0.000326357               0.999999996              -0.000017260               0.000346467               0.999999996              -0.000026704               0.000369362               0.999999996              -0.000036884               0.000394413               0.999999996              -0.000047585               0.000421022               0.999999996              -0.000058465               0.000448729               0.999999996              -0.000069329               0.000477225               0.999999996              -0.000080144               0.000506305               0.999999996              -0.000090868               0.000536029               0.999999996              -0.000101687               0.000566480               0.999999996              -0.000112722               0.000597637               0.999999996              -0.000124167               0.000629384               0.999999996              -0.000010025               0.000332397               0.999999996               0.000005906               0.000317546               0.999999996               0.000009359               0.000314364               0.999999996               0.000007567               0.000319258               0.999999996               0.000003210               0.000329691               0.999999996              -0.000002625               0.000344277               0.999999996              -0.000009642               0.000362145               0.999999996              -0.000017645               0.000382734               0.999999996              -0.000026256               0.000405551               0.999999996              -0.000035272               0.000430133               0.999999996              -0.000044472               0.000455976               0.999999996              -0.000053761               0.000482550               0.999999996              -0.000062737               0.000509691               0.999999996              -0.000071253               0.000537335               0.999999996              -0.000079501               0.000565549               0.999999996              -0.000087699               0.000594361               0.999999996              -0.000095825               0.000623851               0.999999996              -0.000008512               0.000348570               0.999999996               0.000006114               0.000338328               0.999999996               0.000010185               0.000336086               0.999999996               0.000009520               0.000340333               0.999999996               0.000006504               0.000349451               0.999999996               0.000001971               0.000362367               0.999999996              -0.000003653               0.000378443               0.999999996              -0.000010076               0.000397228               0.999999996              -0.000016979               0.000418251               0.999999996              -0.000024118               0.000441028               0.999999996              -0.000031605               0.000465177               0.999999996              -0.000039131               0.000490296               0.999999996              -0.000046318               0.000516060               0.999999996              -0.000052911               0.000542211               0.999999996              -0.000058899               0.000568748               0.999999996              -0.000064216               0.000595785               0.999999996              -0.000068838               0.000623417               0.999999996              -0.000006724               0.000361423               0.999999996               0.000005378               0.000355577               0.999999996               0.000009396               0.000354770               0.999999996               0.000009548               0.000359040               0.999999996               0.000007651               0.000367488               0.999999996               0.000004438               0.000379360               0.999999996               0.000000293               0.000394162               0.999999996              -0.000004366               0.000411587               0.999999996              -0.000009529               0.000431237               0.999999996              -0.000014939               0.000452627               0.999999996              -0.000020454               0.000475456               0.999999996              -0.000026030               0.000499541               0.999999996              -0.000031523               0.000524402               0.999999996              -0.000036408               0.000549728               0.999999996              -0.000040422               0.000575427               0.999999996              -0.000043370               0.000601471               0.999999996              -0.000045029               0.000627886               0.999999996              -0.000004673               0.000370773               0.999999996               0.000003981               0.000368577               0.999999996               0.000007193               0.000369288               0.999999996               0.000007688               0.000373947               0.999999996               0.000006596               0.000382220               0.999999996               0.000004589               0.000393545               0.999999996               0.000001996               0.000407560               0.999999996              -0.000000981               0.000424018               0.999999996              -0.000004484               0.000442597               0.999999996              -0.000008105               0.000462999               0.999999996              -0.000011641               0.000484991               0.999999996              -0.000015411               0.000508206               0.999999996              -0.000019267               0.000532397               0.999999996              -0.000022581               0.000557356               0.999999996              -0.000024871               0.000582826               0.999999996              -0.000026100               0.000608603               0.999999996              -0.000026010               0.000634563               0.999999996              -0.000002399               0.000376461               0.999999996               0.000002117               0.000376650               0.999999996               0.000003876               0.000378486               0.999999996               0.000004276               0.000383586               0.999999996               0.000003790               0.000391909               0.999999996               0.000002851               0.000403009               0.999999996               0.000001672               0.000416574               0.999999996               0.000000195               0.000432352               0.999999996              -0.000001631               0.000450282               0.999999996              -0.000003455               0.000470156               0.999999996              -0.000005217               0.000491660               0.999999996              -0.000007170               0.000514449               0.999999996              -0.000009119               0.000538365               0.999999996              -0.000010742               0.000563205               0.999999996              -0.000011743               0.000588666               0.999999996              -0.000011969               0.000614465               0.999999996              -0.000011412               0.000640356               0.999999996               0.000000000               0.000378372               0.999999996              -0.000000000               0.000379397               0.999999996               0.000000000               0.000381689               0.999999996              -0.000000000               0.000386986               0.999999996              -0.000000000               0.000395314               0.999999996              -0.000000000               0.000406352               0.999999996              -0.000000000               0.000419756               0.999999996              -0.000000000               0.000435245               0.999999996               0.000000000               0.000452960               0.999999996              -0.000000000               0.000472655               0.999999996               0.000000000               0.000494003               0.999999996               0.000000000               0.000516815               0.999999996               0.000000000               0.000540735               0.999999996               0.000000000               0.000565547               0.999999996              -0.000000000               0.000590974               0.999999996              -0.000000000               0.000616720               0.999999996               0.000000000               0.000642590               0.999999996              -0.000019233               0.000000000               0.999999996              -0.000034572               0.000000000               0.999999996              -0.000042284              -0.000000000               0.999999996              -0.000047032               0.000000000               0.999999996              -0.000050795               0.000000000               0.999999996              -0.000054426              -0.000000000               0.999999996              -0.000058280              -0.000000000               0.999999996              -0.000062573              -0.000000000               0.999999996              -0.000067466              -0.000000000               0.999999996              -0.000072988              -0.000000000               0.999999996              -0.000079029              -0.000000000               0.999999996              -0.000085682               0.000000000               0.999999996              -0.000092976               0.000000000               0.999999996              -0.000100883               0.000000000               0.999999996              -0.000109367               0.000000000               0.999999996              -0.000118410               0.000000000               0.999999996              -0.000127995               0.000000000               0.999999996              -0.000019129              -0.000037706               0.999999996              -0.000033841              -0.000033538               0.999999996              -0.000041177              -0.000032554               0.999999996              -0.000045735              -0.000033333               0.999999996              -0.000049399              -0.000035110               0.999999996              -0.000053055              -0.000037551               0.999999996              -0.000057030              -0.000040488               0.999999996              -0.000061487              -0.000043825               0.999999996              -0.000066506              -0.000047447               0.999999996              -0.000072084              -0.000051175               0.999999996              -0.000078219              -0.000055104               0.999999996              -0.000084964              -0.000059221               0.999999996              -0.000092354              -0.000063466               0.999999996              -0.000100355              -0.000067785               0.999999996              -0.000108949              -0.000072087               0.999999996              -0.000118098              -0.000076321               0.999999996              -0.000127735              -0.000080307               0.999999996              -0.000018782              -0.000074983               0.999999996              -0.000031671              -0.000066656               0.999999996              -0.000037993              -0.000064839               0.999999996              -0.000042110              -0.000066488               0.999999996              -0.000045692              -0.000070205               0.999999996              -0.000049483              -0.000075255               0.999999996              -0.000053714              -0.000081203               0.999999996              -0.000058465              -0.000087896               0.999999996              -0.000063830              -0.000095096               0.999999996              -0.000069764              -0.000102579               0.999999996              -0.000076262              -0.000110447               0.999999996              -0.000083375              -0.000118720               0.999999996              -0.000091113              -0.000127265               0.999999996              -0.000099436              -0.000135959               0.999999996              -0.000108311              -0.000144622               0.999999996              -0.000117685              -0.000153237               0.999999996              -0.000127551              -0.000161632               0.999999996              -0.000018213              -0.000111360               0.999999996              -0.000028159              -0.000098977               0.999999996              -0.000033049              -0.000096624               0.999999996              -0.000036699              -0.000099477               0.999999996              -0.000040291              -0.000105324               0.999999996              -0.000044351              -0.000113086               0.999999996              -0.000049057              -0.000122156               0.999999996              -0.000054370              -0.000132180               0.999999996              -0.000060310              -0.000143008               0.999999996              -0.000066933              -0.000154238               0.999999996              -0.000074186              -0.000165998               0.999999996              -0.000082042              -0.000178394               0.999999996              -0.000090482              -0.000191219               0.999999996              -0.000099424              -0.000204250               0.999999996              -0.000108856              -0.000217359               0.999999996              -0.000118772              -0.000230617               0.999999996              -0.000129240              -0.000244121               0.999999996              -0.000017377              -0.000146420               0.999999996              -0.000023552              -0.000130254               0.999999996              -0.000026980              -0.000127754               0.999999996              -0.000030233              -0.000132089               0.999999996              -0.000034030              -0.000140269               0.999999996              -0.000038621              -0.000150846               0.999999996              -0.000043952              -0.000163031               0.999999996              -0.000050113              -0.000176455               0.999999996              -0.000057063              -0.000190886               0.999999996              -0.000064757              -0.000205985               0.999999996              -0.000073114              -0.000221657               0.999999996              -0.000082055              -0.000238081               0.999999996              -0.000091498              -0.000255092               0.999999996              -0.000101411              -0.000272517               0.999999996              -0.000111809              -0.000290327               0.999999996              -0.000122777              -0.000308653               0.999999996              -0.000134422              -0.000327716               0.999999996              -0.000016365              -0.000179809               0.999999996              -0.000018261              -0.000160313               0.999999996              -0.000020312              -0.000158089               0.999999996              -0.000023482              -0.000164092               0.999999996              -0.000027850              -0.000174736               0.999999996              -0.000033234              -0.000188115               0.999999996              -0.000039647              -0.000203464               0.999999996              -0.000046987              -0.000220326               0.999999996              -0.000055136              -0.000238398               0.999999996              -0.000064086              -0.000257494               0.999999996              -0.000073747              -0.000277189               0.999999996              -0.000084006              -0.000297665               0.999999996              -0.000094810              -0.000318935               0.999999996              -0.000106114              -0.000340840               0.999999996              -0.000118021              -0.000363528               0.999999996              -0.000130598              -0.000387068               0.999999996              -0.000143767              -0.000411667               0.999999996              -0.000015292              -0.000211205               0.999999996              -0.000012608              -0.000189020               0.999999996              -0.000013611              -0.000187394               0.999999996              -0.000017138              -0.000195259               0.999999996              -0.000022431              -0.000208329               0.999999996              -0.000028964              -0.000224504               0.999999996              -0.000036645              -0.000243203               0.999999996              -0.000045306              -0.000263597               0.999999996              -0.000054915              -0.000285451               0.999999996              -0.000065393              -0.000308510               0.999999996              -0.000076656              -0.000332276               0.999999996              -0.000088525              -0.000356834               0.999999996              -0.000101020              -0.000382385               0.999999996              -0.000114087              -0.000408897               0.999999996              -0.000127742              -0.000436414               0.999999996              -0.000141837              -0.000464858               0.999999996              -0.000156103              -0.000493861               0.999999996              -0.000014096              -0.000240318               0.999999996              -0.000006916              -0.000216312               0.999999996              -0.000007443              -0.000215501               0.999999996              -0.000011780              -0.000225190               0.999999996              -0.000018232              -0.000240711               0.999999996              -0.000026074              -0.000259857               0.999999996              -0.000035160              -0.000281925               0.999999996              -0.000045364              -0.000305987               0.999999996              -0.000056715              -0.000331658               0.999999996              -0.000068934              -0.000358750               0.999999996              -0.000081838              -0.000386679               0.999999996              -0.000095331              -0.000415463               0.999999996              -0.000109352              -0.000445357               0.999999996              -0.000123818              -0.000476367               0.999999996              -0.000138598              -0.000508346               0.999999996              -0.000153409              -0.000540933               0.999999996              -0.000167992              -0.000573446               0.999999996              -0.000012985              -0.000266641               0.999999996              -0.000001543              -0.000242100               0.999999996              -0.000002231              -0.000242219               0.999999996              -0.000007610              -0.000253711               0.999999996              -0.000015403              -0.000271694               0.999999996              -0.000024611              -0.000293912               0.999999996              -0.000035305              -0.000319399               0.999999996              -0.000047280              -0.000347301               0.999999996              -0.000060348              -0.000377003               0.999999996              -0.000074088              -0.000408052               0.999999996              -0.000088287              -0.000440098               0.999999996              -0.000102903              -0.000473106               0.999999996              -0.000117933              -0.000507343               0.999999996              -0.000133260              -0.000542558               0.999999996              -0.000148719              -0.000578488               0.999999996              -0.000164192              -0.000614613               0.999999996              -0.000179523              -0.000650470               0.999999996              -0.000012277              -0.000291125               0.999999996               0.000002134              -0.000268782               0.999999996               0.000002968              -0.000266459               0.999999996              -0.000001376              -0.000275019               0.999999996              -0.000008174              -0.000290096               0.999999996              -0.000016392              -0.000309509               0.999999996              -0.000025917              -0.000332203               0.999999996              -0.000036726              -0.000357588               0.999999996              -0.000048398              -0.000384954               0.999999996              -0.000060608              -0.000413769               0.999999996              -0.000073079              -0.000443579               0.999999996              -0.000085732              -0.000474175               0.999999996              -0.000098602              -0.000505605               0.999999996              -0.000111627              -0.000537923               0.999999996              -0.000124889              -0.000571102               0.999999996              -0.000138526              -0.000604832               0.999999996              -0.000152518              -0.000638850               0.999999996              -0.000011262              -0.000313169               0.999999996               0.000004606              -0.000294119               0.999999996               0.000006914              -0.000290813               0.999999996               0.000003829              -0.000297116               0.999999996              -0.000001788              -0.000309583               0.999999996              -0.000008942              -0.000326357               0.999999996              -0.000017260              -0.000346467               0.999999996              -0.000026704              -0.000369362               0.999999996              -0.000036884              -0.000394413               0.999999996              -0.000047585              -0.000421022               0.999999996              -0.000058465              -0.000448729               0.999999996              -0.000069329              -0.000477225               0.999999996              -0.000080144              -0.000506305               0.999999996              -0.000090868              -0.000536029               0.999999996              -0.000101687              -0.000566480               0.999999996              -0.000112722              -0.000597637               0.999999996              -0.000124167              -0.000629384               0.999999996              -0.000010025              -0.000332397               0.999999996               0.000005906              -0.000317546               0.999999996               0.000009359              -0.000314364               0.999999996               0.000007567              -0.000319258               0.999999996               0.000003210              -0.000329691               0.999999996              -0.000002625              -0.000344277               0.999999996              -0.000009642              -0.000362145               0.999999996              -0.000017645              -0.000382734               0.999999996              -0.000026256              -0.000405551               0.999999996              -0.000035272              -0.000430133               0.999999996              -0.000044472              -0.000455976               0.999999996              -0.000053761              -0.000482550               0.999999996              -0.000062737              -0.000509691               0.999999996              -0.000071253              -0.000537335               0.999999996              -0.000079501              -0.000565549               0.999999996              -0.000087699              -0.000594361               0.999999996              -0.000095825              -0.000623851               0.999999996              -0.000008512              -0.000348570               0.999999996               0.000006114              -0.000338328               0.999999996               0.000010185              -0.000336086               0.999999996               0.000009520              -0.000340333               0.999999996               0.000006504              -0.000349451               0.999999996               0.000001971              -0.000362367               0.999999996              -0.000003653              -0.000378443               0.999999996              -0.000010076              -0.000397228               0.999999996              -0.000016979              -0.000418251               0.999999996              -0.000024118              -0.000441028               0.999999996              -0.000031605              -0.000465177               0.999999996              -0.000039131              -0.000490296               0.999999996              -0.000046318              -0.000516060               0.999999996              -0.000052911              -0.000542211               0.999999996              -0.000058899              -0.000568748               0.999999996              -0.000064216              -0.000595785               0.999999996              -0.000068838              -0.000623417               0.999999996              -0.000006724              -0.000361423               0.999999996               0.000005378              -0.000355577               0.999999996               0.000009396              -0.000354770               0.999999996               0.000009548              -0.000359040               0.999999996               0.000007651              -0.000367488               0.999999996               0.000004438              -0.000379360               0.999999996               0.000000293              -0.000394162               0.999999996              -0.000004366              -0.000411587               0.999999996              -0.000009529              -0.000431237               0.999999996              -0.000014939              -0.000452627               0.999999996              -0.000020454              -0.000475456               0.999999996              -0.000026030              -0.000499541               0.999999996              -0.000031523              -0.000524402               0.999999996              -0.000036408              -0.000549728               0.999999996              -0.000040422              -0.000575427               0.999999996              -0.000043370              -0.000601471               0.999999996              -0.000045029              -0.000627886               0.999999996              -0.000004673              -0.000370773               0.999999996               0.000003981              -0.000368577               0.999999996               0.000007193              -0.000369288               0.999999996               0.000007688              -0.000373947               0.999999996               0.000006596              -0.000382220               0.999999996               0.000004589              -0.000393545               0.999999996               0.000001996              -0.000407560               0.999999996              -0.000000981              -0.000424018               0.999999996              -0.000004484              -0.000442597               0.999999996              -0.000008105              -0.000462999               0.999999996              -0.000011641              -0.000484991               0.999999996              -0.000015411              -0.000508206               0.999999996              -0.000019267              -0.000532397               0.999999996              -0.000022581              -0.000557356               0.999999996              -0.000024871              -0.000582826               0.999999996              -0.000026100              -0.000608603               0.999999996              -0.000026010              -0.000634563               0.999999996              -0.000002399              -0.000376461               0.999999996               0.000002117              -0.000376650               0.999999996               0.000003876              -0.000378486               0.999999996               0.000004276              -0.000383586               0.999999996               0.000003790              -0.000391909               0.999999996               0.000002851              -0.000403009               0.999999996               0.000001672              -0.000416574               0.999999996               0.000000195              -0.000432352               0.999999996              -0.000001631              -0.000450282               0.999999996              -0.000003455              -0.000470156               0.999999996              -0.000005217              -0.000491660               0.999999996              -0.000007170              -0.000514449               0.999999996              -0.000009119              -0.000538365               0.999999996              -0.000010742              -0.000563205               0.999999996              -0.000011743              -0.000588666               0.999999996              -0.000011969              -0.000614465               0.999999996              -0.000011412              -0.000640356               0.999999996              -0.000000000              -0.000378372               0.999999996              -0.000000000              -0.000379397               0.999999996              -0.000000000              -0.000381689               0.999999996              -0.000000000              -0.000386986               0.999999996              -0.000000000              -0.000395314               0.999999996               0.000000000              -0.000406352               0.999999996               0.000000000              -0.000419756               0.999999996               0.000000000              -0.000435245               0.999999996               0.000000000              -0.000452960               0.999999996               0.000000000              -0.000472655               0.999999996               0.000000000              -0.000494003               0.999999996              -0.000000000              -0.000516815               0.999999996              -0.000000000              -0.000540735               0.999999996              -0.000000000              -0.000565547               0.999999996              -0.000000000              -0.000590974               0.999999996              -0.000000000              -0.000616720               0.999999996              -0.000000000              -0.000642590               0.999999996               0.000019233              -0.000000000               0.999999996               0.000034572              -0.000000000               0.999999996               0.000042284              -0.000000000               0.999999996               0.000047032              -0.000000000               0.999999996               0.000050795               0.000000000               0.999999996               0.000054426               0.000000000               0.999999996               0.000058280               0.000000000               0.999999996               0.000062573              -0.000000000               0.999999996               0.000067466              -0.000000000               0.999999996               0.000072988               0.000000000               0.999999996               0.000079029               0.000000000               0.999999996               0.000085682               0.000000000               0.999999996               0.000092976               0.000000000               0.999999996               0.000100883               0.000000000               0.999999996               0.000109367               0.000000000               0.999999996               0.000118410               0.000000000               0.999999996               0.000127995               0.000000000               0.999999996               0.000019129              -0.000037706               0.999999996               0.000033841              -0.000033538               0.999999996               0.000041177              -0.000032554               0.999999996               0.000045735              -0.000033333               0.999999996               0.000049399              -0.000035110               0.999999996               0.000053055              -0.000037551               0.999999996               0.000057030              -0.000040488               0.999999996               0.000061487              -0.000043825               0.999999996               0.000066506              -0.000047447               0.999999996               0.000072084              -0.000051175               0.999999996               0.000078219              -0.000055104               0.999999996               0.000084964              -0.000059221               0.999999996               0.000092354              -0.000063466               0.999999996               0.000100355              -0.000067785               0.999999996               0.000108949              -0.000072087               0.999999996               0.000118098              -0.000076321               0.999999996               0.000127735              -0.000080307               0.999999996               0.000018782              -0.000074983               0.999999996               0.000031671              -0.000066656               0.999999996               0.000037993              -0.000064839               0.999999996               0.000042110              -0.000066488               0.999999996               0.000045692              -0.000070205               0.999999996               0.000049483              -0.000075255               0.999999996               0.000053714              -0.000081203               0.999999996               0.000058465              -0.000087896               0.999999996               0.000063830              -0.000095096               0.999999996               0.000069764              -0.000102579               0.999999996               0.000076262              -0.000110447               0.999999996               0.000083375              -0.000118720               0.999999996               0.000091113              -0.000127265               0.999999996               0.000099436              -0.000135959               0.999999996               0.000108311              -0.000144622               0.999999996               0.000117685              -0.000153237               0.999999996               0.000127551              -0.000161632               0.999999996               0.000018213              -0.000111360               0.999999996               0.000028159              -0.000098977               0.999999996               0.000033049              -0.000096624               0.999999996               0.000036699              -0.000099477               0.999999996               0.000040291              -0.000105324               0.999999996               0.000044351              -0.000113086               0.999999996               0.000049057              -0.000122156               0.999999996               0.000054370              -0.000132180               0.999999996               0.000060310              -0.000143008               0.999999996               0.000066933              -0.000154238               0.999999996               0.000074186              -0.000165998               0.999999996               0.000082042              -0.000178394               0.999999996               0.000090482              -0.000191219               0.999999996               0.000099424              -0.000204250               0.999999996               0.000108856              -0.000217359               0.999999996               0.000118772              -0.000230617               0.999999996               0.000129240              -0.000244121               0.999999996               0.000017377              -0.000146420               0.999999996               0.000023552              -0.000130254               0.999999996               0.000026980              -0.000127754               0.999999996               0.000030233              -0.000132089               0.999999996               0.000034030              -0.000140269               0.999999996               0.000038621              -0.000150846               0.999999996               0.000043952              -0.000163031               0.999999996               0.000050113              -0.000176455               0.999999996               0.000057063              -0.000190886               0.999999996               0.000064757              -0.000205985               0.999999996               0.000073114              -0.000221657               0.999999996               0.000082055              -0.000238081               0.999999996               0.000091498              -0.000255092               0.999999996               0.000101411              -0.000272517               0.999999996               0.000111809              -0.000290327               0.999999996               0.000122777              -0.000308653               0.999999996               0.000134422              -0.000327716               0.999999996               0.000016365              -0.000179809               0.999999996               0.000018261              -0.000160313               0.999999996               0.000020312              -0.000158089               0.999999996               0.000023482              -0.000164092               0.999999996               0.000027850              -0.000174736               0.999999996               0.000033234              -0.000188115               0.999999996               0.000039647              -0.000203464               0.999999996               0.000046987              -0.000220326               0.999999996               0.000055136              -0.000238398               0.999999996               0.000064086              -0.000257494               0.999999996               0.000073747              -0.000277189               0.999999996               0.000084006              -0.000297665               0.999999996               0.000094810              -0.000318935               0.999999996               0.000106114              -0.000340840               0.999999996               0.000118021              -0.000363528               0.999999996               0.000130598              -0.000387068               0.999999996               0.000143767              -0.000411667               0.999999996               0.000015292              -0.000211205               0.999999996               0.000012608              -0.000189020               0.999999996               0.000013611              -0.000187394               0.999999996               0.000017138              -0.000195259               0.999999996               0.000022431              -0.000208329               0.999999996               0.000028964              -0.000224504               0.999999996               0.000036645              -0.000243203               0.999999996               0.000045306              -0.000263597               0.999999996               0.000054915              -0.000285451               0.999999996               0.000065393              -0.000308510               0.999999996               0.000076656              -0.000332276               0.999999996               0.000088525              -0.000356834               0.999999996               0.000101020              -0.000382385               0.999999996               0.000114087              -0.000408897               0.999999996               0.000127742              -0.000436414               0.999999996               0.000141837              -0.000464858               0.999999996               0.000156103              -0.000493861               0.999999996               0.000014096              -0.000240318               0.999999996               0.000006916              -0.000216312               0.999999996               0.000007443              -0.000215501               0.999999996               0.000011780              -0.000225190               0.999999996               0.000018232              -0.000240711               0.999999996               0.000026074              -0.000259857               0.999999996               0.000035160              -0.000281925               0.999999996               0.000045364              -0.000305987               0.999999996               0.000056715              -0.000331658               0.999999996               0.000068934              -0.000358750               0.999999996               0.000081838              -0.000386679               0.999999996               0.000095331              -0.000415463               0.999999996               0.000109352              -0.000445357               0.999999996               0.000123818              -0.000476367               0.999999996               0.000138598              -0.000508346               0.999999996               0.000153409              -0.000540933               0.999999996               0.000167992              -0.000573446               0.999999996               0.000012985              -0.000266641               0.999999996               0.000001543              -0.000242100               0.999999996               0.000002231              -0.000242219               0.999999996               0.000007610              -0.000253711               0.999999996               0.000015403              -0.000271694               0.999999996               0.000024611              -0.000293912               0.999999996               0.000035305              -0.000319399               0.999999996               0.000047280              -0.000347301               0.999999996               0.000060348              -0.000377003               0.999999996               0.000074088              -0.000408052               0.999999996               0.000088287              -0.000440098               0.999999996               0.000102903              -0.000473106               0.999999996               0.000117933              -0.000507343               0.999999996               0.000133260              -0.000542558               0.999999996               0.000148719              -0.000578488               0.999999996               0.000164192              -0.000614613               0.999999996               0.000179523              -0.000650470               0.999999996               0.000012277              -0.000291125               0.999999996              -0.000002134              -0.000268782               0.999999996              -0.000002968              -0.000266459               0.999999996               0.000001376              -0.000275019               0.999999996               0.000008174              -0.000290096               0.999999996               0.000016392              -0.000309509               0.999999996               0.000025917              -0.000332203               0.999999996               0.000036726              -0.000357588               0.999999996               0.000048398              -0.000384954               0.999999996               0.000060608              -0.000413769               0.999999996               0.000073079              -0.000443579               0.999999996               0.000085732              -0.000474175               0.999999996               0.000098602              -0.000505605               0.999999996               0.000111627              -0.000537923               0.999999996               0.000124889              -0.000571102               0.999999996               0.000138526              -0.000604832               0.999999996               0.000152518              -0.000638850               0.999999996               0.000011262              -0.000313169               0.999999996              -0.000004606              -0.000294119               0.999999996              -0.000006914              -0.000290813               0.999999996              -0.000003829              -0.000297116               0.999999996               0.000001788              -0.000309583               0.999999996               0.000008942              -0.000326357               0.999999996               0.000017260              -0.000346467               0.999999996               0.000026704              -0.000369362               0.999999996               0.000036884              -0.000394413               0.999999996               0.000047585              -0.000421022               0.999999996               0.000058465              -0.000448729               0.999999996               0.000069329              -0.000477225               0.999999996               0.000080144              -0.000506305               0.999999996               0.000090868              -0.000536029               0.999999996               0.000101687              -0.000566480               0.999999996               0.000112722              -0.000597637               0.999999996               0.000124167              -0.000629384               0.999999996               0.000010025              -0.000332397               0.999999996              -0.000005906              -0.000317546               0.999999996              -0.000009359              -0.000314364               0.999999996              -0.000007567              -0.000319258               0.999999996              -0.000003210              -0.000329691               0.999999996               0.000002625              -0.000344277               0.999999996               0.000009642              -0.000362145               0.999999996               0.000017645              -0.000382734               0.999999996               0.000026256              -0.000405551               0.999999996               0.000035272              -0.000430133               0.999999996               0.000044472              -0.000455976               0.999999996               0.000053761              -0.000482550               0.999999996               0.000062737              -0.000509691               0.999999996               0.000071253              -0.000537335               0.999999996               0.000079501              -0.000565549               0.999999996               0.000087699              -0.000594361               0.999999996               0.000095825              -0.000623851               0.999999996               0.000008512              -0.000348570               0.999999996              -0.000006114              -0.000338328               0.999999996              -0.000010185              -0.000336086               0.999999996              -0.000009520              -0.000340333               0.999999996              -0.000006504              -0.000349451               0.999999996              -0.000001971              -0.000362367               0.999999996               0.000003653              -0.000378443               0.999999996               0.000010076              -0.000397228               0.999999996               0.000016979              -0.000418251               0.999999996               0.000024118              -0.000441028               0.999999996               0.000031605              -0.000465177               0.999999996               0.000039131              -0.000490296               0.999999996               0.000046318              -0.000516060               0.999999996               0.000052911              -0.000542211               0.999999996               0.000058899              -0.000568748               0.999999996               0.000064216              -0.000595785               0.999999996               0.000068838              -0.000623417               0.999999996               0.000006724              -0.000361423               0.999999996              -0.000005378              -0.000355577               0.999999996              -0.000009396              -0.000354770               0.999999996              -0.000009548              -0.000359040               0.999999996              -0.000007651              -0.000367488               0.999999996              -0.000004438              -0.000379360               0.999999996              -0.000000293              -0.000394162               0.999999996               0.000004366              -0.000411587               0.999999996               0.000009529              -0.000431237               0.999999996               0.000014939              -0.000452627               0.999999996               0.000020454              -0.000475456               0.999999996               0.000026030              -0.000499541               0.999999996               0.000031523              -0.000524402               0.999999996               0.000036408              -0.000549728               0.999999996               0.000040422              -0.000575427               0.999999996               0.000043370              -0.000601471               0.999999996               0.000045029              -0.000627886               0.999999996               0.000004673              -0.000370773               0.999999996              -0.000003981              -0.000368577               0.999999996              -0.000007193              -0.000369288               0.999999996              -0.000007688              -0.000373947               0.999999996              -0.000006596              -0.000382220               0.999999996              -0.000004589              -0.000393545               0.999999996              -0.000001996              -0.000407560               0.999999996               0.000000981              -0.000424018               0.999999996               0.000004484              -0.000442597               0.999999996               0.000008105              -0.000462999               0.999999996               0.000011641              -0.000484991               0.999999996               0.000015411              -0.000508206               0.999999996               0.000019267              -0.000532397               0.999999996               0.000022581              -0.000557356               0.999999996               0.000024871              -0.000582826               0.999999996               0.000026100              -0.000608603               0.999999996               0.000026010              -0.000634563               0.999999996               0.000002399              -0.000376461               0.999999996              -0.000002117              -0.000376650               0.999999996              -0.000003876              -0.000378486               0.999999996              -0.000004276              -0.000383586               0.999999996              -0.000003790              -0.000391909               0.999999996              -0.000002851              -0.000403009               0.999999996              -0.000001672              -0.000416574               0.999999996              -0.000000195              -0.000432352               0.999999996               0.000001631              -0.000450282               0.999999996               0.000003455              -0.000470156               0.999999996               0.000005217              -0.000491660               0.999999996               0.000007170              -0.000514449               0.999999996               0.000009119              -0.000538365               0.999999996               0.000010742              -0.000563205               0.999999996               0.000011743              -0.000588666               0.999999996               0.000011969              -0.000614465               0.999999996               0.000011412              -0.000640356               0.999999996              -0.000000000              -0.000378372               0.999999996              -0.000000000              -0.000379397               0.999999996              -0.000000000              -0.000381689               0.999999996              -0.000000000              -0.000386986               0.999999996              -0.000000000              -0.000395314               0.999999996               0.000000000              -0.000406352               0.999999996               0.000000000              -0.000419756               0.999999996               0.000000000              -0.000435245               0.999999996               0.000000000              -0.000452960               0.999999996               0.000000000              -0.000472655               0.999999996               0.000000000              -0.000494003               0.999999996              -0.000000000              -0.000516815               0.999999996              -0.000000000              -0.000540735               0.999999996              -0.000000000              -0.000565547               0.999999996              -0.000000000              -0.000590974               0.999999996              -0.000000000              -0.000616720               0.999999996              -0.000000000              -0.000642590               0.999999996               0.000019233              -0.000000000               0.999999996               0.000034572              -0.000000000               0.999999996               0.000042284              -0.000000000               0.999999996               0.000047032              -0.000000000               0.999999996               0.000050795               0.000000000               0.999999996               0.000054426               0.000000000               0.999999996               0.000058280               0.000000000               0.999999996               0.000062573              -0.000000000               0.999999996               0.000067466              -0.000000000               0.999999996               0.000072988               0.000000000               0.999999996               0.000079029               0.000000000               0.999999996               0.000085682               0.000000000               0.999999996               0.000092976               0.000000000               0.999999996               0.000100883               0.000000000               0.999999996               0.000109367               0.000000000               0.999999996               0.000118410               0.000000000               0.999999996               0.000127995               0.000000000               0.999999996               0.000019129               0.000037706               0.999999996               0.000033841               0.000033538               0.999999996               0.000041177               0.000032554               0.999999996               0.000045735               0.000033333               0.999999996               0.000049399               0.000035110               0.999999996               0.000053055               0.000037551               0.999999996               0.000057030               0.000040488               0.999999996               0.000061487               0.000043825               0.999999996               0.000066506               0.000047447               0.999999996               0.000072084               0.000051175               0.999999996               0.000078219               0.000055104               0.999999996               0.000084964               0.000059221               0.999999996               0.000092354               0.000063466               0.999999996               0.000100355               0.000067785               0.999999996               0.000108949               0.000072087               0.999999996               0.000118098               0.000076321               0.999999996               0.000127735               0.000080307               0.999999996               0.000018782               0.000074983               0.999999996               0.000031671               0.000066656               0.999999996               0.000037993               0.000064839               0.999999996               0.000042110               0.000066488               0.999999996               0.000045692               0.000070205               0.999999996               0.000049483               0.000075255               0.999999996               0.000053714               0.000081203               0.999999996               0.000058465               0.000087896               0.999999996               0.000063830               0.000095096               0.999999996               0.000069764               0.000102579               0.999999996               0.000076262               0.000110447               0.999999996               0.000083375               0.000118720               0.999999996               0.000091113               0.000127265               0.999999996               0.000099436               0.000135959               0.999999996               0.000108311               0.000144622               0.999999996               0.000117685               0.000153237               0.999999996               0.000127551               0.000161632               0.999999996               0.000018213               0.000111360               0.999999996               0.000028159               0.000098977               0.999999996               0.000033049               0.000096624               0.999999996               0.000036699               0.000099477               0.999999996               0.000040291               0.000105324               0.999999996               0.000044351               0.000113086               0.999999996               0.000049057               0.000122156               0.999999996               0.000054370               0.000132180               0.999999996               0.000060310               0.000143008               0.999999996               0.000066933               0.000154238               0.999999996               0.000074186               0.000165998               0.999999996               0.000082042               0.000178394               0.999999996               0.000090482               0.000191219               0.999999996               0.000099424               0.000204250               0.999999996               0.000108856               0.000217359               0.999999996               0.000118772               0.000230617               0.999999996               0.000129240               0.000244121               0.999999996               0.000017377               0.000146420               0.999999996               0.000023552               0.000130254               0.999999996               0.000026980               0.000127754               0.999999996               0.000030233               0.000132089               0.999999996               0.000034030               0.000140269               0.999999996               0.000038621               0.000150846               0.999999996               0.000043952               0.000163031               0.999999996               0.000050113               0.000176455               0.999999996               0.000057063               0.000190886               0.999999996               0.000064757               0.000205985               0.999999996               0.000073114               0.000221657               0.999999996               0.000082055               0.000238081               0.999999996               0.000091498               0.000255092               0.999999996               0.000101411               0.000272517               0.999999996               0.000111809               0.000290327               0.999999996               0.000122777               0.000308653               0.999999996               0.000134422               0.000327716               0.999999996               0.000016365               0.000179809               0.999999996               0.000018261               0.000160313               0.999999996               0.000020312               0.000158089               0.999999996               0.000023482               0.000164092               0.999999996               0.000027850               0.000174736               0.999999996               0.000033234               0.000188115               0.999999996               0.000039647               0.000203464               0.999999996               0.000046987               0.000220326               0.999999996               0.000055136               0.000238398               0.999999996               0.000064086               0.000257494               0.999999996               0.000073747               0.000277189               0.999999996               0.000084006               0.000297665               0.999999996               0.000094810               0.000318935               0.999999996               0.000106114               0.000340840               0.999999996               0.000118021               0.000363528               0.999999996               0.000130598               0.000387068               0.999999996               0.000143767               0.000411667               0.999999996               0.000015292               0.000211205               0.999999996               0.000012608               0.000189020               0.999999996               0.000013611               0.000187394               0.999999996               0.000017138               0.000195259               0.999999996               0.000022431               0.000208329               0.999999996               0.000028964               0.000224504               0.999999996               0.000036645               0.000243203               0.999999996               0.000045306               0.000263597               0.999999996               0.000054915               0.000285451               0.999999996               0.000065393               0.000308510               0.999999996               0.000076656               0.000332276               0.999999996               0.000088525               0.000356834               0.999999996               0.000101020               0.000382385               0.999999996               0.000114087               0.000408897               0.999999996               0.000127742               0.000436414               0.999999996               0.000141837               0.000464858               0.999999996               0.000156103               0.000493861               0.999999996               0.000014096               0.000240318               0.999999996               0.000006916               0.000216312               0.999999996               0.000007443               0.000215501               0.999999996               0.000011780               0.000225190               0.999999996               0.000018232               0.000240711               0.999999996               0.000026074               0.000259857               0.999999996               0.000035160               0.000281925               0.999999996               0.000045364               0.000305987               0.999999996               0.000056715               0.000331658               0.999999996               0.000068934               0.000358750               0.999999996               0.000081838               0.000386679               0.999999996               0.000095331               0.000415463               0.999999996               0.000109352               0.000445357               0.999999996               0.000123818               0.000476367               0.999999996               0.000138598               0.000508346               0.999999996               0.000153409               0.000540933               0.999999996               0.000167992               0.000573446               0.999999996               0.000012985               0.000266641               0.999999996               0.000001543               0.000242100               0.999999996               0.000002231               0.000242219               0.999999996               0.000007610               0.000253711               0.999999996               0.000015403               0.000271694               0.999999996               0.000024611               0.000293912               0.999999996               0.000035305               0.000319399               0.999999996               0.000047280               0.000347301               0.999999996               0.000060348               0.000377003               0.999999996               0.000074088               0.000408052               0.999999996               0.000088287               0.000440098               0.999999996               0.000102903               0.000473106               0.999999996               0.000117933               0.000507343               0.999999996               0.000133260               0.000542558               0.999999996               0.000148719               0.000578488               0.999999996               0.000164192               0.000614613               0.999999996               0.000179523               0.000650470               0.999999996               0.000012277               0.000291125               0.999999996              -0.000002134               0.000268782               0.999999996              -0.000002968               0.000266459               0.999999996               0.000001376               0.000275019               0.999999996               0.000008174               0.000290096               0.999999996               0.000016392               0.000309509               0.999999996               0.000025917               0.000332203               0.999999996               0.000036726               0.000357588               0.999999996               0.000048398               0.000384954               0.999999996               0.000060608               0.000413769               0.999999996               0.000073079               0.000443579               0.999999996               0.000085732               0.000474175               0.999999996               0.000098602               0.000505605               0.999999996               0.000111627               0.000537923               0.999999996               0.000124889               0.000571102               0.999999996               0.000138526               0.000604832               0.999999996               0.000152518               0.000638850               0.999999996               0.000011262               0.000313169               0.999999996              -0.000004606               0.000294119               0.999999996              -0.000006914               0.000290813               0.999999996              -0.000003829               0.000297116               0.999999996               0.000001788               0.000309583               0.999999996               0.000008942               0.000326357               0.999999996               0.000017260               0.000346467               0.999999996               0.000026704               0.000369362               0.999999996               0.000036884               0.000394413               0.999999996               0.000047585               0.000421022               0.999999996               0.000058465               0.000448729               0.999999996               0.000069329               0.000477225               0.999999996               0.000080144               0.000506305               0.999999996               0.000090868               0.000536029               0.999999996               0.000101687               0.000566480               0.999999996               0.000112722               0.000597637               0.999999996               0.000124167               0.000629384               0.999999996               0.000010025               0.000332397               0.999999996              -0.000005906               0.000317546               0.999999996              -0.000009359               0.000314364               0.999999996              -0.000007567               0.000319258               0.999999996              -0.000003210               0.000329691               0.999999996               0.000002625               0.000344277               0.999999996               0.000009642               0.000362145               0.999999996               0.000017645               0.000382734               0.999999996               0.000026256               0.000405551               0.999999996               0.000035272               0.000430133               0.999999996               0.000044472               0.000455976               0.999999996               0.000053761               0.000482550               0.999999996               0.000062737               0.000509691               0.999999996               0.000071253               0.000537335               0.999999996               0.000079501               0.000565549               0.999999996               0.000087699               0.000594361               0.999999996               0.000095825               0.000623851               0.999999996               0.000008512               0.000348570               0.999999996              -0.000006114               0.000338328               0.999999996              -0.000010185               0.000336086               0.999999996              -0.000009520               0.000340333               0.999999996              -0.000006504               0.000349451               0.999999996              -0.000001971               0.000362367               0.999999996               0.000003653               0.000378443               0.999999996               0.000010076               0.000397228               0.999999996               0.000016979               0.000418251               0.999999996               0.000024118               0.000441028               0.999999996               0.000031605               0.000465177               0.999999996               0.000039131               0.000490296               0.999999996               0.000046318               0.000516060               0.999999996               0.000052911               0.000542211               0.999999996               0.000058899               0.000568748               0.999999996               0.000064216               0.000595785               0.999999996               0.000068838               0.000623417               0.999999996               0.000006724               0.000361423               0.999999996              -0.000005378               0.000355577               0.999999996              -0.000009396               0.000354770               0.999999996              -0.000009548               0.000359040               0.999999996              -0.000007651               0.000367488               0.999999996              -0.000004438               0.000379360               0.999999996              -0.000000293               0.000394162               0.999999996               0.000004366               0.000411587               0.999999996               0.000009529               0.000431237               0.999999996               0.000014939               0.000452627               0.999999996               0.000020454               0.000475456               0.999999996               0.000026030               0.000499541               0.999999996               0.000031523               0.000524402               0.999999996               0.000036408               0.000549728               0.999999996               0.000040422               0.000575427               0.999999996               0.000043370               0.000601471               0.999999996               0.000045029               0.000627886               0.999999996               0.000004673               0.000370773               0.999999996              -0.000003981               0.000368577               0.999999996              -0.000007193               0.000369288               0.999999996              -0.000007688               0.000373947               0.999999996              -0.000006596               0.000382220               0.999999996              -0.000004589               0.000393545               0.999999996              -0.000001996               0.000407560               0.999999996               0.000000981               0.000424018               0.999999996               0.000004484               0.000442597               0.999999996               0.000008105               0.000462999               0.999999996               0.000011641               0.000484991               0.999999996               0.000015411               0.000508206               0.999999996               0.000019267               0.000532397               0.999999996               0.000022581               0.000557356               0.999999996               0.000024871               0.000582826               0.999999996               0.000026100               0.000608603               0.999999996               0.000026010               0.000634563               0.999999996               0.000002399               0.000376461               0.999999996              -0.000002117               0.000376650               0.999999996              -0.000003876               0.000378486               0.999999996              -0.000004276               0.000383586               0.999999996              -0.000003790               0.000391909               0.999999996              -0.000002851               0.000403009               0.999999996              -0.000001672               0.000416574               0.999999996              -0.000000195               0.000432352               0.999999996               0.000001631               0.000450282               0.999999996               0.000003455               0.000470156               0.999999996               0.000005217               0.000491660               0.999999996               0.000007170               0.000514449               0.999999996               0.000009119               0.000538365               0.999999996               0.000010742               0.000563205               0.999999996               0.000011743               0.000588666               0.999999996               0.000011969               0.000614465               0.999999996               0.000011412               0.000640356               0.999999996               0.000000000               0.000378372               0.999999996              -0.000000000               0.000379397               0.999999996               0.000000000               0.000381689               0.999999996              -0.000000000               0.000386986               0.999999996              -0.000000000               0.000395314               0.999999996              -0.000000000               0.000406352               0.999999996              -0.000000000               0.000419756               0.999999996              -0.000000000               0.000435245               0.999999996               0.000000000               0.000452960               0.999999996              -0.000000000               0.000472655               0.999999996               0.000000000               0.000494003               0.999999996               0.000000000               0.000516815               0.999999996               0.000000000               0.000540735               0.999999996               0.000000000               0.000565547               0.999999996              -0.000000000               0.000590974               0.999999996              -0.000000000               0.000616720               0.999999996               0.000000000               0.000642590               0.999999996 </DataArray>
<DataArray type="Float64"                                    Name="defo"                                                      NumberOfComponents=" 3" format="ascii">
             -0.000019233               0.000000000               0.999999996              -0.000034572               0.000000000               0.999999996              -0.000042284              -0.000000000               0.999999996              -0.000047032               0.000000000               0.999999996              -0.000050795               0.000000000               0.999999996              -0.000054426              -0.000000000               0.999999996              -0.000058280              -0.000000000               0.999999996              -0.000062573              -0.000000000               0.999999996              -0.000067466              -0.000000000               0.999999996              -0.000072988              -0.000000000               0.999999996              -0.000079029              -0.000000000               0.999999996              -0.000085682               0.000000000               0.999999996              -0.000092976               0.000000000               0.999999996              -0.000100883               0.000000000               0.999999996              -0.000109367               0.000000000               0.999999996              -0.000118410               0.000000000               0.999999996              -0.000127995               0.000000000               0.999999996              -0.000019129               0.000037706               0.999999996              -0.000033841               0.000033538               0.999999996              -0.000041177               0.000032554               0.999999996              -0.000045735               0.000033333               0.999999996              -0.000049399               0.000035110               0.999999996              -0.000053055               0.000037551               0.999999996              -0.000057030               0.000040488               0.999999996              -0.000061487               0.000043825               0.999999996              -0.000066506               0.000047447               0.999999996              -0.000072084               0.000051175               0.999999996              -0.000078219               0.000055104               0.999999996              -0.000084964               0.000059221               0.999999996              -0.000092354               0.000063466               0.999999996              -0.000100355               0.000067785               0.999999996              -0.000108949               0.000072087               0.999999996              -0.000118098               0.000076321               0.999999996              -0.000127735               0.000080307               0.999999996              -0.000018782               0.000074983               0.999999996              -0.000031671               0.000066656               0.999999996              -0.000037993               0.000064839               0.999999996              -0.000042110               0.000066488               0.999999996              -0.000045692               0.000070205               0.999999996              -0.000049483               0.000075255               0.999999996              -0.000053714               0.000081203               0.999999996              -0.000058465               0.000087896               0.999999996              -0.000063830               0.000095096               0.999999996              -0.000069764               0.000102579               0.999999996              -0.000076262               0.000110447               0.999999996              -0.000083375               0.000118720               0.999999996              -0.000091113               0.000127265               0.999999996              -0.000099436               0.000135959               0.999999996              -0.000108311               0.000144622               0.999999996              -0.000117685               0.000153237               0.999999996              -0.000127551               0.000161632               0.999999996              -0.000018213               0.000111360               0.999999996              -0.000028159               0.000098977               0.999999996              -0.000033049               0.000096624               0.999999996              -0.000036699               0.000099477               0.999999996              -0.000040291               0.000105324               0.999999996              -0.000044351               0.000113086               0.999999996              -0.000049057               0.000122156               0.999999996              -0.000054370               0.000132180               0.999999996              -0.000060310               0.000143008               0.999999996              -0.000066933               0.000154238               0.999999996              -0.000074186               0.000165998               0.999999996              -0.000082042               0.000178394               0.999999996              -0.000090482               0.000191219               0.999999996              -0.000099424               0.000204250               0.999999996              -0.000108856               0.000217359               0.999999996              -0.000118772               0.000230617               0.999999996              -0.000129240               0.000244121               0.999999996              -0.000017377               0.000146420               0.999999996              -0.000023552               0.000130254               0.999999996              -0.000026980               0.000127754               0.999999996              -0.000030233               0.000132089               0.999999996              -0.000034030               0.000140269               0.999999996              -0.000038621               0.000150846               0.999999996              -0.000043952               0.000163031               0.999999996              -0.000050113               0.000176455               0.999999996              -0.000057063               0.000190886               0.999999996              -0.000064757               0.000205985               0.999999996              -0.000073114               0.000221657               0.999999996              -0.000082055               0.000238081               0.999999996              -0.000091498               0.000255092               0.999999996              -0.000101411               0.000272517               0.999999996              -0.000111809               0.000290327               0.999999996              -0.000122777               0.000308653               0.999999996              -0.000134422               0.000327716               0.999999996              -0.000016365               0.000179809               0.999999996              -0.000018261               0.000160313               0.999999996              -0.000020312               0.000158089               0.999999996              -0.000023482               0.000164092               0.999999996              -0.000027850               0.000174736               0.999999996              -0.000033234               0.000188115               0.999999996              -0.000039647               0.000203464               0.999999996              -0.000046987               0.000220326               0.999999996              -0.000055136               0.000238398               0.999999996              -0.000064086               0.000257494               0.999999996              -0.000073747               0.000277189               0.999999996              -0.000084006               0.000297665               0.999999996              -0.000094810               0.000318935               0.999999996              -0.000106114               0.000340840               0.999999996              -0.000118021               0.000363528               0.999999996              -0.000130598               0.000387068               0.999999996              -0.000143767               0.000411667               0.999999996              -0.000015292               0.000211205               0.999999996              -0.000012608               0.000189020               0.999999996              -0.000013611               0.000187394               0.999999996              -0.000017138               0.000195259               0.999999996              -0.000022431               0.000208329               0.999999996              -0.000028964               0.000224504               0.999999996              -0.000036645               0.000243203               0.999999996              -0.000045306               0.000263597               0.999999996              -0.000054915               0.000285451               0.999999996              -0.000065393               0.000308510               0.999999996              -0.000076656               0.000332276               0.999999996              -0.000088525               0.000356834               0.999999996              -0.000101020               0.000382385               0.999999996              -0.000114087               0.000408897               0.999999996              -0.000127742               0.000436414               0.999999996              -0.000141837               0.000464858               0.999999996              -0.000156103               0.000493861               0.999999996              -0.000014096               0.000240318               0.999999996              -0.000006916               0.000216312               0.999999996              -0.000007443               0.000215501               0.999999996              -0.000011780               0.000225190               0.999999996              -0.000018232               0.000240711               0.999999996              -0.000026074               0.000259857               0.999999996              -0.000035160               0.000281925               0.999999996              -0.000045364               0.000305987               0.999999996              -0.000056715               0.000331658               0.999999996              -0.000068934               0.000358750               0.999999996              -0.000081838               0.000386679               0.999999996              -0.000095331               0.000415463               0.999999996              -0.000109352               0.000445357               0.999999996              -0.000123818               0.000476367               0.999999996              -0.000138598               0.000508346               0.999999996              -0.000153409               0.000540933               0.999999996              -0.000167992               0.000573446               0.999999996              -0.000012985               0.000266641               0.999999996              -0.000001543               0.000242100               0.999999996              -0.000002231               0.000242219               0.999999996              -0.000007610               0.000253711               0.999999996              -0.000015403               0.000271694               0.999999996              -0.000024611               0.000293912               0.999999996              -0.000035305               0.000319399               0.999999996              -0.000047280               0.000347301               0.999999996              -0.000060348               0.000377003               0.999999996              -0.000074088               0.000408052               0.999999996              -0.000088287               0.000440098               0.999999996              -0.000102903               0.000473106               0.999999996              -0.000117933               0.000507343               0.999999996              -0.000133260               0.000542558               0.999999996              -0.000148719               0.000578488               0.999999996              -0.000164192               0.000614613               0.999999996              -0.000179523               0.000650470               0.999999996              -0.000012277               0.000291125               0.999999996               0.000002134               0.000268782               0.999999996               0.000002968               0.000266459               0.999999996              -0.000001376               0.000275019               0.999999996              -0.000008174               0.000290096               0.999999996              -0.000016392               0.000309509               0.999999996              -0.000025917               0.000332203               0.999999996              -0.000036726               0.000357588               0.999999996              -0.000048398               0.000384954               0.999999996              -0.000060608               0.000413769               0.999999996              -0.000073079               0.000443579               0.999999996              -0.000085732               0.000474175               0.999999996              -0.000098602               0.000505605               0.999999996              -0.000111627               0.000537923               0.999999996              -0.000124889               0.000571102               0.999999996              -0.000138526               0.000604832               0.999999996              -0.000152518               0.000638850               0.999999996              -0.000011262               0.000313169               0.999999996               0.000004606               0.000294119               0.999999996               0.000006914               0.000290813               0.999999996               0.000003829               0.000297116               0.999999996              -0.000001788               0.000309583               0.999999996              -0.000008942               0.000326357               0.999999996              -0.000017260               0.000346467               0.999999996              -0.000026704               0.000369362               0.999999996              -0.000036884               0.000394413               0.999999996              -0.000047585               0.000421022               0.999999996              -0.000058465               0.000448729               0.999999996              -0.000069329               0.000477225               0.999999996              -0.000080144               0.000506305               0.999999996              -0.000090868               0.000536029               0.999999996              -0.000101687               0.000566480               0.999999996              -0.000112722               0.000597637               0.999999996              -0.000124167               0.000629384               0.999999996              -0.000010025               0.000332397               0.999999996               0.000005906               0.000317546               0.999999996               0.000009359               0.000314364               0.999999996               0.000007567               0.000319258               0.999999996               0.000003210               0.000329691               0.999999996              -0.000002625               0.000344277               0.999999996              -0.000009642               0.000362145               0.999999996              -0.000017645               0.000382734               0.999999996              -0.000026256               0.000405551               0.999999996              -0.000035272               0.000430133               0.999999996              -0.000044472               0.000455976               0.999999996              -0.000053761               0.000482550               0.999999996              -0.000062737               0.000509691               0.999999996              -0.000071253               0.000537335               0.999999996              -0.000079501               0.000565549               0.999999996              -0.000087699               0.000594361               0.999999996              -0.000095825               0.000623851               0.999999996              -0.000008512               0.000348570               0.999999996               0.000006114               0.000338328               0.999999996               0.000010185               0.000336086               0.999999996               0.000009520               0.000340333               0.999999996               0.000006504               0.000349451               0.999999996               0.000001971               0.000362367               0.999999996              -0.000003653               0.000378443               0.999999996              -0.000010076               0.000397228               0.999999996              -0.000016979               0.000418251               0.999999996              -0.000024118               0.000441028               0.999999996              -0.000031605               0.000465177               0.999999996              -0.000039131               0.000490296               0.999999996              -0.000046318               0.000516060               0.999999996              -0.000052911               0.000542211               0.999999996              -0.000058899               0.000568748               0.999999996              -0.000064216               0.000595785               0.999999996              -0.000068838               0.000623417               0.999999996              -0.000006724               0.000361423               0.999999996               0.000005378               0.000355577               0.999999996               0.000009396               0.000354770               0.999999996               0.000009548               0.000359040               0.999999996               0.000007651               0.000367488               0.999999996               0.000004438               0.000379360               0.999999996               0.000000293               0.000394162               0.999999996              -0.000004366               0.000411587               0.999999996              -0.000009529               0.000431237               0.999999996              -0.000014939               0.000452627               0.999999996              -0.000020454               0.000475456               0.999999996              -0.000026030               0.000499541               0.999999996              -0.000031523               0.000524402               0.999999996              -0.000036408               0.000549728               0.999999996              -0.000040422               0.000575427               0.999999996              -0.000043370               0.000601471               0.999999996              -0.000045029               0.000627886               0.999999996              -0.000004673               0.000370773               0.999999996               0.000003981               0.000368577               0.999999996               0.000007193               0.000369288               0.999999996               0.000007688               0.000373947               0.999999996               0.000006596               0.000382220               0.999999996               0.000004589               0.000393545               0.999999996               0.000001996               0.000407560               0.999999996              -0.000000981               0.000424018               0.999999996              -0.000004484               0.000442597               0.999999996              -0.000008105               0.000462999               0.999999996              -0.000011641               0.000484991               0.999999996              -0.000015411               0.000508206               0.999999996              -0.000019267               0.000532397               0.999999996              -0.000022581               0.000557356               0.999999996              -0.000024871               0.000582826               0.999999996              -0.000026100               0.000608603               0.999999996              -0.000026010               0.000634563               0.999999996              -0.000002399               0.000376461               0.999999996               0.000002117               0.000376650               0.999999996               0.000003876               0.000378486               0.999999996               0.000004276               0.000383586               0.999999996               0.000003790               0.000391909               0.999999996               0.000002851               0.000403009               0.999999996               0.000001672               0.000416574               0.999999996               0.000000195               0.000432352               0.999999996              -0.000001631               0.000450282               0.999999996              -0.000003455               0.000470156               0.999999996              -0.000005217               0.000491660               0.999999996              -0.000007170               0.000514449               0.999999996              -0.000009119               0.000538365               0.999999996              -0.000010742               0.000563205               0.999999996              -0.000011743               0.000588666               0.999999996              -0.000011969               0.000614465               0.999999996              -0.000011412               0.000640356               0.999999996               0.000000000               0.000378372               0.999999996              -0.000000000               0.000379397               0.999999996               0.000000000               0.000381689               0.999999996              -0.000000000               0.000386986               0.999999996              -0.000000000               0.000395314               0.999999996              -0.000000000               0.000406352               0.999999996              -0.000000000               0.000419756               0.999999996              -0.000000000               0.000435245               0.999999996               0.000000000               0.000452960               0.999999996              -0.000000000               0.000472655               0.999999996               0.000000000               0.000494003               0.999999996               0.000000000               0.000516815               0.999999996               0.000000000               0.000540735               0.999999996               0.000000000               0.000565547               0.999999996              -0.000000000               0.000590974               0.999999996              -0.000000000               0.000616720               0.999999996               0.000000000               0.000642590               0.999999996              -0.000019233               0.000000000               0.999999996              -0.000034572               0.000000000               0.999999996              -0.000042284              -0.000000000               0.999999996              -0.000047032               0.000000000               0.999999996              -0.000050795               0.000000000               0.999999996              -0.000054426              -0.000000000               0.999999996              -0.000058280              -0.000000000               0.999999996              -0.000062573              -0.000000000               0.999999996              -0.000067466              -0.000000000               0.999999996              -0.000072988              -0.000000000               0.999999996              -0.000079029              -0.000000000               0.999999996              -0.000085682               0.000000000               0.999999996              -0.000092976               0.000000000               0.999999996              -0.000100883               0.000000000               0.999999996              -0.000109367               0.000000000               0.999999996              -0.000118410               0.000000000               0.999999996              -0.000127995               0.000000000               0.999999996              -0.000019129              -0.000037706               0.999999996              -0.000033841              -0.000033538               0.999999996              -0.000041177              -0.000032554               0.999999996              -0.000045735              -0.000033333               0.999999996              -0.000049399              -0.000035110               0.999999996              -0.000053055              -0.000037551               0.999999996              -0.000057030              -0.000040488               0.999999996              -0.000061487              -0.000043825               0.999999996              -0.000066506              -0.000047447               0.999999996              -0.000072084              -0.000051175               0.999999996              -0.000078219              -0.000055104               0.999999996              -0.000084964              -0.000059221               0.999999996              -0.000092354              -0.000063466               0.999999996              -0.000100355              -0.000067785               0.999999996              -0.000108949              -0.000072087               0.999999996              -0.000118098              -0.000076321               0.999999996              -0.000127735              -0.000080307               0.999999996              -0.000018782              -0.000074983               0.999999996              -0.000031671              -0.000066656               0.999999996              -0.000037993              -0.000064839               0.999999996              -0.000042110              -0.000066488               0.999999996              -0.000045692              -0.000070205               0.999999996              -0.000049483              -0.000075255               0.999999996              -0.000053714              -0.000081203               0.999999996              -0.000058465              -0.000087896               0.999999996              -0.000063830              -0.000095096               0.999999996              -0.000069764              -0.000102579               0.999999996              -0.000076262              -0.000110447               0.999999996              -0.000083375              -0.000118720               0.999999996              -0.000091113              -0.000127265               0.999999996              -0.000099436              -0.000135959               0.999999996              -0.000108311              -0.000144622               0.999999996              -0.000117685              -0.000153237               0.999999996              -0.000127551              -0.000161632               0.999999996              -0.000018213              -0.000111360               0.999999996              -0.000028159              -0.000098977               0.999999996              -0.000033049              -0.000096624               0.999999996              -0.000036699              -0.000099477               0.999999996              -0.000040291              -0.000105324               0.999999996              -0.000044351              -0.000113086               0.999999996              -0.000049057              -0.000122156               0.999999996              -0.000054370              -0.000132180               0.999999996              -0.000060310              -0.000143008               0.999999996              -0.000066933              -0.000154238               0.999999996              -0.000074186              -0.000165998               0.999999996              -0.000082042              -0.000178394               0.999999996              -0.000090482              -0.000191219               0.999999996              -0.000099424              -0.000204250               0.999999996              -0.000108856              -0.000217359               0.999999996              -0.000118772              -0.000230617               0.999999996              -0.000129240              -0.000244121               0.999999996              -0.000017377              -0.000146420               0.999999996              -0.000023552              -0.000130254               0.999999996              -0.000026980              -0.000127754               0.999999996              -0.000030233              -0.000132089               0.999999996              -0.000034030              -0.000140269               0.999999996              -0.000038621              -0.000150846               0.999999996              -0.000043952              -0.000163031               0.999999996              -0.000050113              -0.000176455               0.999999996              -0.000057063              -0.000190886               0.999999996              -0.000064757              -0.000205985               0.999999996              -0.000073114              -0.000221657               0.999999996              -0.000082055              -0.000238081               0.999999996              -0.000091498              -0.000255092               0.999999996              -0.000101411              -0.000272517               0.999999996              -0.000111809              -0.000290327               0.999999996              -0.000122777              -0.000308653               0.999999996              -0.000134422              -0.000327716               0.999999996              -0.000016365              -0.000179809               0.999999996              -0.000018261              -0.000160313               0.999999996              -0.000020312              -0.000158089               0.999999996              -0.000023482              -0.000164092               0.999999996              -0.000027850              -0.000174736               0.999999996              -0.000033234              -0.000188115               0.999999996              -0.000039647              -0.000203464               0.999999996              -0.000046987              -0.000220326               0.999999996              -0.000055136              -0.000238398               0.999999996              -0.000064086              -0.000257494               0.999999996              -0.000073747              -0.000277189               0.999999996              -0.000084006              -0.000297665               0.999999996              -0.000094810              -0.000318935               0.999999996              -0.000106114              -0.000340840               0.999999996              -0.000118021              -0.000363528               0.999999996              -0.000130598              -0.000387068               0.999999996              -0.000143767              -0.000411667               0.999999996              -0.000015292              -0.000211205               0.999999996              -0.000012608              -0.000189020               0.999999996              -0.000013611              -0.000187394               0.999999996              -0.000017138              -0.000195259               0.999999996              -0.000022431              -0.000208329               0.999999996              -0.000028964              -0.000224504               0.999999996              -0.000036645              -0.000243203               0.999999996              -0.000045306              -0.000263597               0.999999996              -0.000054915              -0.000285451               0.999999996              -0.000065393              -0.000308510               0.999999996              -0.000076656              -0.000332276               0.999999996              -0.000088525              -0.000356834               0.999999996              -0.000101020              -0.000382385               0.999999996              -0.000114087              -0.000408897               0.999999996              -0.000127742              -0.000436414               0.999999996              -0.000141837              -0.000464858               0.999999996              -0.000156103              -0.000493861               0.999999996              -0.000014096              -0.000240318               0.999999996              -0.000006916              -0.000216312               0.999999996              -0.000007443              -0.000215501               0.999999996              -0.000011780              -0.000225190               0.999999996              -0.000018232              -0.000240711               0.999999996              -0.000026074              -0.000259857               0.999999996              -0.000035160              -0.000281925               0.999999996              -0.000045364              -0.000305987               0.999999996              -0.000056715              -0.000331658               0.999999996              -0.000068934              -0.000358750               0.999999996              -0.000081838              -0.000386679               0.999999996              -0.000095331              -0.000415463               0.999999996              -0.000109352              -0.000445357               0.999999996              -0.000123818              -0.000476367               0.999999996              -0.000138598              -0.000508346               0.999999996              -0.000153409              -0.000540933               0.999999996              -0.000167992              -0.000573446               0.999999996              -0.000012985              -0.000266641               0.999999996              -0.000001543              -0.000242100               0.999999996              -0.000002231              -0.000242219               0.999999996              -0.000007610              -0.000253711               0.999999996              -0.000015403              -0.000271694               0.999999996              -0.000024611              -0.000293912               0.999999996              -0.000035305              -0.000319399               0.999999996              -0.000047280              -0.000347301               0.999999996              -0.000060348              -0.000377003               0.999999996              -0.000074088              -0.000408052               0.999999996              -0.000088287              -0.000440098               0.999999996              -0.000102903              -0.000473106               0.999999996              -0.000117933              -0.000507343               0.999999996              -0.000133260              -0.000542558               0.999999996              -0.000148719              -0.000578488               0.999999996              -0.000164192              -0.000614613               0.999999996              -0.000179523              -0.000650470               0.999999996              -0.000012277              -0.000291125               0.999999996               0.000002134              -0.000268782               0.999999996               0.000002968              -0.000266459               0.999999996              -0.000001376              -0.000275019               0.999999996              -0.000008174              -0.000290096               0.999999996              -0.000016392              -0.000309509               0.999999996              -0.000025917              -0.000332203               0.999999996              -0.000036726              -0.000357588               0.999999996              -0.000048398              -0.000384954               0.999999996              -0.000060608              -0.000413769               0.999999996              -0.000073079              -0.000443579               0.999999996              -0.000085732              -0.000474175               0.999999996              -0.000098602              -0.000505605               0.999999996              -0.000111627              -0.000537923               0.999999996              -0.000124889              -0.000571102               0.999999996              -0.000138526              -0.000604832               0.999999996              -0.000152518              -0.000638850               0.999999996              -0.000011262              -0.000313169               0.999999996               0.000004606              -0.000294119               0.999999996               0.000006914              -0.000290813               0.999999996               0.000003829              -0.000297116               0.999999996              -0.000001788              -0.000309583               0.999999996              -0.000008942              -0.000326357               0.999999996              -0.000017260              -0.000346467               0.999999996              -0.000026704              -0.000369362               0.999999996              -0.000036884              -0.000394413               0.999999996              -0.000047585              -0.000421022               0.999999996              -0.000058465              -0.000448729               0.999999996              -0.000069329              -0.000477225               0.999999996              -0.000080144              -0.000506305               0.999999996              -0.000090868              -0.000536029               0.999999996              -0.000101687              -0.000566480               0.999999996              -0.000112722              -0.000597637               0.999999996              -0.000124167              -0.000629384               0.999999996              -0.000010025              -0.000332397               0.999999996               0.000005906              -0.000317546               0.999999996               0.000009359              -0.000314364               0.999999996               0.000007567              -0.000319258               0.999999996               0.000003210              -0.000329691               0.999999996              -0.000002625              -0.000344277               0.999999996              -0.000009642              -0.000362145               0.999999996              -0.000017645              -0.000382734               0.999999996              -0.000026256              -0.000405551               0.999999996              -0.000035272              -0.000430133               0.999999996              -0.000044472              -0.000455976               0.999999996              -0.000053761              -0.000482550               0.999999996              -0.000062737              -0.000509691               0.999999996              -0.000071253              -0.000537335               0.999999996              -0.000079501              -0.000565549               0.999999996              -0.000087699              -0.000594361               0.999999996              -0.000095825              -0.000623851               0.999999996              -0.000008512              -0.000348570               0.999999996               0.000006114              -0.000338328               0.999999996               0.000010185              -0.000336086               0.999999996               0.000009520              -0.000340333               0.999999996               0.000006504              -0.000349451               0.999999996               0.000001971              -0.000362367               0.999999996              -0.000003653              -0.000378443               0.999999996              -0.000010076              -0.000397228               0.999999996              -0.000016979              -0.000418251               0.999999996              -0.000024118              -0.000441028               0.999999996              -0.000031605              -0.000465177               0.999999996              -0.000039131              -0.000490296               0.999999996              -0.000046318              -0.000516060               0.999999996              -0.000052911              -0.000542211               0.999999996              -0.000058899              -0.000568748               0.999999996              -0.000064216              -0.000595785               0.999999996              -0.000068838              -0.000623417               0.999999996              -0.000006724              -0.000361423               0.999999996               0.000005378              -0.000355577               0.999999996               0.000009396              -0.000354770               0.999999996               0.000009548              -0.000359040               0.999999996               0.000007651              -0.000367488               0.999999996               0.000004438              -0.000379360               0.999999996               0.000000293              -0.000394162               0.999999996              -0.000004366              -0.000411587               0.999999996              -0.000009529              -0.000431237               0.999999996              -0.000014939              -0.000452627               0.999999996              -0.000020454              -0.000475456               0.999999996              -0.000026030              -0.000499541               0.999999996              -0.000031523              -0.000524402               0.999999996              -0.000036408              -0.000549728               0.999999996              -0.000040422              -0.000575427               0.999999996              -0.000043370              -0.000601471               0.999999996              -0.000045029              -0.000627886               0.999999996              -0.000004673              -0.000370773               0.999999996               0.000003981              -0.000368577               0.999999996               0.000007193              -0.000369288               0.999999996               0.000007688              -0.000373947               0.999999996               0.000006596              -0.000382220               0.999999996               0.000004589              -0.000393545               0.999999996               0.000001996              -0.000407560               0.999999996              -0.000000981              -0.000424018               0.999999996              -0.000004484              -0.000442597               0.999999996              -0.000008105              -0.000462999               0.999999996              -0.000011641              -0.000484991               0.999999996              -0.000015411              -0.000508206               0.999999996              -0.000019267              -0.000532397               0.999999996              -0.000022581              -0.000557356               0.999999996              -0.000024871              -0.000582826               0.999999996              -0.000026100              -0.000608603               0.999999996              -0.000026010              -0.000634563               0.999999996              -0.000002399              -0.000376461               0.999999996               0.000002117              -0.000376650               0.999999996               0.000003876              -0.000378486               0.999999996               0.000004276              -0.000383586               0.999999996               0.000003790              -0.000391909               0.999999996               0.000002851              -0.000403009               0.999999996               0.000001672              -0.000416574               0.999999996               0.000000195              -0.000432352               0.999999996              -0.000001631              -0.000450282               0.999999996              -0.000003455              -0.000470156               0.999999996              -0.000005217              -0.000491660               0.999999996              -0.000007170              -0.000514449               0.999999996              -0.000009119              -0.000538365               0.999999996              -0.000010742              -0.000563205               0.999999996              -0.000011743              -0.000588666               0.999999996              -0.000011969              -0.000614465               0.999999996              -0.000011412              -0.000640356               0.999999996              -0.000000000              -0.000378372               0.999999996              -0.000000000              -0.000379397               0.999999996              -0.000000000              -0.000381689               0.999999996              -0.000000000              -0.000386986               0.999999996              -0.000000000              -0.000395314               0.999999996               0.000000000              -0.000406352               0.999999996               0.000000000              -0.000419756               0.999999996               0.000000000              -0.000435245               0.999999996               0.000000000              -0.000452960               0.999999996               0.000000000              -0.000472655               0.999999996               0.000000000              -0.000494003               0.999999996              -0.000000000              -0.000516815               0.999999996              -0.000000000              -0.000540735               0.999999996              -0.000000000              -0.000565547               0.999999996              -0.000000000              -0.000590974               0.999999996              -0.000000000              -0.000616720               0.999999996              -0.000000000              -0.000642590               0.999999996               0.000019233              -0.000000000               0.999999996               0.000034572              -0.000000000               0.999999996               0.000042284              -0.000000000               0.999999996               0.000047032              -0.000000000               0.999999996               0.000050795               0.000000000               0.999999996               0.000054426               0.000000000               0.999999996               0.000058280               0.000000000               0.999999996               0.000062573              -0.000000000               0.999999996               0.000067466              -0.000000000               0.999999996               0.000072988               0.000000000               0.999999996               0.000079029               0.000000000               0.999999996               0.000085682               0.000000000               0.999999996               0.000092976               0.000000000               0.999999996               0.000100883               0.000000000               0.999999996               0.000109367               0.000000000               0.999999996               0.000118410               0.000000000               0.999999996               0.000127995               0.000000000               0.999999996               0.000019129              -0.000037706               0.999999996               0.000033841              -0.000033538               0.999999996               0.000041177              -0.000032554               0.999999996               0.000045735              -0.000033333               0.999999996               0.000049399              -0.000035110               0.999999996               0.000053055              -0.000037551               0.999999996               0.000057030              -0.000040488               0.999999996               0.000061487              -0.000043825               0.999999996               0.000066506              -0.000047447               0.999999996               0.000072084              -0.000051175               0.999999996               0.000078219              -0.000055104               0.999999996               0.000084964              -0.000059221               0.999999996               0.000092354              -0.000063466               0.999999996               0.000100355              -0.000067785               0.999999996               0.000108949              -0.000072087               0.999999996               0.000118098              -0.000076321               0.999999996               0.000127735              -0.000080307               0.999999996               0.000018782              -0.000074983               0.999999996               0.000031671              -0.000066656               0.999999996               0.000037993              -0.000064839               0.999999996               0.000042110              -0.000066488               0.999999996               0.000045692              -0.000070205               0.999999996               0.000049483              -0.000075255               0.999999996               0.000053714              -0.000081203               0.999999996               0.000058465              -0.000087896               0.999999996               0.000063830              -0.000095096               0.999999996               0.000069764              -0.000102579               0.999999996               0.000076262              -0.000110447               0.999999996               0.000083375              -0.000118720               0.999999996               0.000091113              -0.000127265               0.999999996               0.000099436              -0.000135959               0.999999996               0.000108311              -0.000144622               0.999999996               0.000117685              -0.000153237               0.999999996               0.000127551              -0.000161632               0.999999996               0.000018213              -0.000111360               0.999999996               0.000028159              -0.000098977               0.999999996               0.000033049              -0.000096624               0.999999996               0.000036699              -0.000099477               0.999999996               0.000040291              -0.000105324               0.999999996               0.000044351              -0.000113086               0.999999996               0.000049057              -0.000122156               0.999999996               0.000054370              -0.000132180               0.999999996               0.000060310              -0.000143008               0.999999996               0.000066933              -0.000154238               0.999999996               0.000074186              -0.000165998               0.999999996               0.000082042              -0.000178394               0.999999996               0.000090482              -0.000191219               0.999999996               0.000099424              -0.000204250               0.999999996               0.000108856              -0.000217359               0.999999996               0.000118772              -0.000230617               0.999999996               0.000129240              -0.000244121               0.999999996               0.000017377              -0.000146420               0.999999996               0.000023552              -0.000130254               0.999999996               0.000026980              -0.000127754               0.999999996               0.000030233              -0.000132089               0.999999996               0.000034030              -0.000140269               0.999999996               0.000038621              -0.000150846               0.999999996               0.000043952              -0.000163031               0.999999996               0.000050113              -0.000176455               0.999999996               0.000057063              -0.000190886               0.999999996               0.000064757              -0.000205985               0.999999996               0.000073114              -0.000221657               0.999999996               0.000082055              -0.000238081               0.999999996               0.000091498              -0.000255092               0.999999996               0.000101411              -0.000272517               0.999999996               0.000111809              -0.000290327               0.999999996               0.000122777              -0.000308653               0.999999996               0.000134422              -0.000327716               0.999999996               0.000016365              -0.000179809               0.999999996               0.000018261              -0.000160313               0.999999996               0.000020312              -0.000158089               0.999999996               0.000023482              -0.000164092               0.999999996               0.000027850              -0.000174736               0.999999996               0.000033234              -0.000188115               0.999999996               0.000039647              -0.000203464               0.999999996               0.000046987              -0.000220326               0.999999996               0.000055136              -0.000238398               0.999999996               0.000064086              -0.000257494               0.999999996               0.000073747              -0.000277189               0.999999996               0.000084006              -0.000297665               0.999999996               0.000094810              -0.000318935               0.999999996               0.000106114              -0.000340840               0.999999996               0.000118021              -0.000363528               0.999999996               0.000130598              -0.000387068               0.999999996               0.000143767              -0.000411667               0.999999996               0.000015292              -0.000211205               0.999999996               0.000012608              -0.000189020               0.999999996               0.000013611              -0.000187394               0.999999996               0.000017138              -0.000195259               0.999999996               0.000022431              -0.000208329               0.999999996               0.000028964              -0.000224504               0.999999996               0.000036645              -0.000243203               0.999999996               0.000045306              -0.000263597               0.999999996               0.000054915              -0.000285451               0.999999996               0.000065393              -0.000308510               0.999999996               0.000076656              -0.000332276               0.999999996               0.000088525              -0.000356834               0.999999996               0.000101020              -0.000382385               0.999999996               0.000114087              -0.000408897               0.999999996               0.000127742              -0.000436414               0.999999996               0.000141837              -0.000464858               0.999999996               0.000156103              -0.000493861               0.999999996               0.000014096              -0.000240318               0.999999996               0.000006916              -0.000216312               0.999999996               0.000007443              -0.000215501               0.999999996               0.000011780              -0.000225190               0.999999996               0.000018232              -0.000240711               0.999999996               0.000026074              -0.000259857               0.999999996               0.000035160              -0.000281925               0.999999996               0.000045364              -0.000305987               0.999999996               0.000056715              -0.000331658               0.999999996               0.000068934              -0.000358750               0.999999996               0.000081838              -0.000386679               0.999999996               0.000095331              -0.000415463               0.999999996               0.000109352              -0.000445357               0.999999996               0.000123818              -0.000476367               0.999999996               0.000138598              -0.000508346               0.999999996               0.000153409              -0.000540933               0.999999996               0.000167992              -0.000573446               0.999999996               0.000012985              -0.000266641               0.999999996               0.000001543              -0.000242100               0.999999996               0.000002231              -0.000242219               0.999999996               0.000007610              -0.000253711               0.999999996               0.000015403              -0.000271694               0.999999996               0.000024611              -0.000293912               0.999999996               0.000035305              -0.000319399               0.999999996               0.000047280              -0.000347301               0.999999996               0.000060348              -0.000377003               0.999999996               0.000074088              -0.000408052               0.999999996               0.000088287              -0.000440098               0.999999996               0.000102903              -0.000473106               0.999999996               0.000117933              -0.000507343               0.999999996               0.000133260              -0.000542558               0.999999996               0.000148719              -0.000578488               0.999999996               0.000164192              -0.000614613               0.999999996               0.000179523              -0.000650470               0.999999996               0.000012277              -0.000291125               0.999999996              -0.000002134              -0.000268782               0.999999996              -0.000002968              -0.000266459               0.999999996               0.000001376              -0.000275019               0.999999996               0.000008174              -0.000290096               0.999999996               0.000016392              -0.000309509               0.999999996               0.000025917              -0.000332203               0.999999996               0.000036726              -0.000357588               0.999999996               0.000048398              -0.000384954               0.999999996               0.000060608              -0.000413769               0.999999996               0.000073079              -0.000443579               0.999999996               0.000085732              -0.000474175               0.999999996               0.000098602              -0.000505605               0.999999996               0.000111627              -0.000537923               0.999999996               0.000124889              -0.000571102               0.999999996               0.000138526              -0.000604832               0.999999996               0.000152518              -0.000638850               0.999999996               0.000011262              -0.000313169               0.999999996              -0.000004606              -0.000294119               0.999999996              -0.000006914              -0.000290813               0.999999996              -0.000003829              -0.000297116               0.999999996               0.000001788              -0.000309583               0.999999996               0.000008942              -0.000326357               0.999999996               0.000017260              -0.000346467               0.999999996               0.000026704              -0.000369362               0.999999996               0.000036884              -0.000394413               0.999999996               0.000047585              -0.000421022               0.999999996               0.000058465              -0.000448729               0.999999996               0.000069329              -0.000477225               0.999999996               0.000080144              -0.000506305               0.999999996               0.000090868              -0.000536029               0.999999996               0.000101687              -0.000566480               0.999999996               0.000112722              -0.000597637               0.999999996               0.000124167              -0.000629384               0.999999996               0.000010025              -0.000332397               0.999999996              -0.000005906              -0.000317546               0.999999996              -0.000009359              -0.000314364               0.999999996              -0.000007567              -0.000319258               0.999999996              -0.000003210              -0.000329691               0.999999996               0.000002625              -0.000344277               0.999999996               0.000009642              -0.000362145               0.999999996               0.000017645              -0.000382734               0.999999996               0.000026256              -0.000405551               0.999999996               0.000035272              -0.000430133               0.999999996               0.000044472              -0.000455976               0.999999996               0.000053761              -0.000482550               0.999999996               0.000062737              -0.000509691               0.999999996               0.000071253              -0.000537335               0.999999996               0.000079501              -0.000565549               0.999999996               0.000087699              -0.000594361               0.999999996               0.000095825              -0.000623851               0.999999996               0.000008512              -0.000348570               0.999999996              -0.000006114              -0.000338328               0.999999996              -0.000010185              -0.000336086               0.999999996              -0.000009520              -0.000340333               0.999999996              -0.000006504              -0.000349451               0.999999996              -0.000001971              -0.000362367               0.999999996               0.000003653              -0.000378443               0.999999996               0.000010076              -0.000397228               0.999999996               0.000016979              -0.000418251               0.999999996               0.000024118              -0.000441028               0.999999996               0.000031605              -0.000465177               0.999999996               0.000039131              -0.000490296               0.999999996               0.000046318              -0.000516060               0.999999996               0.000052911              -0.000542211               0.999999996               0.000058899              -0.000568748               0.999999996               0.000064216              -0.000595785               0.999999996               0.000068838              -0.000623417               0.999999996               0.000006724              -0.000361423               0.999999996              -0.000005378              -0.000355577               0.999999996              -0.000009396              -0.000354770               0.999999996              -0.000009548              -0.000359040               0.999999996              -0.000007651              -0.000367488               0.999999996              -0.000004438              -0.000379360               0.999999996              -0.000000293              -0.000394162               0.999999996               0.000004366              -0.000411587               0.999999996               0.000009529              -0.000431237               0.999999996               0.000014939              -0.000452627               0.999999996               0.000020454              -0.000475456               0.999999996               0.000026030              -0.000499541               0.999999996               0.000031523              -0.000524402               0.999999996               0.000036408              -0.000549728               0.999999996               0.000040422              -0.000575427               0.999999996               0.000043370              -0.000601471               0.999999996               0.000045029              -0.000627886               0.999999996               0.000004673              -0.000370773               0.999999996              -0.000003981              -0.000368577               0.999999996              -0.000007193              -0.000369288               0.999999996              -0.000007688              -0.000373947               0.999999996              -0.000006596              -0.000382220               0.999999996              -0.000004589              -0.000393545               0.999999996              -0.000001996              -0.000407560               0.999999996               0.000000981              -0.000424018               0.999999996               0.000004484              -0.000442597               0.999999996               0.000008105              -0.000462999               0.999999996               0.000011641              -0.000484991               0.999999996               0.000015411              -0.000508206               0.999999996               0.000019267              -0.000532397               0.999999996               0.000022581              -0.000557356               0.999999996               0.000024871              -0.000582826               0.999999996               0.000026100              -0.000608603               0.999999996               0.000026010              -0.000634563               0.999999996               0.000002399              -0.000376461               0.999999996              -0.000002117              -0.000376650               0.999999996              -0.000003876              -0.000378486               0.999999996              -0.000004276              -0.000383586               0.999999996              -0.000003790              -0.000391909               0.999999996              -0.000002851              -0.000403009               0.999999996              -0.000001672              -0.000416574               0.999999996              -0.000000195              -0.000432352               0.999999996               0.000001631              -0.000450282               0.999999996               0.000003455              -0.000470156               0.999999996               0.000005217              -0.000491660               0.999999996               0.000007170              -0.000514449               0.999999996               0.000009119              -0.000538365               0.999999996               0.000010742              -0.000563205               0.999999996               0.000011743              -0.000588666               0.999999996               0.000011969              -0.000614465               0.999999996               0.000011412              -0.000640356               0.999999996              -0.000000000              -0.000378372               0.999999996              -0.000000000              -0.000379397               0.999999996              -0.000000000              -0.000381689               0.999999996              -0.000000000              -0.000386986               0.999999996              -0.000000000              -0.000395314               0.999999996               0.000000000              -0.000406352               0.999999996               0.000000000              -0.000419756               0.999999996               0.000000000              -0.000435245               0.999999996               0.000000000              -0.000452960               0.999999996               0.000000000              -0.000472655               0.999999996               0.000000000              -0.000494003               0.999999996              -0.000000000              -0.000516815               0.999999996              -0.000000000              -0.000540735               0.999999996              -0.000000000              -0.000565547               0.999999996              -0.000000000              -0.000590974               0.999999996              -0.000000000              -0.000616720               0.999999996              -0.000000000              -0.000642590               0.999999996               0.000019233              -0.000000000               0.999999996               0.000034572              -0.000000000               0.999999996               0.000042284              -0.000000000               0.999999996               0.000047032              -0.000000000               0.999999996               0.000050795               0.000000000               0.999999996               0.000054426               0.000000000               0.999999996               0.000058280               0.000000000               0.999999996               0.000062573              -0.000000000               0.999999996               0.000067466              -0.000000000               0.999999996               0.000072988               0.000000000               0.999999996               0.000079029               0.000000000               0.999999996               0.000085682               0.000000000               0.999999996               0.000092976               0.000000000               0.999999996               0.000100883               0.000000000               0.999999996               0.000109367               0.000000000               0.999999996               0.000118410               0.000000000               0.999999996               0.000127995               0.000000000               0.999999996               0.000019129               0.000037706               0.999999996               0.000033841               0.000033538               0.999999996               0.000041177               0.000032554               0.999999996               0.000045735               0.000033333               0.999999996               0.000049399               0.000035110               0.999999996               0.000053055               0.000037551               0.999999996               0.000057030               0.000040488               0.999999996               0.000061487               0.000043825               0.999999996               0.000066506               0.000047447               0.999999996               0.000072084               0.000051175               0.999999996               0.000078219               0.000055104               0.999999996               0.000084964               0.000059221               0.999999996               0.000092354               0.000063466               0.999999996               0.000100355               0.000067785               0.999999996               0.000108949               0.000072087               0.999999996               0.000118098               0.000076321               0.999999996               0.000127735               0.000080307               0.999999996               0.000018782               0.000074983               0.999999996               0.000031671               0.000066656               0.999999996               0.000037993               0.000064839               0.999999996               0.000042110               0.000066488               0.999999996               0.000045692               0.000070205               0.999999996               0.000049483               0.000075255               0.999999996               0.000053714               0.000081203               0.999999996               0.000058465               0.000087896               0.999999996               0.000063830               0.000095096               0.999999996               0.000069764               0.000102579               0.999999996               0.000076262               0.000110447               0.999999996               0.000083375               0.000118720               0.999999996               0.000091113               0.000127265               0.999999996               0.000099436               0.000135959               0.999999996               0.000108311               0.000144622               0.999999996               0.000117685               0.000153237               0.999999996               0.000127551               0.000161632               0.999999996               0.000018213               0.000111360               0.999999996               0.000028159               0.000098977               0.999999996               0.000033049               0.000096624               0.999999996               0.000036699               0.000099477               0.999999996               0.000040291               0.000105324               0.999999996               0.000044351               0.000113086               0.999999996               0.000049057               0.000122156               0.999999996               0.000054370               0.000132180               0.999999996               0.000060310               0.000143008               0.999999996               0.000066933               0.000154238               0.999999996               0.000074186               0.000165998               0.999999996               0.000082042               0.000178394               0.999999996               0.000090482               0.000191219               0.999999996               0.000099424               0.000204250               0.999999996               0.000108856               0.000217359               0.999999996               0.000118772               0.000230617               0.999999996               0.000129240               0.000244121               0.999999996               0.000017377               0.000146420               0.999999996               0.000023552               0.000130254               0.999999996               0.000026980               0.000127754               0.999999996               0.000030233               0.000132089               0.999999996               0.000034030               0.000140269               0.999999996               0.000038621               0.000150846               0.999999996               0.000043952               0.000163031               0.999999996               0.000050113               0.000176455               0.999999996               0.000057063               0.000190886               0.999999996               0.000064757               0.000205985               0.999999996               0.000073114               0.000221657               0.999999996               0.000082055               0.000238081               0.999999996               0.000091498               0.000255092               0.999999996               0.000101411               0.000272517               0.999999996               0.000111809               0.000290327               0.999999996               0.000122777               0.000308653               0.999999996               0.000134422               0.000327716               0.999999996               0.000016365               0.000179809               0.999999996               0.000018261               0.000160313               0.999999996               0.000020312               0.000158089               0.999999996               0.000023482               0.000164092               0.999999996               0.000027850               0.000174736               0.999999996               0.000033234               0.000188115               0.999999996               0.000039647               0.000203464               0.999999996               0.000046987               0.000220326               0.999999996               0.000055136               0.000238398               0.999999996               0.000064086               0.000257494               0.999999996               0.000073747               0.000277189               0.999999996               0.000084006               0.000297665               0.999999996               0.000094810               0.000318935               0.999999996               0.000106114               0.000340840               0.999999996               0.000118021               0.000363528               0.999999996               0.000130598               0.000387068               0.999999996               0.000143767               0.000411667               0.999999996               0.000015292               0.000211205               0.999999996               0.000012608               0.000189020               0.999999996               0.000013611               0.000187394               0.999999996               0.000017138               0.000195259               0.999999996               0.000022431               0.000208329               0.999999996               0.000028964               0.000224504               0.999999996               0.000036645               0.000243203               0.999999996               0.000045306               0.000263597               0.999999996               0.000054915               0.000285451               0.999999996               0.000065393               0.000308510               0.999999996               0.000076656               0.000332276               0.999999996               0.000088525               0.000356834               0.999999996               0.000101020               0.000382385               0.999999996               0.000114087               0.000408897               0.999999996               0.000127742               0.000436414               0.999999996               0.000141837               0.000464858               0.999999996               0.000156103               0.000493861               0.999999996               0.000014096               0.000240318               0.999999996               0.000006916               0.000216312               0.999999996               0.000007443               0.000215501               0.999999996               0.000011780               0.000225190               0.999999996               0.000018232               0.000240711               0.999999996               0.000026074               0.000259857               0.999999996               0.000035160               0.000281925               0.999999996               0.000045364               0.000305987               0.999999996               0.000056715               0.000331658               0.999999996               0.000068934               0.000358750               0.999999996               0.000081838               0.000386679               0.999999996               0.000095331               0.000415463               0.999999996               0.000109352               0.000445357               0.999999996               0.000123818               0.000476367               0.999999996               0.000138598               0.000508346               0.999999996               0.000153409               0.000540933               0.999999996               0.000167992               0.000573446               0.999999996               0.000012985               0.000266641               0.999999996               0.000001543               0.000242100               0.999999996               0.000002231               0.000242219               0.999999996               0.000007610               0.000253711               0.999999996               0.000015403               0.000271694               0.999999996               0.000024611               0.000293912               0.999999996               0.000035305               0.000319399               0.999999996               0.000047280               0.000347301               0.999999996               0.000060348               0.000377003               0.999999996               0.000074088               0.000408052               0.999999996               0.000088287               0.000440098               0.999999996               0.000102903               0.000473106               0.999999996               0.000117933               0.000507343               0.999999996               0.000133260               0.000542558               0.999999996               0.000148719               0.000578488               0.999999996               0.000164192               0.000614613               0.999999996               0.000179523               0.000650470               0.999999996               0.000012277               0.000291125               0.999999996              -0.000002134               0.000268782               0.999999996              -0.000002968               0.000266459               0.999999996               0.000001376               0.000275019               0.999999996               0.000008174               0.000290096               0.999999996               0.000016392               0.000309509               0.999999996               0.000025917               0.000332203               0.999999996               0.000036726               0.000357588               0.999999996               0.000048398               0.000384954               0.999999996               0.000060608               0.000413769               0.999999996               0.000073079               0.000443579               0.999999996               0.000085732               0.000474175               0.999999996               0.000098602               0.000505605               0.999999996               0.000111627               0.000537923               0.999999996               0.000124889               0.000571102               0.999999996               0.000138526               0.000604832               0.999999996               0.000152518               0.000638850               0.999999996               0.000011262               0.000313169               0.999999996              -0.000004606               0.000294119               0.999999996              -0.000006914               0.000290813               0.999999996              -0.000003829               0.000297116               0.999999996               0.000001788               0.000309583               0.999999996               0.000008942               0.000326357               0.999999996               0.000017260               0.000346467               0.999999996               0.000026704               0.000369362               0.999999996               0.000036884               0.000394413               0.999999996               0.000047585               0.000421022               0.999999996               0.000058465               0.000448729               0.999999996               0.000069329               0.000477225               0.999999996               0.000080144               0.000506305               0.999999996               0.000090868               0.000536029               0.999999996               0.000101687               0.000566480               0.999999996               0.000112722               0.000597637               0.999999996               0.000124167               0.000629384               0.999999996               0.000010025               0.000332397               0.999999996              -0.000005906               0.000317546               0.999999996              -0.000009359               0.000314364               0.999999996              -0.000007567               0.000319258               0.999999996              -0.000003210               0.000329691               0.999999996               0.000002625               0.000344277               0.999999996               0.000009642               0.000362145               0.999999996               0.000017645               0.000382734               0.999999996               0.000026256               0.000405551               0.999999996               0.000035272               0.000430133               0.999999996               0.000044472               0.000455976               0.999999996               0.000053761               0.000482550               0.999999996               0.000062737               0.000509691               0.999999996               0.000071253               0.000537335               0.999999996               0.000079501               0.000565549               0.999999996               0.000087699               0.000594361               0.999999996               0.000095825               0.000623851               0.999999996               0.000008512               0.000348570               0.999999996              -0.000006114               0.000338328               0.999999996              -0.000010185               0.000336086               0.999999996              -0.000009520               0.000340333               0.999999996              -0.000006504               0.000349451               0.999999996              -0.000001971               0.000362367               0.999999996               0.000003653               0.000378443               0.999999996               0.000010076               0.000397228               0.999999996               0.000016979               0.000418251               0.999999996               0.000024118               0.000441028               0.999999996               0.000031605               0.000465177               0.999999996               0.000039131               0.000490296               0.999999996               0.000046318               0.000516060               0.999999996               0.000052911               0.000542211               0.999999996               0.000058899               0.000568748               0.999999996               0.000064216               0.000595785               0.999999996               0.000068838               0.000623417               0.999999996               0.000006724               0.000361423               0.999999996              -0.000005378               0.000355577               0.999999996              -0.000009396               0.000354770               0.999999996              -0.000009548               0.000359040               0.999999996              -0.000007651               0.000367488               0.999999996              -0.000004438               0.000379360               0.999999996              -0.000000293               0.000394162               0.999999996               0.000004366               0.000411587               0.999999996               0.000009529               0.000431237               0.999999996               0.000014939               0.000452627               0.999999996               0.000020454               0.000475456               0.999999996               0.000026030               0.000499541               0.999999996               0.000031523               0.000524402               0.999999996               0.000036408               0.000549728               0.999999996               0.000040422               0.000575427               0.999999996               0.000043370               0.000601471               0.999999996               0.000045029               0.000627886               0.999999996               0.000004673               0.000370773               0.999999996              -0.000003981               0.000368577               0.999999996              -0.000007193               0.000369288               0.999999996              -0.000007688               0.000373947               0.999999996              -0.000006596               0.000382220               0.999999996              -0.000004589               0.000393545               0.999999996              -0.000001996               0.000407560               0.999999996               0.000000981               0.000424018               0.999999996               0.000004484               0.000442597               0.999999996               0.000008105               0.000462999               0.999999996               0.000011641               0.000484991               0.999999996               0.000015411               0.000508206               0.999999996               0.000019267               0.000532397               0.999999996               0.000022581               0.000557356               0.999999996               0.000024871               0.000582826               0.999999996               0.000026100               0.000608603               0.999999996               0.000026010               0.000634563               0.999999996               0.000002399               0.000376461               0.999999996              -0.000002117               0.000376650               0.999999996              -0.000003876               0.000378486               0.999999996              -0.000004276               0.000383586               0.999999996              -0.000003790               0.000391909               0.999999996              -0.000002851               0.000403009               0.999999996              -0.000001672               0.000416574               0.999999996              -0.000000195               0.000432352               0.999999996               0.000001631               0.000450282               0.999999996               0.000003455               0.000470156               0.999999996               0.000005217               0.000491660               0.999999996               0.000007170               0.000514449               0.999999996               0.000009119               0.000538365               0.999999996               0.000010742               0.000563205               0.999999996               0.000011743               0.000588666               0.999999996               0.000011969               0.000614465               0.999999996               0.000011412               0.000640356               0.999999996               0.000000000               0.000378372               0.999999996              -0.000000000               0.000379397               0.999999996               0.000000000               0.000381689               0.999999996              -0.000000000               0.000386986               0.999999996              -0.000000000               0.000395314               0.999999996              -0.000000000               0.000406352               0.999999996              -0.000000000               0.000419756               0.999999996              -0.000000000               0.000435245               0.999999996               0.000000000               0.000452960               0.999999996              -0.000000000               0.000472655               0.999999996               0.000000000               0.000494003               0.999999996               0.000000000               0.000516815               0.999999996               0.000000000               0.000540735               0.999999996               0.000000000               0.000565547               0.999999996              -0.000000000               0.000590974               0.999999996              -0.000000000               0.000616720               0.999999996               0.000000000               0.000642590               0.999999996 </DataArray>
<DataArray type="Float64"                                    Name="stress"                                                      NumberOfComponents="10" format="ascii">
              0.000597165               0.007062883               0.000000000              -0.000658922               0.002573912               0.001914990               0.000000000               0.000000000               0.000000000               0.000000000               0.000650993               0.005837073              -0.000000000              -0.000485511               0.002107508               0.001621998               0.000000000               0.000000000               0.000000000               0.000000000               0.000908507               0.004854389              -0.000000000              -0.000266108               0.001706816               0.001440708               0.000000000               0.000000000               0.000000000               0.000000000               0.000946129               0.004316341               0.000000000              -0.000184744               0.001500347               0.001315604               0.000000000               0.000000000               0.000000000               0.000000000               0.000897659               0.003995046              -0.000000000              -0.000162758               0.001385922               0.001223163               0.000000000               0.000000000               0.000000000               0.000000000               0.000821418               0.003795050               0.000000000              -0.000166349               0.001320454               0.001154105               0.000000000               0.000000000               0.000000000               0.000000000               0.000739173               0.003669952               0.000000000              -0.000181554               0.001283823               0.001102269               0.000000000               0.000000000               0.000000000               0.000000000               0.000653332               0.003591461              -0.000000000              -0.000203932               0.001265119               0.001061187               0.000000000               0.000000000               0.000000000               0.000000000               0.000567812               0.003540553               0.000000000              -0.000229639               0.001256719               0.001027080               0.000000000               0.000000000               0.000000000               0.000000000               0.000490734               0.003505675               0.000000000              -0.000254184               0.001253275               0.000999091               0.000000000               0.000000000               0.000000000               0.000000000               0.000417550               0.003484489               0.000000000              -0.000278979               0.001254478               0.000975499               0.000000000               0.000000000               0.000000000               0.000000000               0.000340927               0.003471963               0.000000000              -0.000306147               0.001259358               0.000953211               0.000000000               0.000000000               0.000000000               0.000000000               0.000266240               0.003465299               0.000000000              -0.000333322               0.001266195               0.000932874               0.000000000               0.000000000               0.000000000               0.000000000               0.000195837               0.003461322              -0.000000000              -0.000359225               0.001273504               0.000914279               0.000000000               0.000000000               0.000000000               0.000000000               0.000128033               0.003455586              -0.000000000              -0.000383935               0.001279829               0.000895894               0.000000000               0.000000000               0.000000000               0.000000000               0.000061780               0.003444585              -0.000000000              -0.000407405               0.001283985               0.000876580               0.000000000               0.000000000               0.000000000               0.000000000               0.000029042               0.003435944              -0.000000000              -0.000418601               0.001284837               0.000866236               0.000000000               0.000000000               0.000000000               0.000000000               0.000634815               0.006941252              -0.000529935              -0.000629600               0.002523594               0.001893994               0.000000000               0.000000000               0.000000000               0.000000000               0.000662243               0.005750819              -0.000336094              -0.000470510               0.002073757               0.001603247               0.000000000               0.000000000               0.000000000               0.000000000               0.000890497               0.004806101              -0.000135607              -0.000266825               0.001690959               0.001424134               0.000000000               0.000000000               0.000000000               0.000000000               0.000915398               0.004287381              -0.000043294              -0.000192648               0.001493329               0.001300681               0.000000000               0.000000000               0.000000000               0.000000000               0.000862577               0.003980101               0.000000174              -0.000174046               0.001384702               0.001210656               0.000000000               0.000000000               0.000000000               0.000000000               0.000784341               0.003789538               0.000020776              -0.000179564               0.001323021               0.001143457               0.000000000               0.000000000               0.000000000               0.000000000               0.000702696               0.003668789               0.000030824              -0.000195087               0.001287946               0.001092859               0.000000000               0.000000000               0.000000000               0.000000000               0.000620698               0.003592001               0.000035261              -0.000216238               0.001269401               0.001053163               0.000000000               0.000000000               0.000000000               0.000000000               0.000541776               0.003541754               0.000034400              -0.000239553               0.001260424               0.001020871               0.000000000               0.000000000               0.000000000               0.000000000               0.000469060               0.003507994               0.000033318              -0.000262601               0.001256853               0.000994252               0.000000000               0.000000000               0.000000000               0.000000000               0.000397807               0.003487285               0.000034251              -0.000286732               0.001257994               0.000971262               0.000000000               0.000000000               0.000000000               0.000000000               0.000324166               0.003476002               0.000034119              -0.000312937               0.001262968               0.000950031               0.000000000               0.000000000               0.000000000               0.000000000               0.000252516               0.003470898               0.000032141              -0.000339168               0.001270011               0.000930842               0.000000000               0.000000000               0.000000000               0.000000000               0.000184514               0.003468254               0.000027866              -0.000364338               0.001277519               0.000913181               0.000000000               0.000000000               0.000000000               0.000000000               0.000119143               0.003464161               0.000021788              -0.000388341               0.001284156               0.000895815               0.000000000               0.000000000               0.000000000               0.000000000               0.000057707               0.003457902               0.000012670              -0.000410597               0.001289488               0.000878891               0.000000000               0.000000000               0.000000000               0.000000000               0.000029010               0.003455066               0.000006518              -0.000421003               0.001292012               0.000871008               0.000000000               0.000000000               0.000000000               0.000000000               0.000735348               0.006587487              -0.001001642              -0.000547680               0.002378367               0.001830687               0.000000000               0.000000000               0.000000000               0.000000000               0.000688617               0.005502498              -0.000636522              -0.000429580               0.001977341               0.001547761               0.000000000               0.000000000               0.000000000               0.000000000               0.000835589               0.004670583              -0.000262799              -0.000270476               0.001647004               0.001376528               0.000000000               0.000000000               0.000000000               0.000000000               0.000827310               0.004212967              -0.000094534              -0.000216379               0.001476435               0.001260056               0.000000000               0.000000000               0.000000000               0.000000000               0.000765325               0.003941289              -0.000015190              -0.000205664               0.001382304               0.001176641               0.000000000               0.000000000               0.000000000               0.000000000               0.000687442               0.003771523               0.000022707              -0.000213649               0.001328378               0.001114729               0.000000000               0.000000000               0.000000000               0.000000000               0.000612635               0.003662499               0.000041463              -0.000228074               0.001296845               0.001068772               0.000000000               0.000000000               0.000000000               0.000000000               0.000539232               0.003589423               0.000050758              -0.000246465               0.001278617               0.001032152               0.000000000               0.000000000               0.000000000               0.000000000               0.000468827               0.003540783               0.000050620              -0.000266787               0.001269178               0.001002391               0.000000000               0.000000000               0.000000000               0.000000000               0.000404455               0.003508302               0.000048093              -0.000286866               0.001265044               0.000978178               0.000000000               0.000000000               0.000000000               0.000000000               0.000341138               0.003487979               0.000049130              -0.000308070               0.001265338               0.000957268               0.000000000               0.000000000               0.000000000               0.000000000               0.000276969               0.003478240               0.000048983              -0.000330916               0.001269707               0.000938791               0.000000000               0.000000000               0.000000000               0.000000000               0.000215507               0.003475422               0.000045029              -0.000353612               0.001276333               0.000922721               0.000000000               0.000000000               0.000000000               0.000000000               0.000157184               0.003475171               0.000037149              -0.000375451               0.001283529               0.000908078               0.000000000               0.000000000               0.000000000               0.000000000               0.000102037               0.003476677               0.000027647              -0.000396320               0.001290987               0.000894667               0.000000000               0.000000000               0.000000000               0.000000000               0.000050197               0.003482677               0.000016018              -0.000416510               0.001299717               0.000883208               0.000000000               0.000000000               0.000000000               0.000000000               0.000028305               0.003494323               0.000007365              -0.000426175               0.001306821               0.000880646               0.000000000               0.000000000               0.000000000               0.000000000               0.000872362               0.006044581              -0.001369227              -0.000428437               0.002157652               0.001729216               0.000000000               0.000000000               0.000000000               0.000000000               0.000719251               0.005128529              -0.000876881              -0.000371347               0.001833275               0.001461928               0.000000000               0.000000000               0.000000000               0.000000000               0.000751275               0.004471549              -0.000376806              -0.000277215               0.001582906               0.001305691               0.000000000               0.000000000               0.000000000               0.000000000               0.000701636               0.004104414              -0.000155878              -0.000249938               0.001451437               0.001201499               0.000000000               0.000000000               0.000000000               0.000000000               0.000632284               0.003880484              -0.000051798              -0.000247953               0.001376133               0.001128179               0.000000000               0.000000000               0.000000000               0.000000000               0.000557882               0.003734529              -0.000000792              -0.000257610               0.001330701               0.001073091               0.000000000               0.000000000               0.000000000               0.000000000               0.000489833               0.003637098               0.000024898              -0.000270949               0.001302670               0.001031721               0.000000000               0.000000000               0.000000000               0.000000000               0.000428823               0.003571459               0.000037624              -0.000285623               0.001285682               0.001000059               0.000000000               0.000000000               0.000000000               0.000000000               0.000369618               0.003527525               0.000038273              -0.000302333               0.001276608               0.000974274               0.000000000               0.000000000               0.000000000               0.000000000               0.000314344               0.003498952               0.000033751              -0.000319489               0.001272802               0.000953313               0.000000000               0.000000000               0.000000000               0.000000000               0.000263295               0.003480355               0.000034985              -0.000336308               0.001272209               0.000935902               0.000000000               0.000000000               0.000000000               0.000000000               0.000213997               0.003470675               0.000036617              -0.000353585               0.001274742               0.000921157               0.000000000               0.000000000               0.000000000               0.000000000               0.000168575               0.003468763               0.000032701              -0.000370379               0.001279702               0.000909324               0.000000000               0.000000000               0.000000000               0.000000000               0.000126440               0.003473307               0.000024220              -0.000386747               0.001286673               0.000899926               0.000000000               0.000000000               0.000000000               0.000000000               0.000085352               0.003485834               0.000015474              -0.000403721               0.001296507               0.000892786               0.000000000               0.000000000               0.000000000               0.000000000               0.000043358               0.003508824               0.000008768              -0.000422343               0.001310377               0.000888035               0.000000000               0.000000000               0.000000000               0.000000000               0.000028174               0.003535741               0.000002362              -0.000431401               0.001322369               0.000890968               0.000000000               0.000000000               0.000000000               0.000000000               0.001011288               0.005377722              -0.001611143              -0.000292983               0.001890217               0.001597234               0.000000000               0.000000000               0.000000000               0.000000000               0.000742530               0.004677653              -0.001048718              -0.000306258               0.001661288               0.001355030               0.000000000               0.000000000               0.000000000               0.000000000               0.000651286               0.004234727              -0.000477856              -0.000285108               0.001506598               0.001221489               0.000000000               0.000000000               0.000000000               0.000000000               0.000565198               0.003966581              -0.000228766              -0.000283873               0.001416804               0.001132932               0.000000000               0.000000000               0.000000000               0.000000000               0.000492716               0.003793651              -0.000111964              -0.000289437               0.001361017               0.001071580               0.000000000               0.000000000               0.000000000               0.000000000               0.000428519               0.003673108              -0.000053138              -0.000298443               0.001323838               0.001025395               0.000000000               0.000000000               0.000000000               0.000000000               0.000371175               0.003589843              -0.000022283              -0.000309539               0.001299782               0.000990243               0.000000000               0.000000000               0.000000000               0.000000000               0.000318579               0.003533954              -0.000006022              -0.000322276               0.001285398               0.000963122               0.000000000               0.000000000               0.000000000               0.000000000               0.000269967               0.003497393              -0.000000970              -0.000335935               0.001277764               0.000941829               0.000000000               0.000000000               0.000000000               0.000000000               0.000227277               0.003478770              -0.000004127              -0.000349616               0.001276117               0.000926501               0.000000000               0.000000000               0.000000000               0.000000000               0.000190155               0.003466851              -0.000003130              -0.000362047               0.001276288               0.000914240               0.000000000               0.000000000               0.000000000               0.000000000               0.000157535               0.003460246               0.000001309              -0.000373454               0.001277889               0.000904434               0.000000000               0.000000000               0.000000000               0.000000000               0.000129279               0.003462164               0.000000837              -0.000384290               0.001282140               0.000897850               0.000000000               0.000000000               0.000000000               0.000000000               0.000101968               0.003473811              -0.000003236              -0.000395987               0.001289921               0.000893934               0.000000000               0.000000000               0.000000000               0.000000000               0.000071953               0.003497429              -0.000006736              -0.000410195               0.001302530               0.000892335               0.000000000               0.000000000               0.000000000               0.000000000               0.000036902               0.003531704              -0.000005502              -0.000427624               0.001319764               0.000892140               0.000000000               0.000000000               0.000000000               0.000000000               0.000025875               0.003564388              -0.000007592              -0.000435844               0.001333399               0.000897555               0.000000000               0.000000000               0.000000000               0.000000000               0.001125493               0.004653257              -0.001727562              -0.000159599               0.001604269               0.001444671               0.000000000               0.000000000               0.000000000               0.000000000               0.000754495               0.004194148              -0.001151585              -0.000241333               0.001478479               0.001237146               0.000000000               0.000000000               0.000000000               0.000000000               0.000548350               0.003977853              -0.000565234              -0.000291600               0.001423138               0.001131538               0.000000000               0.000000000               0.000000000               0.000000000               0.000437261               0.003809385              -0.000311980              -0.000312200               0.001373849               0.001061649               0.000000000               0.000000000               0.000000000               0.000000000               0.000370822               0.003683398              -0.000190758              -0.000321366               0.001334909               0.001013543               0.000000000               0.000000000               0.000000000               0.000000000               0.000319052               0.003589031              -0.000126098              -0.000328984               0.001305993               0.000977009               0.000000000               0.000000000               0.000000000               0.000000000               0.000275338               0.003529141              -0.000089991              -0.000337890               0.001288999               0.000951109               0.000000000               0.000000000               0.000000000               0.000000000               0.000236979               0.003489623              -0.000068327              -0.000347335               0.001278974               0.000931639               0.000000000               0.000000000               0.000000000               0.000000000               0.000201264               0.003465784              -0.000055526              -0.000357748               0.001274499               0.000916751               0.000000000               0.000000000               0.000000000               0.000000000               0.000168747               0.003454730              -0.000053944              -0.000368560               0.001274419               0.000905858               0.000000000               0.000000000               0.000000000               0.000000000               0.000143078               0.003449247              -0.000053688              -0.000377500               0.001275571               0.000898070               0.000000000               0.000000000               0.000000000               0.000000000               0.000121562               0.003447206              -0.000046779              -0.000385314               0.001277495               0.000892181               0.000000000               0.000000000               0.000000000               0.000000000               0.000104100               0.003454095              -0.000042187              -0.000392723               0.001282261               0.000889538               0.000000000               0.000000000               0.000000000               0.000000000               0.000085171               0.003471161              -0.000039147              -0.000401955               0.001291027               0.000889072               0.000000000               0.000000000               0.000000000               0.000000000               0.000059494               0.003496071              -0.000033397              -0.000414698               0.001303578               0.000888880               0.000000000               0.000000000               0.000000000               0.000000000               0.000030919               0.003523400              -0.000021381              -0.000428829               0.001317398               0.000888569               0.000000000               0.000000000               0.000000000               0.000000000               0.000020306               0.003541330              -0.000014995              -0.000435051               0.001325449               0.000890398               0.000000000               0.000000000               0.000000000               0.000000000               0.001192267               0.003927808              -0.001727043              -0.000043878               0.001323882               0.001280004               0.000000000               0.000000000               0.000000000               0.000000000               0.000750048               0.003714703              -0.001193251              -0.000183070               0.001299245               0.001116175               0.000000000               0.000000000               0.000000000               0.000000000               0.000456425               0.003715606              -0.000642761              -0.000293291               0.001336287               0.001042996               0.000000000               0.000000000               0.000000000               0.000000000               0.000336250               0.003637189              -0.000400417              -0.000328554               0.001321902               0.000993348               0.000000000               0.000000000               0.000000000               0.000000000               0.000280847               0.003557174              -0.000277091              -0.000339328               0.001298822               0.000959494               0.000000000               0.000000000               0.000000000               0.000000000               0.000245713               0.003498615              -0.000203936              -0.000345184               0.001281254               0.000936071               0.000000000               0.000000000               0.000000000               0.000000000               0.000215569               0.003465133              -0.000158665              -0.000352302               0.001272467               0.000920165               0.000000000               0.000000000               0.000000000               0.000000000               0.000187075               0.003443433              -0.000131965              -0.000360275               0.001267891               0.000907616               0.000000000               0.000000000               0.000000000               0.000000000               0.000161690               0.003431970              -0.000114391              -0.000368361               0.001266766               0.000898404               0.000000000               0.000000000               0.000000000               0.000000000               0.000139026               0.003427416              -0.000108598              -0.000376291               0.001267891               0.000891600               0.000000000               0.000000000               0.000000000               0.000000000               0.000121099               0.003427462              -0.000106623              -0.000383020               0.001270149               0.000887130               0.000000000               0.000000000               0.000000000               0.000000000               0.000104037               0.003430116              -0.000095661              -0.000389750               0.001273277               0.000883528               0.000000000               0.000000000               0.000000000               0.000000000               0.000085111               0.003437691              -0.000080358              -0.000397794               0.001278483               0.000880690               0.000000000               0.000000000               0.000000000               0.000000000               0.000063879               0.003451203              -0.000063898              -0.000407445               0.001286205               0.000878760               0.000000000               0.000000000               0.000000000               0.000000000               0.000039324               0.003463605              -0.000044020              -0.000418203               0.001293924               0.000875721               0.000000000               0.000000000               0.000000000               0.000000000               0.000018134               0.003466256              -0.000023106              -0.000426481               0.001297567               0.000871087               0.000000000               0.000000000               0.000000000               0.000000000               0.000004911               0.003457049              -0.000010570              -0.000430289               0.001295768               0.000865479               0.000000000               0.000000000               0.000000000               0.000000000               0.001205108               0.003237284              -0.001629748               0.000047252               0.001063332               0.001110585               0.000000000               0.000000000               0.000000000               0.000000000               0.000730572               0.003264625              -0.001188274              -0.000134115               0.001132902               0.000998787               0.000000000               0.000000000               0.000000000               0.000000000               0.000386636               0.003460089              -0.000714466              -0.000287523               0.001249192               0.000961670               0.000000000               0.000000000               0.000000000               0.000000000               0.000272877               0.003461397              -0.000486052              -0.000330345               0.001263903               0.000933557               0.000000000               0.000000000               0.000000000               0.000000000               0.000233864               0.003431296              -0.000357303              -0.000341212               0.001257491               0.000916279               0.000000000               0.000000000               0.000000000               0.000000000               0.000211314               0.003410380              -0.000274703              -0.000347054               0.001252467               0.000905413               0.000000000               0.000000000               0.000000000               0.000000000               0.000189903               0.003399566              -0.000221415              -0.000353731               0.001251088               0.000897356               0.000000000               0.000000000               0.000000000               0.000000000               0.000167709               0.003396537              -0.000191570              -0.000361675               0.001252726               0.000891051               0.000000000               0.000000000               0.000000000               0.000000000               0.000147511               0.003397215              -0.000169354              -0.000369334               0.001255505               0.000886171               0.000000000               0.000000000               0.000000000               0.000000000               0.000130661               0.003396863              -0.000153769              -0.000375609               0.001257479               0.000881870               0.000000000               0.000000000               0.000000000               0.000000000               0.000110794               0.003397356              -0.000141314              -0.000383121               0.001260147               0.000877027               0.000000000               0.000000000               0.000000000               0.000000000               0.000086614               0.003399897              -0.000119361              -0.000392506               0.001264123               0.000871617               0.000000000               0.000000000               0.000000000               0.000000000               0.000059209               0.003403433              -0.000089819              -0.000403225               0.001268875               0.000865650               0.000000000               0.000000000               0.000000000               0.000000000               0.000031031               0.003402921              -0.000058288              -0.000413728               0.001272205               0.000858477               0.000000000               0.000000000               0.000000000               0.000000000               0.000007565               0.003393350              -0.000028101              -0.000421331               0.001271549               0.000850218               0.000000000               0.000000000               0.000000000               0.000000000              -0.000003105               0.003371330              -0.000007441              -0.000422580               0.001264625               0.000842046               0.000000000               0.000000000               0.000000000               0.000000000              -0.000009811               0.003348620               0.000002410              -0.000422255               0.001256947               0.000834692               0.000000000               0.000000000               0.000000000               0.000000000               0.001184621               0.002632865              -0.001471572               0.000115122               0.000839238               0.000954360               0.000000000               0.000000000               0.000000000               0.000000000               0.000719850               0.002863119              -0.001160145              -0.000087947               0.000983679               0.000895732               0.000000000               0.000000000               0.000000000               0.000000000               0.000360109               0.003227224              -0.000792966              -0.000268362               0.001165185               0.000896822               0.000000000               0.000000000               0.000000000               0.000000000               0.000255379               0.003310194              -0.000577238              -0.000318007               0.001209389               0.000891382               0.000000000               0.000000000               0.000000000               0.000000000               0.000223379               0.003329153              -0.000438840              -0.000332376               0.001220499               0.000888122               0.000000000               0.000000000               0.000000000               0.000000000               0.000205852               0.003339663              -0.000346207              -0.000340263               0.001226631               0.000886368               0.000000000               0.000000000               0.000000000               0.000000000               0.000187413               0.003350631              -0.000285501              -0.000348548               0.001233049               0.000884500               0.000000000               0.000000000               0.000000000               0.000000000               0.000174358               0.003366587              -0.000248644              -0.000355438               0.001240664               0.000885226               0.000000000               0.000000000               0.000000000               0.000000000               0.000160465               0.003378287              -0.000219319              -0.000362111               0.001246788               0.000884677               0.000000000               0.000000000               0.000000000               0.000000000               0.000143646               0.003378499              -0.000191131              -0.000368444               0.001248970               0.000880525               0.000000000               0.000000000               0.000000000               0.000000000               0.000118215               0.003373132              -0.000162996              -0.000377310               0.001250136               0.000872826               0.000000000               0.000000000               0.000000000               0.000000000               0.000085237               0.003372025              -0.000129186              -0.000389538               0.001253843               0.000864305               0.000000000               0.000000000               0.000000000               0.000000000               0.000047554               0.003369233              -0.000090266              -0.000403321               0.001257507               0.000854186               0.000000000               0.000000000               0.000000000               0.000000000               0.000008596               0.003356295              -0.000051373              -0.000416312               0.001257524               0.000841212               0.000000000               0.000000000               0.000000000               0.000000000              -0.000025338               0.003329481              -0.000019224              -0.000425686               0.001251711               0.000826025               0.000000000               0.000000000               0.000000000               0.000000000              -0.000045492               0.003288703              -0.000000460              -0.000428146               0.001238939               0.000810792               0.000000000               0.000000000               0.000000000               0.000000000              -0.000050424               0.003262926               0.000005875              -0.000426774               0.001229889               0.000803115               0.000000000               0.000000000               0.000000000               0.000000000               0.001120165               0.002054210              -0.001284819               0.000163283               0.000630302               0.000793585               0.000000000               0.000000000               0.000000000               0.000000000               0.000723591               0.002401783              -0.001121887              -0.000028878               0.000810212               0.000781334               0.000000000               0.000000000               0.000000000               0.000000000               0.000383812               0.002889850              -0.000885907              -0.000217302               0.001035708               0.000818406               0.000000000               0.000000000               0.000000000               0.000000000               0.000281740               0.003072269              -0.000689289              -0.000278381               0.001116873               0.000838492               0.000000000               0.000000000               0.000000000               0.000000000               0.000244880               0.003150523              -0.000542823              -0.000301985               0.001150825               0.000848841               0.000000000               0.000000000               0.000000000               0.000000000               0.000229819               0.003199947              -0.000439505              -0.000313811               0.001171242               0.000857431               0.000000000               0.000000000               0.000000000               0.000000000               0.000216465               0.003246850              -0.000369113              -0.000324681               0.001190499               0.000865818               0.000000000               0.000000000               0.000000000               0.000000000               0.000205448               0.003290863              -0.000318932              -0.000334314               0.001208381               0.000874067               0.000000000               0.000000000               0.000000000               0.000000000               0.000189883               0.003318688              -0.000275988              -0.000343629               0.001220761               0.000877132               0.000000000               0.000000000               0.000000000               0.000000000               0.000169131               0.003326712              -0.000235652              -0.000352414               0.001226364               0.000873950               0.000000000               0.000000000               0.000000000               0.000000000               0.000140141               0.003319179              -0.000195815              -0.000362344               0.001227163               0.000864819               0.000000000               0.000000000               0.000000000               0.000000000               0.000102804               0.003309079              -0.000155520              -0.000375082               0.001228043               0.000852960               0.000000000               0.000000000               0.000000000               0.000000000               0.000057841               0.003298064              -0.000111411              -0.000390567               0.001229533               0.000838966               0.000000000               0.000000000               0.000000000               0.000000000               0.000009193               0.003287139              -0.000067511              -0.000407444               0.001231517               0.000824073               0.000000000               0.000000000               0.000000000               0.000000000              -0.000038480               0.003268974              -0.000032486              -0.000423051               0.001230664               0.000807613               0.000000000               0.000000000               0.000000000               0.000000000              -0.000080284               0.003240429              -0.000009939              -0.000435159               0.001225185               0.000790026               0.000000000               0.000000000               0.000000000               0.000000000              -0.000101475               0.003220253               0.000000222              -0.000440584               0.001220268               0.000779684               0.000000000               0.000000000               0.000000000               0.000000000               0.000990350               0.001515887              -0.001073314               0.000181893               0.000444659               0.000626552               0.000000000               0.000000000               0.000000000               0.000000000               0.000723695               0.001944349              -0.001054674               0.000028340               0.000638663               0.000667003               0.000000000               0.000000000               0.000000000               0.000000000               0.000444044               0.002518091              -0.000955146              -0.000148245               0.000888770               0.000740525               0.000000000               0.000000000               0.000000000               0.000000000               0.000344001               0.002790382              -0.000796100              -0.000219798               0.001003384               0.000783586               0.000000000               0.000000000               0.000000000               0.000000000               0.000299645               0.002932899              -0.000654423              -0.000254245               0.001062372               0.000808126               0.000000000               0.000000000               0.000000000               0.000000000               0.000277692               0.003031148              -0.000544664              -0.000274759               0.001101959               0.000827200               0.000000000               0.000000000               0.000000000               0.000000000               0.000263451               0.003118921              -0.000464041              -0.000291070               0.001136653               0.000845583               0.000000000               0.000000000               0.000000000               0.000000000               0.000247869               0.003193310              -0.000399601              -0.000306212               0.001166497               0.000860284               0.000000000               0.000000000               0.000000000               0.000000000               0.000227748               0.003244239              -0.000344033              -0.000320124               0.001188110               0.000867986               0.000000000               0.000000000               0.000000000               0.000000000               0.000203810               0.003271139              -0.000294784              -0.000332463               0.001201190               0.000868727               0.000000000               0.000000000               0.000000000               0.000000000               0.000176788               0.003277129              -0.000248451              -0.000343345               0.001206814               0.000863469               0.000000000               0.000000000               0.000000000               0.000000000               0.000144205               0.003267183              -0.000202930              -0.000354320               0.001207157               0.000852837               0.000000000               0.000000000               0.000000000               0.000000000               0.000101142               0.003252037              -0.000154126              -0.000368575               0.001206860               0.000838285               0.000000000               0.000000000               0.000000000               0.000000000               0.000048823               0.003240877              -0.000105410              -0.000386800               0.001209215               0.000822415               0.000000000               0.000000000               0.000000000               0.000000000              -0.000010458               0.003230861              -0.000062649              -0.000407778               0.001212869               0.000805091               0.000000000               0.000000000               0.000000000               0.000000000              -0.000074869               0.003218246              -0.000028017              -0.000430356               0.001216190               0.000785834               0.000000000               0.000000000               0.000000000               0.000000000              -0.000122361               0.003199989              -0.000006894              -0.000445883               0.001215280               0.000769397               0.000000000               0.000000000               0.000000000               0.000000000               0.000798932               0.001047308              -0.000843273               0.000168684               0.000292871               0.000461554               0.000000000               0.000000000               0.000000000               0.000000000               0.000694509               0.001511408              -0.000942703               0.000071513               0.000479960               0.000551473               0.000000000               0.000000000               0.000000000               0.000000000               0.000514863               0.002110516              -0.000961379              -0.000070742               0.000727079               0.000656337               0.000000000               0.000000000               0.000000000               0.000000000               0.000431449               0.002447825              -0.000852303              -0.000144185               0.000863995               0.000719810               0.000000000               0.000000000               0.000000000               0.000000000               0.000383100               0.002655857              -0.000729874              -0.000188320               0.000948050               0.000759730               0.000000000               0.000000000               0.000000000               0.000000000               0.000353794               0.002810413              -0.000625242              -0.000218629               0.001009671               0.000791042               0.000000000               0.000000000               0.000000000               0.000000000               0.000333522               0.002941561              -0.000542710              -0.000242624               0.001061385               0.000818761               0.000000000               0.000000000               0.000000000               0.000000000               0.000312343               0.003052565              -0.000471953              -0.000264442               0.001105659               0.000841217               0.000000000               0.000000000               0.000000000               0.000000000               0.000286468               0.003138166              -0.000408198              -0.000284845               0.001140993               0.000856148               0.000000000               0.000000000               0.000000000               0.000000000               0.000254459               0.003194615              -0.000352112              -0.000303904               0.001166162               0.000862258               0.000000000               0.000000000               0.000000000               0.000000000               0.000222379               0.003219609              -0.000303782              -0.000319058               0.001179545               0.000860487               0.000000000               0.000000000               0.000000000               0.000000000               0.000189444               0.003221999              -0.000255427              -0.000331707               0.001184558               0.000852851               0.000000000               0.000000000               0.000000000               0.000000000               0.000151291               0.003216198              -0.000201365              -0.000345290               0.001187152               0.000841862               0.000000000               0.000000000               0.000000000               0.000000000               0.000103790               0.003209356              -0.000146998              -0.000362247               0.001190524               0.000828276               0.000000000               0.000000000               0.000000000               0.000000000               0.000044570               0.003204857              -0.000096692              -0.000383892               0.001196239               0.000812347               0.000000000               0.000000000               0.000000000               0.000000000              -0.000028329               0.003203117              -0.000047839              -0.000411012               0.001204699               0.000793687               0.000000000               0.000000000               0.000000000               0.000000000              -0.000088651               0.003189760              -0.000015731              -0.000431963               0.001207230               0.000775267               0.000000000               0.000000000               0.000000000               0.000000000               0.000561145               0.000669021              -0.000614553               0.000126800               0.000180738               0.000307538               0.000000000               0.000000000               0.000000000               0.000000000               0.000635969               0.001117264              -0.000790525               0.000098828               0.000339474               0.000438303               0.000000000               0.000000000               0.000000000               0.000000000               0.000585623               0.001691554              -0.000895171               0.000008163               0.000561124               0.000569287               0.000000000               0.000000000               0.000000000               0.000000000               0.000536721               0.002071319              -0.000836751              -0.000057645               0.000709648               0.000652002               0.000000000               0.000000000               0.000000000               0.000000000               0.000493744               0.002335249              -0.000744614              -0.000106753               0.000813993               0.000707240               0.000000000               0.000000000               0.000000000               0.000000000               0.000460333               0.002541622              -0.000656850              -0.000145078               0.000895558               0.000750480               0.000000000               0.000000000               0.000000000               0.000000000               0.000431415               0.002719090              -0.000578978              -0.000178106               0.000965723               0.000787617               0.000000000               0.000000000               0.000000000               0.000000000               0.000399193               0.002871044              -0.000508718              -0.000209183               0.001026733               0.000817550               0.000000000               0.000000000               0.000000000               0.000000000               0.000366258               0.002991214              -0.000444667              -0.000236555               0.001075913               0.000839358               0.000000000               0.000000000               0.000000000               0.000000000               0.000329756               0.003078158              -0.000389315              -0.000261111               0.001113079               0.000851969               0.000000000               0.000000000               0.000000000               0.000000000               0.000290854               0.003136279              -0.000341933              -0.000282964               0.001139737               0.000856773               0.000000000               0.000000000               0.000000000               0.000000000               0.000252615               0.003169936              -0.000294996              -0.000301511               0.001157138               0.000855628               0.000000000               0.000000000               0.000000000               0.000000000               0.000217115               0.003182475              -0.000243365              -0.000316391               0.001166278               0.000849887               0.000000000               0.000000000               0.000000000               0.000000000               0.000178322               0.003184678              -0.000188395              -0.000331213               0.001171953               0.000840740               0.000000000               0.000000000               0.000000000               0.000000000               0.000129643               0.003188960              -0.000130963              -0.000350003               0.001179644               0.000829641               0.000000000               0.000000000               0.000000000               0.000000000               0.000064581               0.003197044              -0.000068140              -0.000375412               0.001190808               0.000815396               0.000000000               0.000000000               0.000000000               0.000000000               0.000007565               0.003189745              -0.000028786              -0.000395880               0.001195198               0.000799317               0.000000000               0.000000000               0.000000000               0.000000000               0.000306481               0.000386405              -0.000408756               0.000066629               0.000106590               0.000173219               0.000000000               0.000000000               0.000000000               0.000000000               0.000553951               0.000782715              -0.000608903               0.000109891               0.000224272               0.000334163               0.000000000               0.000000000               0.000000000               0.000000000               0.000648401               0.001302303              -0.000754824               0.000080361               0.000407309               0.000487670               0.000000000               0.000000000               0.000000000               0.000000000               0.000651326               0.001703576              -0.000739633               0.000031299               0.000557420               0.000588719               0.000000000               0.000000000               0.000000000               0.000000000               0.000626925               0.002009544              -0.000681028              -0.000016097               0.000675207               0.000659110               0.000000000               0.000000000               0.000000000               0.000000000               0.000589774               0.002255618              -0.000614570              -0.000060788               0.000772128               0.000711340               0.000000000               0.000000000               0.000000000               0.000000000               0.000548301               0.002469302              -0.000547057              -0.000103050               0.000857442               0.000754392               0.000000000               0.000000000               0.000000000               0.000000000               0.000506326               0.002655643              -0.000485138              -0.000142083               0.000932567               0.000790483               0.000000000               0.000000000               0.000000000               0.000000000               0.000468966               0.002807554              -0.000430361              -0.000175082               0.000994203               0.000819121               0.000000000               0.000000000               0.000000000               0.000000000               0.000430744               0.002927823              -0.000379600              -0.000204448               0.001044081               0.000839632               0.000000000               0.000000000               0.000000000               0.000000000               0.000387842               0.003025407              -0.000336018              -0.000232734               0.001086037               0.000853302               0.000000000               0.000000000               0.000000000               0.000000000               0.000349493               0.003095525              -0.000298213              -0.000255880               0.001117125               0.000861245               0.000000000               0.000000000               0.000000000               0.000000000               0.000317929               0.003135859              -0.000255507              -0.000272758               0.001136195               0.000863437               0.000000000               0.000000000               0.000000000               0.000000000               0.000287333               0.003160500              -0.000203454              -0.000287312               0.001149260               0.000861948               0.000000000               0.000000000               0.000000000               0.000000000               0.000250102               0.003178058              -0.000144888              -0.000303468               0.001160498               0.000857030               0.000000000               0.000000000               0.000000000               0.000000000               0.000205510               0.003191848              -0.000077798              -0.000321914               0.001171243               0.000849329               0.000000000               0.000000000               0.000000000               0.000000000               0.000168348               0.003190691              -0.000037884              -0.000335705               0.001175455               0.000839750               0.000000000               0.000000000               0.000000000               0.000000000               0.000076386               0.000198478              -0.000239373               0.000003834               0.000064880               0.000068715               0.000000000               0.000000000               0.000000000               0.000000000               0.000468940               0.000530225              -0.000410837               0.000109573               0.000140215               0.000249788               0.000000000               0.000000000               0.000000000               0.000000000               0.000698833               0.000984612              -0.000547341               0.000138984               0.000281873               0.000420857               0.000000000               0.000000000               0.000000000               0.000000000               0.000757765               0.001389890              -0.000557291               0.000110424               0.000426484               0.000536908               0.000000000               0.000000000               0.000000000               0.000000000               0.000751345               0.001719125              -0.000526341               0.000066863               0.000550748               0.000617611               0.000000000               0.000000000               0.000000000               0.000000000               0.000713985               0.001989117              -0.000480466               0.000019104               0.000656664               0.000675768               0.000000000               0.000000000               0.000000000               0.000000000               0.000665251               0.002224602              -0.000430469              -0.000028607               0.000751062               0.000722456               0.000000000               0.000000000               0.000000000               0.000000000               0.000620377               0.002434736              -0.000386420              -0.000071701               0.000835471               0.000763770               0.000000000               0.000000000               0.000000000               0.000000000               0.000579477               0.002617554              -0.000346139              -0.000109890               0.000909139               0.000799249               0.000000000               0.000000000               0.000000000               0.000000000               0.000539198               0.002774693              -0.000304520              -0.000144637               0.000973101               0.000828464               0.000000000               0.000000000               0.000000000               0.000000000               0.000498163               0.002902903              -0.000273001              -0.000176051               0.001026308               0.000850257               0.000000000               0.000000000               0.000000000               0.000000000               0.000460044               0.003001236              -0.000249888              -0.000202638               0.001067948               0.000865310               0.000000000               0.000000000               0.000000000               0.000000000               0.000426977               0.003077321              -0.000218630              -0.000224548               0.001100613               0.000876065               0.000000000               0.000000000               0.000000000               0.000000000               0.000400336               0.003133315              -0.000173441              -0.000241538               0.001124940               0.000883403               0.000000000               0.000000000               0.000000000               0.000000000               0.000377601               0.003168697              -0.000121899              -0.000254486               0.001141050               0.000886564               0.000000000               0.000000000               0.000000000               0.000000000               0.000359823               0.003188479              -0.000065490              -0.000263626               0.001150691               0.000887065               0.000000000               0.000000000               0.000000000               0.000000000               0.000351338               0.003193820              -0.000034124              -0.000267475               0.001153755               0.000886279               0.000000000               0.000000000               0.000000000               0.000000000              -0.000084471               0.000091796              -0.000107607              -0.000043151               0.000044982               0.000001831               0.000000000               0.000000000               0.000000000               0.000000000               0.000407187               0.000372813              -0.000206507               0.000106092               0.000088906               0.000194998               0.000000000               0.000000000               0.000000000               0.000000000               0.000731317               0.000775882              -0.000288593               0.000177257               0.000199539               0.000376796               0.000000000               0.000000000               0.000000000               0.000000000               0.000833079               0.001176514              -0.000301104               0.000165339               0.000337054               0.000502393               0.000000000               0.000000000               0.000000000               0.000000000               0.000837422               0.001513026              -0.000288083               0.000124904               0.000462702               0.000587606               0.000000000               0.000000000               0.000000000               0.000000000               0.000802676               0.001793406              -0.000263635               0.000076827               0.000572187               0.000649014               0.000000000               0.000000000               0.000000000               0.000000000               0.000755797               0.002037402              -0.000237338               0.000028748               0.000669544               0.000698293               0.000000000               0.000000000               0.000000000               0.000000000               0.000709017               0.002263942              -0.000215012              -0.000017111               0.000760343               0.000743232               0.000000000               0.000000000               0.000000000               0.000000000               0.000662162               0.002475108              -0.000193202              -0.000061078               0.000845387               0.000784309               0.000000000               0.000000000               0.000000000               0.000000000               0.000619396               0.002659167              -0.000169604              -0.000100122               0.000919754               0.000819632               0.000000000               0.000000000               0.000000000               0.000000000               0.000579911               0.002809761              -0.000154199              -0.000133753               0.000981162               0.000847409               0.000000000               0.000000000               0.000000000               0.000000000               0.000537808               0.002930575              -0.000144618              -0.000164643               0.001031730               0.000867086               0.000000000               0.000000000               0.000000000               0.000000000               0.000498699               0.003029849              -0.000127974              -0.000191718               0.001073846               0.000882127               0.000000000               0.000000000               0.000000000               0.000000000               0.000473267               0.003105804              -0.000101476              -0.000210750               0.001105508               0.000894758               0.000000000               0.000000000               0.000000000               0.000000000               0.000467306               0.003156347              -0.000069409              -0.000219303               0.001125206               0.000905903               0.000000000               0.000000000               0.000000000               0.000000000               0.000480943               0.003185371              -0.000035671              -0.000217817               0.001134386               0.000916568               0.000000000               0.000000000               0.000000000               0.000000000               0.000501069               0.003197812              -0.000018749              -0.000211825               0.001136535               0.000924710               0.000000000               0.000000000               0.000000000               0.000000000              -0.000142095               0.000057732              -0.000000000              -0.000060502               0.000039411              -0.000021091               0.000000000               0.000000000               0.000000000               0.000000000               0.000385068               0.000320812              -0.000000000               0.000104298               0.000072170               0.000176468               0.000000000               0.000000000               0.000000000               0.000000000               0.000741669               0.000704186               0.000000000               0.000190101               0.000171359               0.000361460               0.000000000               0.000000000               0.000000000               0.000000000               0.000859448               0.001099632               0.000000000               0.000184837               0.000304928               0.000489765               0.000000000               0.000000000               0.000000000               0.000000000               0.000868077               0.001437003               0.000000000               0.000145902               0.000430362               0.000576264               0.000000000               0.000000000               0.000000000               0.000000000               0.000835947               0.001720954               0.000000000               0.000098360               0.000540859               0.000639219               0.000000000               0.000000000               0.000000000               0.000000000               0.000791683               0.001966231              -0.000000000               0.000051102               0.000638370               0.000689472               0.000000000               0.000000000               0.000000000               0.000000000               0.000742959               0.002199372               0.000000000               0.000003688               0.000731887               0.000735575               0.000000000               0.000000000               0.000000000               0.000000000               0.000691740               0.002422366              -0.000000000              -0.000043393               0.000821912               0.000778518               0.000000000               0.000000000               0.000000000               0.000000000               0.000646579               0.002615434              -0.000000000              -0.000084462               0.000899957               0.000815495               0.000000000               0.000000000               0.000000000               0.000000000               0.000607327               0.002778289               0.000000000              -0.000119538               0.000965933               0.000846395               0.000000000               0.000000000               0.000000000               0.000000000               0.000563042               0.002909008              -0.000000000              -0.000152485               0.001020488               0.000868003               0.000000000               0.000000000               0.000000000               0.000000000               0.000521620               0.003011764              -0.000000000              -0.000180862               0.001064199               0.000883336               0.000000000               0.000000000               0.000000000               0.000000000               0.000497400               0.003091346              -0.000000000              -0.000199893               0.001097069               0.000897177               0.000000000               0.000000000               0.000000000               0.000000000               0.000498706               0.003145902              -0.000000000              -0.000206222               0.001117364               0.000911142               0.000000000               0.000000000               0.000000000               0.000000000               0.000528951               0.003180989               0.000000000              -0.000199267               0.001126741               0.000927475               0.000000000               0.000000000               0.000000000               0.000000000               0.000563122               0.003198739               0.000000000              -0.000188671               0.001129126               0.000940455               0.000000000               0.000000000               0.000000000               0.000000000               0.000000000               0.000000000               0.000000000               0.000000000               0.000000000               0.000000000               0.000000000               0.000000000               0.000000000               0.000000000               0.000000000               0.000000000               0.000000000               0.000000000               0.000000000               0.000000000               0.000000000               0.000000000               0.000000000               0.000000000               0.000000000               0.000000000               0.000000000               0.000000000               0.000000000               0.000000000               0.000000000               0.000000000               0.000000000               0.000000000               0.000000000               0.000000000               0.000000000               0.000000000               0.000000000               0.000000000               0.000000000               0.000000000               0.000000000               0.000000000               0.000000000               0.000000000               0.000000000               0.000000000               0.000000000               0.000000000               0.000000000               0.000000000               0.000000000               0.000000000               0.000000000               0.000000000               0.000000000               0.000000000               0.000000000               0.000000000               0.000000000               0.000000000               0.000000000               0.000000000               0.000000000               0.000000000               0.000000000               0.000000000               0.000000000               0.000000000               0.000000000               0.000000000               0.000000000               0.000000000               0.000000000               0.000000000               0.000000000               0.000000000               0.000000000               0.000000000               0.000000000               0.000000000               0.000000000               0.000000000               0.000000000               0.000000000               0.000000000               0.000000000               0.000000000               0.000000000               0.000000000               0.000000000               0.000000000               0.000000000               0.000000000               0.000000000               0.000000000               0.000000000               0.000000000               0.000000000               0.000000000               0.000000000               0.000000000               0.000000000               0.000000000               0.000000000               0.000000000               0.000000000               0.000000000               0.000000000               0.000000000               0.000000000               0.000000000               0.000000000               0.000000000               0.000000000               0.000000000               0.000000000               0.000000000               0.000000000               0.000000000               0.000000000               0.000000000               0.000000000               0.000000000               0.000000000               0.000000000               0.000000000               0.000000000               0.000000000               0.000000000               0.000000000               0.000000000               0.000000000               0.000000000               0.000000000               0.000000000               0.000000000               0.000000000               0.000000000               0.000000000               0.000000000               0.000000000               0.000000000               0.000000000               0.000000000               0.000000000               0.000000000               0.000000000               0.000000000               0.000000000               0.000000000               0.000000000               0.000000000               0.000000000               0.000000000               0.000000000               0.000000000               0.000000000               0.000000000               0.000000000               0.000000000               0.000000000               0.000000000               0.000000000               0.000000000               0.000000000               0.000000000               0.000000000               0.000000000               0.000000000               0.000000000               0.000000000               0.000000000               0.000634815               0.006941252               0.000529935              -0.000629600               0.002523594               0.001893994               0.000000000               0.000000000               0.000000000               0.000000000               0.000662243               0.005750819               0.000336094              -0.000470510               0.002073757               0.001603247               0.000000000               0.000000000               0.000000000               0.000000000               0.000890497               0.004806101               0.000135607              -0.000266825               0.001690959               0.001424134               0.000000000               0.000000000               0.000000000               0.000000000               0.000915398               0.004287381               0.000043294              -0.000192648               0.001493329               0.001300681               0.000000000               0.000000000               0.000000000               0.000000000               0.000862577               0.003980101              -0.000000174              -0.000174046               0.001384702               0.001210656               0.000000000               0.000000000               0.000000000               0.000000000               0.000784341               0.003789538              -0.000020776              -0.000179564               0.001323021               0.001143457               0.000000000               0.000000000               0.000000000               0.000000000               0.000702696               0.003668789              -0.000030824              -0.000195087               0.001287946               0.001092859               0.000000000               0.000000000               0.000000000               0.000000000               0.000620698               0.003592001              -0.000035261              -0.000216238               0.001269401               0.001053163               0.000000000               0.000000000               0.000000000               0.000000000               0.000541776               0.003541754              -0.000034400              -0.000239553               0.001260424               0.001020871               0.000000000               0.000000000               0.000000000               0.000000000               0.000469060               0.003507994              -0.000033318              -0.000262601               0.001256853               0.000994252               0.000000000               0.000000000               0.000000000               0.000000000               0.000397807               0.003487285              -0.000034251              -0.000286732               0.001257994               0.000971262               0.000000000               0.000000000               0.000000000               0.000000000               0.000324166               0.003476002              -0.000034119              -0.000312937               0.001262968               0.000950031               0.000000000               0.000000000               0.000000000               0.000000000               0.000252516               0.003470898              -0.000032141              -0.000339168               0.001270011               0.000930842               0.000000000               0.000000000               0.000000000               0.000000000               0.000184514               0.003468254              -0.000027866              -0.000364338               0.001277519               0.000913181               0.000000000               0.000000000               0.000000000               0.000000000               0.000119143               0.003464161              -0.000021788              -0.000388341               0.001284156               0.000895815               0.000000000               0.000000000               0.000000000               0.000000000               0.000057707               0.003457902              -0.000012670              -0.000410597               0.001289488               0.000878891               0.000000000               0.000000000               0.000000000               0.000000000               0.000029010               0.003455066              -0.000006518              -0.000421003               0.001292012               0.000871008               0.000000000               0.000000000               0.000000000               0.000000000               0.000735348               0.006587487               0.001001642              -0.000547680               0.002378367               0.001830687               0.000000000               0.000000000               0.000000000               0.000000000               0.000688617               0.005502498               0.000636522              -0.000429580               0.001977341               0.001547761               0.000000000               0.000000000               0.000000000               0.000000000               0.000835589               0.004670583               0.000262799              -0.000270476               0.001647004               0.001376528               0.000000000               0.000000000               0.000000000               0.000000000               0.000827310               0.004212967               0.000094534              -0.000216379               0.001476435               0.001260056               0.000000000               0.000000000               0.000000000               0.000000000               0.000765325               0.003941289               0.000015190              -0.000205664               0.001382304               0.001176641               0.000000000               0.000000000               0.000000000               0.000000000               0.000687442               0.003771523              -0.000022707              -0.000213649               0.001328378               0.001114729               0.000000000               0.000000000               0.000000000               0.000000000               0.000612635               0.003662499              -0.000041463              -0.000228074               0.001296845               0.001068772               0.000000000               0.000000000               0.000000000               0.000000000               0.000539232               0.003589423              -0.000050758              -0.000246465               0.001278617               0.001032152               0.000000000               0.000000000               0.000000000               0.000000000               0.000468827               0.003540783              -0.000050620              -0.000266787               0.001269178               0.001002391               0.000000000               0.000000000               0.000000000               0.000000000               0.000404455               0.003508302              -0.000048093              -0.000286866               0.001265044               0.000978178               0.000000000               0.000000000               0.000000000               0.000000000               0.000341138               0.003487979              -0.000049130              -0.000308070               0.001265338               0.000957268               0.000000000               0.000000000               0.000000000               0.000000000               0.000276969               0.003478240              -0.000048983              -0.000330916               0.001269707               0.000938791               0.000000000               0.000000000               0.000000000               0.000000000               0.000215507               0.003475422              -0.000045029              -0.000353612               0.001276333               0.000922721               0.000000000               0.000000000               0.000000000               0.000000000               0.000157184               0.003475171              -0.000037149              -0.000375451               0.001283529               0.000908078               0.000000000               0.000000000               0.000000000               0.000000000               0.000102037               0.003476677              -0.000027647              -0.000396320               0.001290987               0.000894667               0.000000000               0.000000000               0.000000000               0.000000000               0.000050197               0.003482677              -0.000016018              -0.000416510               0.001299717               0.000883208               0.000000000               0.000000000               0.000000000               0.000000000               0.000028305               0.003494323              -0.000007365              -0.000426175               0.001306821               0.000880646               0.000000000               0.000000000               0.000000000               0.000000000               0.000872362               0.006044581               0.001369227              -0.000428437               0.002157652               0.001729216               0.000000000               0.000000000               0.000000000               0.000000000               0.000719251               0.005128529               0.000876881              -0.000371347               0.001833275               0.001461928               0.000000000               0.000000000               0.000000000               0.000000000               0.000751275               0.004471549               0.000376806              -0.000277215               0.001582906               0.001305691               0.000000000               0.000000000               0.000000000               0.000000000               0.000701636               0.004104414               0.000155878              -0.000249938               0.001451437               0.001201499               0.000000000               0.000000000               0.000000000               0.000000000               0.000632284               0.003880484               0.000051798              -0.000247953               0.001376133               0.001128179               0.000000000               0.000000000               0.000000000               0.000000000               0.000557882               0.003734529               0.000000792              -0.000257610               0.001330701               0.001073091               0.000000000               0.000000000               0.000000000               0.000000000               0.000489833               0.003637098              -0.000024898              -0.000270949               0.001302670               0.001031721               0.000000000               0.000000000               0.000000000               0.000000000               0.000428823               0.003571459              -0.000037624              -0.000285623               0.001285682               0.001000059               0.000000000               0.000000000               0.000000000               0.000000000               0.000369618               0.003527525              -0.000038273              -0.000302333               0.001276608               0.000974274               0.000000000               0.000000000               0.000000000               0.000000000               0.000314344               0.003498952              -0.000033751              -0.000319489               0.001272802               0.000953313               0.000000000               0.000000000               0.000000000               0.000000000               0.000263295               0.003480355              -0.000034985              -0.000336308               0.001272209               0.000935902               0.000000000               0.000000000               0.000000000               0.000000000               0.000213997               0.003470675              -0.000036617              -0.000353585               0.001274742               0.000921157               0.000000000               0.000000000               0.000000000               0.000000000               0.000168575               0.003468763              -0.000032701              -0.000370379               0.001279702               0.000909324               0.000000000               0.000000000               0.000000000               0.000000000               0.000126440               0.003473307              -0.000024220              -0.000386747               0.001286673               0.000899926               0.000000000               0.000000000               0.000000000               0.000000000               0.000085352               0.003485834              -0.000015474              -0.000403721               0.001296507               0.000892786               0.000000000               0.000000000               0.000000000               0.000000000               0.000043358               0.003508824              -0.000008768              -0.000422343               0.001310377               0.000888035               0.000000000               0.000000000               0.000000000               0.000000000               0.000028174               0.003535741              -0.000002362              -0.000431401               0.001322369               0.000890968               0.000000000               0.000000000               0.000000000               0.000000000               0.001011288               0.005377722               0.001611143              -0.000292983               0.001890217               0.001597234               0.000000000               0.000000000               0.000000000               0.000000000               0.000742530               0.004677653               0.001048718              -0.000306258               0.001661288               0.001355030               0.000000000               0.000000000               0.000000000               0.000000000               0.000651286               0.004234727               0.000477856              -0.000285108               0.001506598               0.001221489               0.000000000               0.000000000               0.000000000               0.000000000               0.000565198               0.003966581               0.000228766              -0.000283873               0.001416804               0.001132932               0.000000000               0.000000000               0.000000000               0.000000000               0.000492716               0.003793651               0.000111964              -0.000289437               0.001361017               0.001071580               0.000000000               0.000000000               0.000000000               0.000000000               0.000428519               0.003673108               0.000053138              -0.000298443               0.001323838               0.001025395               0.000000000               0.000000000               0.000000000               0.000000000               0.000371175               0.003589843               0.000022283              -0.000309539               0.001299782               0.000990243               0.000000000               0.000000000               0.000000000               0.000000000               0.000318579               0.003533954               0.000006022              -0.000322276               0.001285398               0.000963122               0.000000000               0.000000000               0.000000000               0.000000000               0.000269967               0.003497393               0.000000970              -0.000335935               0.001277764               0.000941829               0.000000000               0.000000000               0.000000000               0.000000000               0.000227277               0.003478770               0.000004127              -0.000349616               0.001276117               0.000926501               0.000000000               0.000000000               0.000000000               0.000000000               0.000190155               0.003466851               0.000003130              -0.000362047               0.001276288               0.000914240               0.000000000               0.000000000               0.000000000               0.000000000               0.000157535               0.003460246              -0.000001309              -0.000373454               0.001277889               0.000904434               0.000000000               0.000000000               0.000000000               0.000000000               0.000129279               0.003462164              -0.000000837              -0.000384290               0.001282140               0.000897850               0.000000000               0.000000000               0.000000000               0.000000000               0.000101968               0.003473811               0.000003236              -0.000395987               0.001289921               0.000893934               0.000000000               0.000000000               0.000000000               0.000000000               0.000071953               0.003497429               0.000006736              -0.000410195               0.001302530               0.000892335               0.000000000               0.000000000               0.000000000               0.000000000               0.000036902               0.003531704               0.000005502              -0.000427624               0.001319764               0.000892140               0.000000000               0.000000000               0.000000000               0.000000000               0.000025875               0.003564388               0.000007592              -0.000435844               0.001333399               0.000897555               0.000000000               0.000000000               0.000000000               0.000000000               0.001125493               0.004653257               0.001727562              -0.000159599               0.001604269               0.001444671               0.000000000               0.000000000               0.000000000               0.000000000               0.000754495               0.004194148               0.001151585              -0.000241333               0.001478479               0.001237146               0.000000000               0.000000000               0.000000000               0.000000000               0.000548350               0.003977853               0.000565234              -0.000291600               0.001423138               0.001131538               0.000000000               0.000000000               0.000000000               0.000000000               0.000437261               0.003809385               0.000311980              -0.000312200               0.001373849               0.001061649               0.000000000               0.000000000               0.000000000               0.000000000               0.000370822               0.003683398               0.000190758              -0.000321366               0.001334909               0.001013543               0.000000000               0.000000000               0.000000000               0.000000000               0.000319052               0.003589031               0.000126098              -0.000328984               0.001305993               0.000977009               0.000000000               0.000000000               0.000000000               0.000000000               0.000275338               0.003529141               0.000089991              -0.000337890               0.001288999               0.000951109               0.000000000               0.000000000               0.000000000               0.000000000               0.000236979               0.003489623               0.000068327              -0.000347335               0.001278974               0.000931639               0.000000000               0.000000000               0.000000000               0.000000000               0.000201264               0.003465784               0.000055526              -0.000357748               0.001274499               0.000916751               0.000000000               0.000000000               0.000000000               0.000000000               0.000168747               0.003454730               0.000053944              -0.000368560               0.001274419               0.000905858               0.000000000               0.000000000               0.000000000               0.000000000               0.000143078               0.003449247               0.000053688              -0.000377500               0.001275571               0.000898070               0.000000000               0.000000000               0.000000000               0.000000000               0.000121562               0.003447206               0.000046779              -0.000385314               0.001277495               0.000892181               0.000000000               0.000000000               0.000000000               0.000000000               0.000104100               0.003454095               0.000042187              -0.000392723               0.001282261               0.000889538               0.000000000               0.000000000               0.000000000               0.000000000               0.000085171               0.003471161               0.000039147              -0.000401955               0.001291027               0.000889072               0.000000000               0.000000000               0.000000000               0.000000000               0.000059494               0.003496071               0.000033397              -0.000414698               0.001303578               0.000888880               0.000000000               0.000000000               0.000000000               0.000000000               0.000030919               0.003523400               0.000021381              -0.000428829               0.001317398               0.000888569               0.000000000               0.000000000               0.000000000               0.000000000               0.000020306               0.003541330               0.000014995              -0.000435051               0.001325449               0.000890398               0.000000000               0.000000000               0.000000000               0.000000000               0.001192267               0.003927808               0.001727043              -0.000043878               0.001323882               0.001280004               0.000000000               0.000000000               0.000000000               0.000000000               0.000750048               0.003714703               0.001193251              -0.000183070               0.001299245               0.001116175               0.000000000               0.000000000               0.000000000               0.000000000               0.000456425               0.003715606               0.000642761              -0.000293291               0.001336287               0.001042996               0.000000000               0.000000000               0.000000000               0.000000000               0.000336250               0.003637189               0.000400417              -0.000328554               0.001321902               0.000993348               0.000000000               0.000000000               0.000000000               0.000000000               0.000280847               0.003557174               0.000277091              -0.000339328               0.001298822               0.000959494               0.000000000               0.000000000               0.000000000               0.000000000               0.000245713               0.003498615               0.000203936              -0.000345184               0.001281254               0.000936071               0.000000000               0.000000000               0.000000000               0.000000000               0.000215569               0.003465133               0.000158665              -0.000352302               0.001272467               0.000920165               0.000000000               0.000000000               0.000000000               0.000000000               0.000187075               0.003443433               0.000131965              -0.000360275               0.001267891               0.000907616               0.000000000               0.000000000               0.000000000               0.000000000               0.000161690               0.003431970               0.000114391              -0.000368361               0.001266766               0.000898404               0.000000000               0.000000000               0.000000000               0.000000000               0.000139026               0.003427416               0.000108598              -0.000376291               0.001267891               0.000891600               0.000000000               0.000000000               0.000000000               0.000000000               0.000121099               0.003427462               0.000106623              -0.000383020               0.001270149               0.000887130               0.000000000               0.000000000               0.000000000               0.000000000               0.000104037               0.003430116               0.000095661              -0.000389750               0.001273277               0.000883528               0.000000000               0.000000000               0.000000000               0.000000000               0.000085111               0.003437691               0.000080358              -0.000397794               0.001278483               0.000880690               0.000000000               0.000000000               0.000000000               0.000000000               0.000063879               0.003451203               0.000063898              -0.000407445               0.001286205               0.000878760               0.000000000               0.000000000               0.000000000               0.000000000               0.000039324               0.003463605               0.000044020              -0.000418203               0.001293924               0.000875721               0.000000000               0.000000000               0.000000000               0.000000000               0.000018134               0.003466256               0.000023106              -0.000426481               0.001297567               0.000871087               0.000000000               0.000000000               0.000000000               0.000000000               0.000004911               0.003457049               0.000010570              -0.000430289               0.001295768               0.000865479               0.000000000               0.000000000               0.000000000               0.000000000               0.001205108               0.003237284               0.001629748               0.000047252               0.001063332               0.001110585               0.000000000               0.000000000               0.000000000               0.000000000               0.000730572               0.003264625               0.001188274              -0.000134115               0.001132902               0.000998787               0.000000000               0.000000000               0.000000000               0.000000000               0.000386636               0.003460089               0.000714466              -0.000287523               0.001249192               0.000961670               0.000000000               0.000000000               0.000000000               0.000000000               0.000272877               0.003461397               0.000486052              -0.000330345               0.001263903               0.000933557               0.000000000               0.000000000               0.000000000               0.000000000               0.000233864               0.003431296               0.000357303              -0.000341212               0.001257491               0.000916279               0.000000000               0.000000000               0.000000000               0.000000000               0.000211314               0.003410380               0.000274703              -0.000347054               0.001252467               0.000905413               0.000000000               0.000000000               0.000000000               0.000000000               0.000189903               0.003399566               0.000221415              -0.000353731               0.001251088               0.000897356               0.000000000               0.000000000               0.000000000               0.000000000               0.000167709               0.003396537               0.000191570              -0.000361675               0.001252726               0.000891051               0.000000000               0.000000000               0.000000000               0.000000000               0.000147511               0.003397215               0.000169354              -0.000369334               0.001255505               0.000886171               0.000000000               0.000000000               0.000000000               0.000000000               0.000130661               0.003396863               0.000153769              -0.000375609               0.001257479               0.000881870               0.000000000               0.000000000               0.000000000               0.000000000               0.000110794               0.003397356               0.000141314              -0.000383121               0.001260147               0.000877027               0.000000000               0.000000000               0.000000000               0.000000000               0.000086614               0.003399897               0.000119361              -0.000392506               0.001264123               0.000871617               0.000000000               0.000000000               0.000000000               0.000000000               0.000059209               0.003403433               0.000089819              -0.000403225               0.001268875               0.000865650               0.000000000               0.000000000               0.000000000               0.000000000               0.000031031               0.003402921               0.000058288              -0.000413728               0.001272205               0.000858477               0.000000000               0.000000000               0.000000000               0.000000000               0.000007565               0.003393350               0.000028101              -0.000421331               0.001271549               0.000850218               0.000000000               0.000000000               0.000000000               0.000000000              -0.000003105               0.003371330               0.000007441              -0.000422580               0.001264625               0.000842046               0.000000000               0.000000000               0.000000000               0.000000000              -0.000009811               0.003348620              -0.000002410              -0.000422255               0.001256947               0.000834692               0.000000000               0.000000000               0.000000000               0.000000000               0.001184621               0.002632865               0.001471572               0.000115122               0.000839238               0.000954360               0.000000000               0.000000000               0.000000000               0.000000000               0.000719850               0.002863119               0.001160145              -0.000087947               0.000983679               0.000895732               0.000000000               0.000000000               0.000000000               0.000000000               0.000360109               0.003227224               0.000792966              -0.000268362               0.001165185               0.000896822               0.000000000               0.000000000               0.000000000               0.000000000               0.000255379               0.003310194               0.000577238              -0.000318007               0.001209389               0.000891382               0.000000000               0.000000000               0.000000000               0.000000000               0.000223379               0.003329153               0.000438840              -0.000332376               0.001220499               0.000888122               0.000000000               0.000000000               0.000000000               0.000000000               0.000205852               0.003339663               0.000346207              -0.000340263               0.001226631               0.000886368               0.000000000               0.000000000               0.000000000               0.000000000               0.000187413               0.003350631               0.000285501              -0.000348548               0.001233049               0.000884500               0.000000000               0.000000000               0.000000000               0.000000000               0.000174358               0.003366587               0.000248644              -0.000355438               0.001240664               0.000885226               0.000000000               0.000000000               0.000000000               0.000000000               0.000160465               0.003378287               0.000219319              -0.000362111               0.001246788               0.000884677               0.000000000               0.000000000               0.000000000               0.000000000               0.000143646               0.003378499               0.000191131              -0.000368444               0.001248970               0.000880525               0.000000000               0.000000000               0.000000000               0.000000000               0.000118215               0.003373132               0.000162996              -0.000377310               0.001250136               0.000872826               0.000000000               0.000000000               0.000000000               0.000000000               0.000085237               0.003372025               0.000129186              -0.000389538               0.001253843               0.000864305               0.000000000               0.000000000               0.000000000               0.000000000               0.000047554               0.003369233               0.000090266              -0.000403321               0.001257507               0.000854186               0.000000000               0.000000000               0.000000000               0.000000000               0.000008596               0.003356295               0.000051373              -0.000416312               0.001257524               0.000841212               0.000000000               0.000000000               0.000000000               0.000000000              -0.000025338               0.003329481               0.000019224              -0.000425686               0.001251711               0.000826025               0.000000000               0.000000000               0.000000000               0.000000000              -0.000045492               0.003288703               0.000000460              -0.000428146               0.001238939               0.000810792               0.000000000               0.000000000               0.000000000               0.000000000              -0.000050424               0.003262926              -0.000005875              -0.000426774               0.001229889               0.000803115               0.000000000               0.000000000               0.000000000               0.000000000               0.001120165               0.002054210               0.001284819               0.000163283               0.000630302               0.000793585               0.000000000               0.000000000               0.000000000               0.000000000               0.000723591               0.002401783               0.001121887              -0.000028878               0.000810212               0.000781334               0.000000000               0.000000000               0.000000000               0.000000000               0.000383812               0.002889850               0.000885907              -0.000217302               0.001035708               0.000818406               0.000000000               0.000000000               0.000000000               0.000000000               0.000281740               0.003072269               0.000689289              -0.000278381               0.001116873               0.000838492               0.000000000               0.000000000               0.000000000               0.000000000               0.000244880               0.003150523               0.000542823              -0.000301985               0.001150825               0.000848841               0.000000000               0.000000000               0.000000000               0.000000000               0.000229819               0.003199947               0.000439505              -0.000313811               0.001171242               0.000857431               0.000000000               0.000000000               0.000000000               0.000000000               0.000216465               0.003246850               0.000369113              -0.000324681               0.001190499               0.000865818               0.000000000               0.000000000               0.000000000               0.000000000               0.000205448               0.003290863               0.000318932              -0.000334314               0.001208381               0.000874067               0.000000000               0.000000000               0.000000000               0.000000000               0.000189883               0.003318688               0.000275988              -0.000343629               0.001220761               0.000877132               0.000000000               0.000000000               0.000000000               0.000000000               0.000169131               0.003326712               0.000235652              -0.000352414               0.001226364               0.000873950               0.000000000               0.000000000               0.000000000               0.000000000               0.000140141               0.003319179               0.000195815              -0.000362344               0.001227163               0.000864819               0.000000000               0.000000000               0.000000000               0.000000000               0.000102804               0.003309079               0.000155520              -0.000375082               0.001228043               0.000852960               0.000000000               0.000000000               0.000000000               0.000000000               0.000057841               0.003298064               0.000111411              -0.000390567               0.001229533               0.000838966               0.000000000               0.000000000               0.000000000               0.000000000               0.000009193               0.003287139               0.000067511              -0.000407444               0.001231517               0.000824073               0.000000000               0.000000000               0.000000000               0.000000000              -0.000038480               0.003268974               0.000032486              -0.000423051               0.001230664               0.000807613               0.000000000               0.000000000               0.000000000               0.000000000              -0.000080284               0.003240429               0.000009939              -0.000435159               0.001225185               0.000790026               0.000000000               0.000000000               0.000000000               0.000000000              -0.000101475               0.003220253              -0.000000222              -0.000440584               0.001220268               0.000779684               0.000000000               0.000000000               0.000000000               0.000000000               0.000990350               0.001515887               0.001073314               0.000181893               0.000444659               0.000626552               0.000000000               0.000000000               0.000000000               0.000000000               0.000723695               0.001944349               0.001054674               0.000028340               0.000638663               0.000667003               0.000000000               0.000000000               0.000000000               0.000000000               0.000444044               0.002518091               0.000955146              -0.000148245               0.000888770               0.000740525               0.000000000               0.000000000               0.000000000               0.000000000               0.000344001               0.002790382               0.000796100              -0.000219798               0.001003384               0.000783586               0.000000000               0.000000000               0.000000000               0.000000000               0.000299645               0.002932899               0.000654423              -0.000254245               0.001062372               0.000808126               0.000000000               0.000000000               0.000000000               0.000000000               0.000277692               0.003031148               0.000544664              -0.000274759               0.001101959               0.000827200               0.000000000               0.000000000               0.000000000               0.000000000               0.000263451               0.003118921               0.000464041              -0.000291070               0.001136653               0.000845583               0.000000000               0.000000000               0.000000000               0.000000000               0.000247869               0.003193310               0.000399601              -0.000306212               0.001166497               0.000860284               0.000000000               0.000000000               0.000000000               0.000000000               0.000227748               0.003244239               0.000344033              -0.000320124               0.001188110               0.000867986               0.000000000               0.000000000               0.000000000               0.000000000               0.000203810               0.003271139               0.000294784              -0.000332463               0.001201190               0.000868727               0.000000000               0.000000000               0.000000000               0.000000000               0.000176788               0.003277129               0.000248451              -0.000343345               0.001206814               0.000863469               0.000000000               0.000000000               0.000000000               0.000000000               0.000144205               0.003267183               0.000202930              -0.000354320               0.001207157               0.000852837               0.000000000               0.000000000               0.000000000               0.000000000               0.000101142               0.003252037               0.000154126              -0.000368575               0.001206860               0.000838285               0.000000000               0.000000000               0.000000000               0.000000000               0.000048823               0.003240877               0.000105410              -0.000386800               0.001209215               0.000822415               0.000000000               0.000000000               0.000000000               0.000000000              -0.000010458               0.003230861               0.000062649              -0.000407778               0.001212869               0.000805091               0.000000000               0.000000000               0.000000000               0.000000000              -0.000074869               0.003218246               0.000028017              -0.000430356               0.001216190               0.000785834               0.000000000               0.000000000               0.000000000               0.000000000              -0.000122361               0.003199989               0.000006894              -0.000445883               0.001215280               0.000769397               0.000000000               0.000000000               0.000000000               0.000000000               0.000798932               0.001047308               0.000843273               0.000168684               0.000292871               0.000461554               0.000000000               0.000000000               0.000000000               0.000000000               0.000694509               0.001511408               0.000942703               0.000071513               0.000479960               0.000551473               0.000000000               0.000000000               0.000000000               0.000000000               0.000514863               0.002110516               0.000961379              -0.000070742               0.000727079               0.000656337               0.000000000               0.000000000               0.000000000               0.000000000               0.000431449               0.002447825               0.000852303              -0.000144185               0.000863995               0.000719810               0.000000000               0.000000000               0.000000000               0.000000000               0.000383100               0.002655857               0.000729874              -0.000188320               0.000948050               0.000759730               0.000000000               0.000000000               0.000000000               0.000000000               0.000353794               0.002810413               0.000625242              -0.000218629               0.001009671               0.000791042               0.000000000               0.000000000               0.000000000               0.000000000               0.000333522               0.002941561               0.000542710              -0.000242624               0.001061385               0.000818761               0.000000000               0.000000000               0.000000000               0.000000000               0.000312343               0.003052565               0.000471953              -0.000264442               0.001105659               0.000841217               0.000000000               0.000000000               0.000000000               0.000000000               0.000286468               0.003138166               0.000408198              -0.000284845               0.001140993               0.000856148               0.000000000               0.000000000               0.000000000               0.000000000               0.000254459               0.003194615               0.000352112              -0.000303904               0.001166162               0.000862258               0.000000000               0.000000000               0.000000000               0.000000000               0.000222379               0.003219609               0.000303782              -0.000319058               0.001179545               0.000860487               0.000000000               0.000000000               0.000000000               0.000000000               0.000189444               0.003221999               0.000255427              -0.000331707               0.001184558               0.000852851               0.000000000               0.000000000               0.000000000               0.000000000               0.000151291               0.003216198               0.000201365              -0.000345290               0.001187152               0.000841862               0.000000000               0.000000000               0.000000000               0.000000000               0.000103790               0.003209356               0.000146998              -0.000362247               0.001190524               0.000828276               0.000000000               0.000000000               0.000000000               0.000000000               0.000044570               0.003204857               0.000096692              -0.000383892               0.001196239               0.000812347               0.000000000               0.000000000               0.000000000               0.000000000              -0.000028329               0.003203117               0.000047839              -0.000411012               0.001204699               0.000793687               0.000000000               0.000000000               0.000000000               0.000000000              -0.000088651               0.003189760               0.000015731              -0.000431963               0.001207230               0.000775267               0.000000000               0.000000000               0.000000000               0.000000000               0.000561145               0.000669021               0.000614553               0.000126800               0.000180738               0.000307538               0.000000000               0.000000000               0.000000000               0.000000000               0.000635969               0.001117264               0.000790525               0.000098828               0.000339474               0.000438303               0.000000000               0.000000000               0.000000000               0.000000000               0.000585623               0.001691554               0.000895171               0.000008163               0.000561124               0.000569287               0.000000000               0.000000000               0.000000000               0.000000000               0.000536721               0.002071319               0.000836751              -0.000057645               0.000709648               0.000652002               0.000000000               0.000000000               0.000000000               0.000000000               0.000493744               0.002335249               0.000744614              -0.000106753               0.000813993               0.000707240               0.000000000               0.000000000               0.000000000               0.000000000               0.000460333               0.002541622               0.000656850              -0.000145078               0.000895558               0.000750480               0.000000000               0.000000000               0.000000000               0.000000000               0.000431415               0.002719090               0.000578978              -0.000178106               0.000965723               0.000787617               0.000000000               0.000000000               0.000000000               0.000000000               0.000399193               0.002871044               0.000508718              -0.000209183               0.001026733               0.000817550               0.000000000               0.000000000               0.000000000               0.000000000               0.000366258               0.002991214               0.000444667              -0.000236555               0.001075913               0.000839358               0.000000000               0.000000000               0.000000000               0.000000000               0.000329756               0.003078158               0.000389315              -0.000261111               0.001113079               0.000851969               0.000000000               0.000000000               0.000000000               0.000000000               0.000290854               0.003136279               0.000341933              -0.000282964               0.001139737               0.000856773               0.000000000               0.000000000               0.000000000               0.000000000               0.000252615               0.003169936               0.000294996              -0.000301511               0.001157138               0.000855628               0.000000000               0.000000000               0.000000000               0.000000000               0.000217115               0.003182475               0.000243365              -0.000316391               0.001166278               0.000849887               0.000000000               0.000000000               0.000000000               0.000000000               0.000178322               0.003184678               0.000188395              -0.000331213               0.001171953               0.000840740               0.000000000               0.000000000               0.000000000               0.000000000               0.000129643               0.003188960               0.000130963              -0.000350003               0.001179644               0.000829641               0.000000000               0.000000000               0.000000000               0.000000000               0.000064581               0.003197044               0.000068140              -0.000375412               0.001190808               0.000815396               0.000000000               0.000000000               0.000000000               0.000000000               0.000007565               0.003189745               0.000028786              -0.000395880               0.001195198               0.000799317               0.000000000               0.000000000               0.000000000               0.000000000               0.000306481               0.000386405               0.000408756               0.000066629               0.000106590               0.000173219               0.000000000               0.000000000               0.000000000               0.000000000               0.000553951               0.000782715               0.000608903               0.000109891               0.000224272               0.000334163               0.000000000               0.000000000               0.000000000               0.000000000               0.000648401               0.001302303               0.000754824               0.000080361               0.000407309               0.000487670               0.000000000               0.000000000               0.000000000               0.000000000               0.000651326               0.001703576               0.000739633               0.000031299               0.000557420               0.000588719               0.000000000               0.000000000               0.000000000               0.000000000               0.000626925               0.002009544               0.000681028              -0.000016097               0.000675207               0.000659110               0.000000000               0.000000000               0.000000000               0.000000000               0.000589774               0.002255618               0.000614570              -0.000060788               0.000772128               0.000711340               0.000000000               0.000000000               0.000000000               0.000000000               0.000548301               0.002469302               0.000547057              -0.000103050               0.000857442               0.000754392               0.000000000               0.000000000               0.000000000               0.000000000               0.000506326               0.002655643               0.000485138              -0.000142083               0.000932567               0.000790483               0.000000000               0.000000000               0.000000000               0.000000000               0.000468966               0.002807554               0.000430361              -0.000175082               0.000994203               0.000819121               0.000000000               0.000000000               0.000000000               0.000000000               0.000430744               0.002927823               0.000379600              -0.000204448               0.001044081               0.000839632               0.000000000               0.000000000               0.000000000               0.000000000               0.000387842               0.003025407               0.000336018              -0.000232734               0.001086037               0.000853302               0.000000000               0.000000000               0.000000000               0.000000000               0.000349493               0.003095525               0.000298213              -0.000255880               0.001117125               0.000861245               0.000000000               0.000000000               0.000000000               0.000000000               0.000317929               0.003135859               0.000255507              -0.000272758               0.001136195               0.000863437               0.000000000               0.000000000               0.000000000               0.000000000               0.000287333               0.003160500               0.000203454              -0.000287312               0.001149260               0.000861948               0.000000000               0.000000000               0.000000000               0.000000000               0.000250102               0.003178058               0.000144888              -0.000303468               0.001160498               0.000857030               0.000000000               0.000000000               0.000000000               0.000000000               0.000205510               0.003191848               0.000077798              -0.000321914               0.001171243               0.000849329               0.000000000               0.000000000               0.000000000               0.000000000               0.000168348               0.003190691               0.000037884              -0.000335705               0.001175455               0.000839750               0.000000000               0.000000000               0.000000000               0.000000000               0.000076386               0.000198478               0.000239373               0.000003834               0.000064880               0.000068715               0.000000000               0.000000000               0.000000000               0.000000000               0.000468940               0.000530225               0.000410837               0.000109573               0.000140215               0.000249788               0.000000000               0.000000000               0.000000000               0.000000000               0.000698833               0.000984612               0.000547341               0.000138984               0.000281873               0.000420857               0.000000000               0.000000000               0.000000000               0.000000000               0.000757765               0.001389890               0.000557291               0.000110424               0.000426484               0.000536908               0.000000000               0.000000000               0.000000000               0.000000000               0.000751345               0.001719125               0.000526341               0.000066863               0.000550748               0.000617611               0.000000000               0.000000000               0.000000000               0.000000000               0.000713985               0.001989117               0.000480466               0.000019104               0.000656664               0.000675768               0.000000000               0.000000000               0.000000000               0.000000000               0.000665251               0.002224602               0.000430469              -0.000028607               0.000751062               0.000722456               0.000000000               0.000000000               0.000000000               0.000000000               0.000620377               0.002434736               0.000386420              -0.000071701               0.000835471               0.000763770               0.000000000               0.000000000               0.000000000               0.000000000               0.000579477               0.002617554               0.000346139              -0.000109890               0.000909139               0.000799249               0.000000000               0.000000000               0.000000000               0.000000000               0.000539198               0.002774693               0.000304520              -0.000144637               0.000973101               0.000828464               0.000000000               0.000000000               0.000000000               0.000000000               0.000498163               0.002902903               0.000273001              -0.000176051               0.001026308               0.000850257               0.000000000               0.000000000               0.000000000               0.000000000               0.000460044               0.003001236               0.000249888              -0.000202638               0.001067948               0.000865310               0.000000000               0.000000000               0.000000000               0.000000000               0.000426977               0.003077321               0.000218630              -0.000224548               0.001100613               0.000876065               0.000000000               0.000000000               0.000000000               0.000000000               0.000400336               0.003133315               0.000173441              -0.000241538               0.001124940               0.000883403               0.000000000               0.000000000               0.000000000               0.000000000               0.000377601               0.003168697               0.000121899              -0.000254486               0.001141050               0.000886564               0.000000000               0.000000000               0.000000000               0.000000000               0.000359823               0.003188479               0.000065490              -0.000263626               0.001150691               0.000887065               0.000000000               0.000000000               0.000000000               0.000000000               0.000351338               0.003193820               0.000034124              -0.000267475               0.001153755               0.000886279               0.000000000               0.000000000               0.000000000               0.000000000              -0.000084471               0.000091796               0.000107607              -0.000043151               0.000044982               0.000001831               0.000000000               0.000000000               0.000000000               0.000000000               0.000407187               0.000372813               0.000206507               0.000106092               0.000088906               0.000194998               0.000000000               0.000000000               0.000000000               0.000000000               0.000731317               0.000775882               0.000288593               0.000177257               0.000199539               0.000376796               0.000000000               0.000000000               0.000000000               0.000000000               0.000833079               0.001176514               0.000301104               0.000165339               0.000337054               0.000502393               0.000000000               0.000000000               0.000000000               0.000000000               0.000837422               0.001513026               0.000288083               0.000124904               0.000462702               0.000587606               0.000000000               0.000000000               0.000000000               0.000000000               0.000802676               0.001793406               0.000263635               0.000076827               0.000572187               0.000649014               0.000000000               0.000000000               0.000000000               0.000000000               0.000755797               0.002037402               0.000237338               0.000028748               0.000669544               0.000698293               0.000000000               0.000000000               0.000000000               0.000000000               0.000709017               0.002263942               0.000215012              -0.000017111               0.000760343               0.000743232               0.000000000               0.000000000               0.000000000               0.000000000               0.000662162               0.002475108               0.000193202              -0.000061078               0.000845387               0.000784309               0.000000000               0.000000000               0.000000000               0.000000000               0.000619396               0.002659167               0.000169604              -0.000100122               0.000919754               0.000819632               0.000000000               0.000000000               0.000000000               0.000000000               0.000579911               0.002809761               0.000154199              -0.000133753               0.000981162               0.000847409               0.000000000               0.000000000               0.000000000               0.000000000               0.000537808               0.002930575               0.000144618              -0.000164643               0.001031730               0.000867086               0.000000000               0.000000000               0.000000000               0.000000000               0.000498699               0.003029849               0.000127974              -0.000191718               0.001073846               0.000882127               0.000000000               0.000000000               0.000000000               0.000000000               0.000473267               0.003105804               0.000101476              -0.000210750               0.001105508               0.000894758               0.000000000               0.000000000               0.000000000               0.000000000               0.000467306               0.003156347               0.000069409              -0.000219303               0.001125206               0.000905903               0.000000000               0.000000000               0.000000000               0.000000000               0.000480943               0.003185371               0.000035671              -0.000217817               0.001134386               0.000916568               0.000000000               0.000000000               0.000000000               0.000000000               0.000501069               0.003197812               0.000018749              -0.000211825               0.001136535               0.000924710               0.000000000               0.000000000               0.000000000               0.000000000              -0.000142095               0.000057732              -0.000000000              -0.000060502               0.000039411              -0.000021091               0.000000000               0.000000000               0.000000000               0.000000000               0.000385068               0.000320812              -0.000000000               0.000104298               0.000072170               0.000176468               0.000000000               0.000000000               0.000000000               0.000000000               0.000741669               0.000704186              -0.000000000               0.000190101               0.000171359               0.000361460               0.000000000               0.000000000               0.000000000               0.000000000               0.000859448               0.001099632               0.000000000               0.000184837               0.000304928               0.000489765               0.000000000               0.000000000               0.000000000               0.000000000               0.000868077               0.001437003               0.000000000               0.000145902               0.000430362               0.000576264               0.000000000               0.000000000               0.000000000               0.000000000               0.000835947               0.001720954              -0.000000000               0.000098360               0.000540859               0.000639219               0.000000000               0.000000000               0.000000000               0.000000000               0.000791683               0.001966231               0.000000000               0.000051102               0.000638370               0.000689472               0.000000000               0.000000000               0.000000000               0.000000000               0.000742959               0.002199372               0.000000000               0.000003688               0.000731887               0.000735575               0.000000000               0.000000000               0.000000000               0.000000000               0.000691740               0.002422366              -0.000000000              -0.000043393               0.000821912               0.000778518               0.000000000               0.000000000               0.000000000               0.000000000               0.000646579               0.002615434               0.000000000              -0.000084462               0.000899957               0.000815495               0.000000000               0.000000000               0.000000000               0.000000000               0.000607327               0.002778289               0.000000000              -0.000119538               0.000965933               0.000846395               0.000000000               0.000000000               0.000000000               0.000000000               0.000563042               0.002909008               0.000000000              -0.000152485               0.001020488               0.000868003               0.000000000               0.000000000               0.000000000               0.000000000               0.000521620               0.003011764               0.000000000              -0.000180862               0.001064199               0.000883336               0.000000000               0.000000000               0.000000000               0.000000000               0.000497400               0.003091346              -0.000000000              -0.000199893               0.001097069               0.000897177               0.000000000               0.000000000               0.000000000               0.000000000               0.000498706               0.003145902              -0.000000000              -0.000206222               0.001117364               0.000911142               0.000000000               0.000000000               0.000000000               0.000000000               0.000528951               0.003180989               0.000000000              -0.000199267               0.001126741               0.000927475               0.000000000               0.000000000               0.000000000               0.000000000               0.000563122               0.003198739               0.000000000              -0.000188671               0.001129126               0.000940455               0.000000000               0.000000000               0.000000000               0.000000000               0.000597165               0.007062883              -0.000000000              -0.000658922               0.002573912               0.001914990               0.000000000               0.000000000               0.000000000               0.000000000               0.000650993               0.005837073              -0.000000000              -0.000485511               0.002107508               0.001621998               0.000000000               0.000000000               0.000000000               0.000000000               0.000908507               0.004854389              -0.000000000              -0.000266108               0.001706816               0.001440708               0.000000000               0.000000000               0.000000000               0.000000000               0.000946129               0.004316341               0.000000000              -0.000184744               0.001500347               0.001315604               0.000000000               0.000000000               0.000000000               0.000000000               0.000897659               0.003995046               0.000000000              -0.000162758               0.001385922               0.001223163               0.000000000               0.000000000               0.000000000               0.000000000               0.000821418               0.003795050              -0.000000000              -0.000166349               0.001320454               0.001154105               0.000000000               0.000000000               0.000000000               0.000000000               0.000739173               0.003669952              -0.000000000              -0.000181554               0.001283823               0.001102269               0.000000000               0.000000000               0.000000000               0.000000000               0.000653332               0.003591461               0.000000000              -0.000203932               0.001265119               0.001061187               0.000000000               0.000000000               0.000000000               0.000000000               0.000567812               0.003540553              -0.000000000              -0.000229639               0.001256719               0.001027080               0.000000000               0.000000000               0.000000000               0.000000000               0.000490734               0.003505675              -0.000000000              -0.000254184               0.001253275               0.000999091               0.000000000               0.000000000               0.000000000               0.000000000               0.000417550               0.003484489              -0.000000000              -0.000278979               0.001254478               0.000975499               0.000000000               0.000000000               0.000000000               0.000000000               0.000340927               0.003471963              -0.000000000              -0.000306147               0.001259358               0.000953211               0.000000000               0.000000000               0.000000000               0.000000000               0.000266240               0.003465299              -0.000000000              -0.000333322               0.001266195               0.000932874               0.000000000               0.000000000               0.000000000               0.000000000               0.000195837               0.003461322              -0.000000000              -0.000359225               0.001273504               0.000914279               0.000000000               0.000000000               0.000000000               0.000000000               0.000128033               0.003455586              -0.000000000              -0.000383935               0.001279829               0.000895894               0.000000000               0.000000000               0.000000000               0.000000000               0.000061780               0.003444585              -0.000000000              -0.000407405               0.001283985               0.000876580               0.000000000               0.000000000               0.000000000               0.000000000               0.000029042               0.003435944               0.000000000              -0.000418601               0.001284837               0.000866236               0.000000000               0.000000000               0.000000000               0.000000000               0.000634815               0.006941252              -0.000529935              -0.000629600               0.002523594               0.001893994               0.000000000               0.000000000               0.000000000               0.000000000               0.000662243               0.005750819              -0.000336094              -0.000470510               0.002073757               0.001603247               0.000000000               0.000000000               0.000000000               0.000000000               0.000890497               0.004806101              -0.000135607              -0.000266825               0.001690959               0.001424134               0.000000000               0.000000000               0.000000000               0.000000000               0.000915398               0.004287381              -0.000043294              -0.000192648               0.001493329               0.001300681               0.000000000               0.000000000               0.000000000               0.000000000               0.000862577               0.003980101               0.000000174              -0.000174046               0.001384702               0.001210656               0.000000000               0.000000000               0.000000000               0.000000000               0.000784341               0.003789538               0.000020776              -0.000179564               0.001323021               0.001143457               0.000000000               0.000000000               0.000000000               0.000000000               0.000702696               0.003668789               0.000030824              -0.000195087               0.001287946               0.001092859               0.000000000               0.000000000               0.000000000               0.000000000               0.000620698               0.003592001               0.000035261              -0.000216238               0.001269401               0.001053163               0.000000000               0.000000000               0.000000000               0.000000000               0.000541776               0.003541754               0.000034400              -0.000239553               0.001260424               0.001020871               0.000000000               0.000000000               0.000000000               0.000000000               0.000469060               0.003507994               0.000033318              -0.000262601               0.001256853               0.000994252               0.000000000               0.000000000               0.000000000               0.000000000               0.000397807               0.003487285               0.000034251              -0.000286732               0.001257994               0.000971262               0.000000000               0.000000000               0.000000000               0.000000000               0.000324166               0.003476002               0.000034119              -0.000312937               0.001262968               0.000950031               0.000000000               0.000000000               0.000000000               0.000000000               0.000252516               0.003470898               0.000032141              -0.000339168               0.001270011               0.000930842               0.000000000               0.000000000               0.000000000               0.000000000               0.000184514               0.003468254               0.000027866              -0.000364338               0.001277519               0.000913181               0.000000000               0.000000000               0.000000000               0.000000000               0.000119143               0.003464161               0.000021788              -0.000388341               0.001284156               0.000895815               0.000000000               0.000000000               0.000000000               0.000000000               0.000057707               0.003457902               0.000012670              -0.000410597               0.001289488               0.000878891               0.000000000               0.000000000               0.000000000               0.000000000               0.000029010               0.003455066               0.000006518              -0.000421003               0.001292012               0.000871008               0.000000000               0.000000000               0.000000000               0.000000000               0.000735348               0.006587487              -0.001001642              -0.000547680               0.002378367               0.001830687               0.000000000               0.000000000               0.000000000               0.000000000               0.000688617               0.005502498              -0.000636522              -0.000429580               0.001977341               0.001547761               0.000000000               0.000000000               0.000000000               0.000000000               0.000835589               0.004670583              -0.000262799              -0.000270476               0.001647004               0.001376528               0.000000000               0.000000000               0.000000000               0.000000000               0.000827310               0.004212967              -0.000094534              -0.000216379               0.001476435               0.001260056               0.000000000               0.000000000               0.000000000               0.000000000               0.000765325               0.003941289              -0.000015190              -0.000205664               0.001382304               0.001176641               0.000000000               0.000000000               0.000000000               0.000000000               0.000687442               0.003771523               0.000022707              -0.000213649               0.001328378               0.001114729               0.000000000               0.000000000               0.000000000               0.000000000               0.000612635               0.003662499               0.000041463              -0.000228074               0.001296845               0.001068772               0.000000000               0.000000000               0.000000000               0.000000000               0.000539232               0.003589423               0.000050758              -0.000246465               0.001278617               0.001032152               0.000000000               0.000000000               0.000000000               0.000000000               0.000468827               0.003540783               0.000050620              -0.000266787               0.001269178               0.001002391               0.000000000               0.000000000               0.000000000               0.000000000               0.000404455               0.003508302               0.000048093              -0.000286866               0.001265044               0.000978178               0.000000000               0.000000000               0.000000000               0.000000000               0.000341138               0.003487979               0.000049130              -0.000308070               0.001265338               0.000957268               0.000000000               0.000000000               0.000000000               0.000000000               0.000276969               0.003478240               0.000048983              -0.000330916               0.001269707               0.000938791               0.000000000               0.000000000               0.000000000               0.000000000               0.000215507               0.003475422               0.000045029              -0.000353612               0.001276333               0.000922721               0.000000000               0.000000000               0.000000000               0.000000000               0.000157184               0.003475171               0.000037149              -0.000375451               0.001283529               0.000908078               0.000000000               0.000000000               0.000000000               0.000000000               0.000102037               0.003476677               0.000027647              -0.000396320               0.001290987               0.000894667               0.000000000               0.000000000               0.000000000               0.000000000               0.000050197               0.003482677               0.000016018              -0.000416510               0.001299717               0.000883208               0.000000000               0.000000000               0.000000000               0.000000000               0.000028305               0.003494323               0.000007365              -0.000426175               0.001306821               0.000880646               0.000000000               0.000000000               0.000000000               0.000000000               0.000872362               0.006044581              -0.001369227              -0.000428437               0.002157652               0.001729216               0.000000000               0.000000000               0.000000000               0.000000000               0.000719251               0.005128529              -0.000876881              -0.000371347               0.001833275               0.001461928               0.000000000               0.000000000               0.000000000               0.000000000               0.000751275               0.004471549              -0.000376806              -0.000277215               0.001582906               0.001305691               0.000000000               0.000000000               0.000000000               0.000000000               0.000701636               0.004104414              -0.000155878              -0.000249938               0.001451437               0.001201499               0.000000000               0.000000000               0.000000000               0.000000000               0.000632284               0.003880484              -0.000051798              -0.000247953               0.001376133               0.001128179               0.000000000               0.000000000               0.000000000               0.000000000               0.000557882               0.003734529              -0.000000792              -0.000257610               0.001330701               0.001073091               0.000000000               0.000000000               0.000000000               0.000000000               0.000489833               0.003637098               0.000024898              -0.000270949               0.001302670               0.001031721               0.000000000               0.000000000               0.000000000               0.000000000               0.000428823               0.003571459               0.000037624              -0.000285623               0.001285682               0.001000059               0.000000000               0.000000000               0.000000000               0.000000000               0.000369618               0.003527525               0.000038273              -0.000302333               0.001276608               0.000974274               0.000000000               0.000000000               0.000000000               0.000000000               0.000314344               0.003498952               0.000033751              -0.000319489               0.001272802               0.000953313               0.000000000               0.000000000               0.000000000               0.000000000               0.000263295               0.003480355               0.000034985              -0.000336308               0.001272209               0.000935902               0.000000000               0.000000000               0.000000000               0.000000000               0.000213997               0.003470675               0.000036617              -0.000353585               0.001274742               0.000921157               0.000000000               0.000000000               0.000000000               0.000000000               0.000168575               0.003468763               0.000032701              -0.000370379               0.001279702               0.000909324               0.000000000               0.000000000               0.000000000               0.000000000               0.000126440               0.003473307               0.000024220              -0.000386747               0.001286673               0.000899926               0.000000000               0.000000000               0.000000000               0.000000000               0.000085352               0.003485834               0.000015474              -0.000403721               0.001296507               0.000892786               0.000000000               0.000000000               0.000000000               0.000000000               0.000043358               0.003508824               0.000008768              -0.000422343               0.001310377               0.000888035               0.000000000               0.000000000               0.000000000               0.000000000               0.000028174               0.003535741               0.000002362              -0.000431401               0.001322369               0.000890968               0.000000000               0.000000000               0.000000000               0.000000000               0.001011288               0.005377722              -0.001611143              -0.000292983               0.001890217               0.001597234               0.000000000               0.000000000               0.000000000               0.000000000               0.000742530               0.004677653              -0.001048718              -0.000306258               0.001661288               0.001355030               0.000000000               0.000000000               0.000000000               0.000000000               0.000651286               0.004234727              -0.000477856              -0.000285108               0.001506598               0.001221489               0.000000000               0.000000000               0.000000000               0.000000000               0.000565198               0.003966581              -0.000228766              -0.000283873               0.001416804               0.001132932               0.000000000               0.000000000               0.000000000               0.000000000               0.000492716               0.003793651              -0.000111964              -0.000289437               0.001361017               0.001071580               0.000000000               0.000000000               0.000000000               0.000000000               0.000428519               0.003673108              -0.000053138              -0.000298443               0.001323838               0.001025395               0.000000000               0.000000000               0.000000000               0.000000000               0.000371175               0.003589843              -0.000022283              -0.000309539               0.001299782               0.000990243               0.000000000               0.000000000               0.000000000               0.000000000               0.000318579               0.003533954              -0.000006022              -0.000322276               0.001285398               0.000963122               0.000000000               0.000000000               0.000000000               0.000000000               0.000269967               0.003497393              -0.000000970              -0.000335935               0.001277764               0.000941829               0.000000000               0.000000000               0.000000000               0.000000000               0.000227277               0.003478770              -0.000004127              -0.000349616               0.001276117               0.000926501               0.000000000               0.000000000               0.000000000               0.000000000               0.000190155               0.003466851              -0.000003130              -0.000362047               0.001276288               0.000914240               0.000000000               0.000000000               0.000000000               0.000000000               0.000157535               0.003460246               0.000001309              -0.000373454               0.001277889               0.000904434               0.000000000               0.000000000               0.000000000               0.000000000               0.000129279               0.003462164               0.000000837              -0.000384290               0.001282140               0.000897850               0.000000000               0.000000000               0.000000000               0.000000000               0.000101968               0.003473811              -0.000003236              -0.000395987               0.001289921               0.000893934               0.000000000               0.000000000               0.000000000               0.000000000               0.000071953               0.003497429              -0.000006736              -0.000410195               0.001302530               0.000892335               0.000000000               0.000000000               0.000000000               0.000000000               0.000036902               0.003531704              -0.000005502              -0.000427624               0.001319764               0.000892140               0.000000000               0.000000000               0.000000000               0.000000000               0.000025875               0.003564388              -0.000007592              -0.000435844               0.001333399               0.000897555               0.000000000               0.000000000               0.000000000               0.000000000               0.001125493               0.004653257              -0.001727562              -0.000159599               0.001604269               0.001444671               0.000000000               0.000000000               0.000000000               0.000000000               0.000754495               0.004194148              -0.001151585              -0.000241333               0.001478479               0.001237146               0.000000000               0.000000000               0.000000000               0.000000000               0.000548350               0.003977853              -0.000565234              -0.000291600               0.001423138               0.001131538               0.000000000               0.000000000               0.000000000               0.000000000               0.000437261               0.003809385              -0.000311980              -0.000312200               0.001373849               0.001061649               0.000000000               0.000000000               0.000000000               0.000000000               0.000370822               0.003683398              -0.000190758              -0.000321366               0.001334909               0.001013543               0.000000000               0.000000000               0.000000000               0.000000000               0.000319052               0.003589031              -0.000126098              -0.000328984               0.001305993               0.000977009               0.000000000               0.000000000               0.000000000               0.000000000               0.000275338               0.003529141              -0.000089991              -0.000337890               0.001288999               0.000951109               0.000000000               0.000000000               0.000000000               0.000000000               0.000236979               0.003489623              -0.000068327              -0.000347335               0.001278974               0.000931639               0.000000000               0.000000000               0.000000000               0.000000000               0.000201264               0.003465784              -0.000055526              -0.000357748               0.001274499               0.000916751               0.000000000               0.000000000               0.000000000               0.000000000               0.000168747               0.003454730              -0.000053944              -0.000368560               0.001274419               0.000905858               0.000000000               0.000000000               0.000000000               0.000000000               0.000143078               0.003449247              -0.000053688              -0.000377500               0.001275571               0.000898070               0.000000000               0.000000000               0.000000000               0.000000000               0.000121562               0.003447206              -0.000046779              -0.000385314               0.001277495               0.000892181               0.000000000               0.000000000               0.000000000               0.000000000               0.000104100               0.003454095              -0.000042187              -0.000392723               0.001282261               0.000889538               0.000000000               0.000000000               0.000000000               0.000000000               0.000085171               0.003471161              -0.000039147              -0.000401955               0.001291027               0.000889072               0.000000000               0.000000000               0.000000000               0.000000000               0.000059494               0.003496071              -0.000033397              -0.000414698               0.001303578               0.000888880               0.000000000               0.000000000               0.000000000               0.000000000               0.000030919               0.003523400              -0.000021381              -0.000428829               0.001317398               0.000888569               0.000000000               0.000000000               0.000000000               0.000000000               0.000020306               0.003541330              -0.000014995              -0.000435051               0.001325449               0.000890398               0.000000000               0.000000000               0.000000000               0.000000000               0.001192267               0.003927808              -0.001727043              -0.000043878               0.001323882               0.001280004               0.000000000               0.000000000               0.000000000               0.000000000               0.000750048               0.003714703              -0.001193251              -0.000183070               0.001299245               0.001116175               0.000000000               0.000000000               0.000000000               0.000000000               0.000456425               0.003715606              -0.000642761              -0.000293291               0.001336287               0.001042996               0.000000000               0.000000000               0.000000000               0.000000000               0.000336250               0.003637189              -0.000400417              -0.000328554               0.001321902               0.000993348               0.000000000               0.000000000               0.000000000               0.000000000               0.000280847               0.003557174              -0.000277091              -0.000339328               0.001298822               0.000959494               0.000000000               0.000000000               0.000000000               0.000000000               0.000245713               0.003498615              -0.000203936              -0.000345184               0.001281254               0.000936071               0.000000000               0.000000000               0.000000000               0.000000000               0.000215569               0.003465133              -0.000158665              -0.000352302               0.001272467               0.000920165               0.000000000               0.000000000               0.000000000               0.000000000               0.000187075               0.003443433              -0.000131965              -0.000360275               0.001267891               0.000907616               0.000000000               0.000000000               0.000000000               0.000000000               0.000161690               0.003431970              -0.000114391              -0.000368361               0.001266766               0.000898404               0.000000000               0.000000000               0.000000000               0.000000000               0.000139026               0.003427416              -0.000108598              -0.000376291               0.001267891               0.000891600               0.000000000               0.000000000               0.000000000               0.000000000               0.000121099               0.003427462              -0.000106623              -0.000383020               0.001270149               0.000887130               0.000000000               0.000000000               0.000000000               0.000000000               0.000104037               0.003430116              -0.000095661              -0.000389750               0.001273277               0.000883528               0.000000000               0.000000000               0.000000000               0.000000000               0.000085111               0.003437691              -0.000080358              -0.000397794               0.001278483               0.000880690               0.000000000               0.000000000               0.000000000               0.000000000               0.000063879               0.003451203              -0.000063898              -0.000407445               0.001286205               0.000878760               0.000000000               0.000000000               0.000000000               0.000000000               0.000039324               0.003463605              -0.000044020              -0.000418203               0.001293924               0.000875721               0.000000000               0.000000000               0.000000000               0.000000000               0.000018134               0.003466256              -0.000023106              -0.000426481               0.001297567               0.000871087               0.000000000               0.000000000               0.000000000               0.000000000               0.000004911               0.003457049              -0.000010570              -0.000430289               0.001295768               0.000865479               0.000000000               0.000000000               0.000000000               0.000000000               0.001205108               0.003237284              -0.001629748               0.000047252               0.001063332               0.001110585               0.000000000               0.000000000               0.000000000               0.000000000               0.000730572               0.003264625              -0.001188274              -0.000134115               0.001132902               0.000998787               0.000000000               0.000000000               0.000000000               0.000000000               0.000386636               0.003460089              -0.000714466              -0.000287523               0.001249192               0.000961670               0.000000000               0.000000000               0.000000000               0.000000000               0.000272877               0.003461397              -0.000486052              -0.000330345               0.001263903               0.000933557               0.000000000               0.000000000               0.000000000               0.000000000               0.000233864               0.003431296              -0.000357303              -0.000341212               0.001257491               0.000916279               0.000000000               0.000000000               0.000000000               0.000000000               0.000211314               0.003410380              -0.000274703              -0.000347054               0.001252467               0.000905413               0.000000000               0.000000000               0.000000000               0.000000000               0.000189903               0.003399566              -0.000221415              -0.000353731               0.001251088               0.000897356               0.000000000               0.000000000               0.000000000               0.000000000               0.000167709               0.003396537              -0.000191570              -0.000361675               0.001252726               0.000891051               0.000000000               0.000000000               0.000000000               0.000000000               0.000147511               0.003397215              -0.000169354              -0.000369334               0.001255505               0.000886171               0.000000000               0.000000000               0.000000000               0.000000000               0.000130661               0.003396863              -0.000153769              -0.000375609               0.001257479               0.000881870               0.000000000               0.000000000               0.000000000               0.000000000               0.000110794               0.003397356              -0.000141314              -0.000383121               0.001260147               0.000877027               0.000000000               0.000000000               0.000000000               0.000000000               0.000086614               0.003399897              -0.000119361              -0.000392506               0.001264123               0.000871617               0.000000000               0.000000000               0.000000000               0.000000000               0.000059209               0.003403433              -0.000089819              -0.000403225               0.001268875               0.000865650               0.000000000               0.000000000               0.000000000               0.000000000               0.000031031               0.003402921              -0.000058288              -0.000413728               0.001272205               0.000858477               0.000000000               0.000000000               0.000000000               0.000000000               0.000007565               0.003393350              -0.000028101              -0.000421331               0.001271549               0.000850218               0.000000000               0.000000000               0.000000000               0.000000000              -0.000003105               0.003371330              -0.000007441              -0.000422580               0.001264625               0.000842046               0.000000000               0.000000000               0.000000000               0.000000000              -0.000009811               0.003348620               0.000002410              -0.000422255               0.001256947               0.000834692               0.000000000               0.000000000               0.000000000               0.000000000               0.001184621               0.002632865              -0.001471572               0.000115122               0.000839238               0.000954360               0.000000000               0.000000000               0.000000000               0.000000000               0.000719850               0.002863119              -0.001160145              -0.000087947               0.000983679               0.000895732               0.000000000               0.000000000               0.000000000               0.000000000               0.000360109               0.003227224              -0.000792966              -0.000268362               0.001165185               0.000896822               0.000000000               0.000000000               0.000000000               0.000000000               0.000255379               0.003310194              -0.000577238              -0.000318007               0.001209389               0.000891382               0.000000000               0.000000000               0.000000000               0.000000000               0.000223379               0.003329153              -0.000438840              -0.000332376               0.001220499               0.000888122               0.000000000               0.000000000               0.000000000               0.000000000               0.000205852               0.003339663              -0.000346207              -0.000340263               0.001226631               0.000886368               0.000000000               0.000000000               0.000000000               0.000000000               0.000187413               0.003350631              -0.000285501              -0.000348548               0.001233049               0.000884500               0.000000000               0.000000000               0.000000000               0.000000000               0.000174358               0.003366587              -0.000248644              -0.000355438               0.001240664               0.000885226               0.000000000               0.000000000               0.000000000               0.000000000               0.000160465               0.003378287              -0.000219319              -0.000362111               0.001246788               0.000884677               0.000000000               0.000000000               0.000000000               0.000000000               0.000143646               0.003378499              -0.000191131              -0.000368444               0.001248970               0.000880525               0.000000000               0.000000000               0.000000000               0.000000000               0.000118215               0.003373132              -0.000162996              -0.000377310               0.001250136               0.000872826               0.000000000               0.000000000               0.000000000               0.000000000               0.000085237               0.003372025              -0.000129186              -0.000389538               0.001253843               0.000864305               0.000000000               0.000000000               0.000000000               0.000000000               0.000047554               0.003369233              -0.000090266              -0.000403321               0.001257507               0.000854186               0.000000000               0.000000000               0.000000000               0.000000000               0.000008596               0.003356295              -0.000051373              -0.000416312               0.001257524               0.000841212               0.000000000               0.000000000               0.000000000               0.000000000              -0.000025338               0.003329481              -0.000019224              -0.000425686               0.001251711               0.000826025               0.000000000               0.000000000               0.000000000               0.000000000              -0.000045492               0.003288703              -0.000000460              -0.000428146               0.001238939               0.000810792               0.000000000               0.000000000               0.000000000               0.000000000              -0.000050424               0.003262926               0.000005875              -0.000426774               0.001229889               0.000803115               0.000000000               0.000000000               0.000000000               0.000000000               0.001120165               0.002054210              -0.001284819               0.000163283               0.000630302               0.000793585               0.000000000               0.000000000               0.000000000               0.000000000               0.000723591               0.002401783              -0.001121887              -0.000028878               0.000810212               0.000781334               0.000000000               0.000000000               0.000000000               0.000000000               0.000383812               0.002889850              -0.000885907              -0.000217302               0.001035708               0.000818406               0.000000000               0.000000000               0.000000000               0.000000000               0.000281740               0.003072269              -0.000689289              -0.000278381               0.001116873               0.000838492               0.000000000               0.000000000               0.000000000               0.000000000               0.000244880               0.003150523              -0.000542823              -0.000301985               0.001150825               0.000848841               0.000000000               0.000000000               0.000000000               0.000000000               0.000229819               0.003199947              -0.000439505              -0.000313811               0.001171242               0.000857431               0.000000000               0.000000000               0.000000000               0.000000000               0.000216465               0.003246850              -0.000369113              -0.000324681               0.001190499               0.000865818               0.000000000               0.000000000               0.000000000               0.000000000               0.000205448               0.003290863              -0.000318932              -0.000334314               0.001208381               0.000874067               0.000000000               0.000000000               0.000000000               0.000000000               0.000189883               0.003318688              -0.000275988              -0.000343629               0.001220761               0.000877132               0.000000000               0.000000000               0.000000000               0.000000000               0.000169131               0.003326712              -0.000235652              -0.000352414               0.001226364               0.000873950               0.000000000               0.000000000               0.000000000               0.000000000               0.000140141               0.003319179              -0.000195815              -0.000362344               0.001227163               0.000864819               0.000000000               0.000000000               0.000000000               0.000000000               0.000102804               0.003309079              -0.000155520              -0.000375082               0.001228043               0.000852960               0.000000000               0.000000000               0.000000000               0.000000000               0.000057841               0.003298064              -0.000111411              -0.000390567               0.001229533               0.000838966               0.000000000               0.000000000               0.000000000               0.000000000               0.000009193               0.003287139              -0.000067511              -0.000407444               0.001231517               0.000824073               0.000000000               0.000000000               0.000000000               0.000000000              -0.000038480               0.003268974              -0.000032486              -0.000423051               0.001230664               0.000807613               0.000000000               0.000000000               0.000000000               0.000000000              -0.000080284               0.003240429              -0.000009939              -0.000435159               0.001225185               0.000790026               0.000000000               0.000000000               0.000000000               0.000000000              -0.000101475               0.003220253               0.000000222              -0.000440584               0.001220268               0.000779684               0.000000000               0.000000000               0.000000000               0.000000000               0.000990350               0.001515887              -0.001073314               0.000181893               0.000444659               0.000626552               0.000000000               0.000000000               0.000000000               0.000000000               0.000723695               0.001944349              -0.001054674               0.000028340               0.000638663               0.000667003               0.000000000               0.000000000               0.000000000               0.000000000               0.000444044               0.002518091              -0.000955146              -0.000148245               0.000888770               0.000740525               0.000000000               0.000000000               0.000000000               0.000000000               0.000344001               0.002790382              -0.000796100              -0.000219798               0.001003384               0.000783586               0.000000000               0.000000000               0.000000000               0.000000000               0.000299645               0.002932899              -0.000654423              -0.000254245               0.001062372               0.000808126               0.000000000               0.000000000               0.000000000               0.000000000               0.000277692               0.003031148              -0.000544664              -0.000274759               0.001101959               0.000827200               0.000000000               0.000000000               0.000000000               0.000000000               0.000263451               0.003118921              -0.000464041              -0.000291070               0.001136653               0.000845583               0.000000000               0.000000000               0.000000000               0.000000000               0.000247869               0.003193310              -0.000399601              -0.000306212               0.001166497               0.000860284               0.000000000               0.000000000               0.000000000               0.000000000               0.000227748               0.003244239              -0.000344033              -0.000320124               0.001188110               0.000867986               0.000000000               0.000000000               0.000000000               0.000000000               0.000203810               0.003271139              -0.000294784              -0.000332463               0.001201190               0.000868727               0.000000000               0.000000000               0.000000000               0.000000000               0.000176788               0.003277129              -0.000248451              -0.000343345               0.001206814               0.000863469               0.000000000               0.000000000               0.000000000               0.000000000               0.000144205               0.003267183              -0.000202930              -0.000354320               0.001207157               0.000852837               0.000000000               0.000000000               0.000000000               0.000000000               0.000101142               0.003252037              -0.000154126              -0.000368575               0.001206860               0.000838285               0.000000000               0.000000000               0.000000000               0.000000000               0.000048823               0.003240877              -0.000105410              -0.000386800               0.001209215               0.000822415               0.000000000               0.000000000               0.000000000               0.000000000              -0.000010458               0.003230861              -0.000062649              -0.000407778               0.001212869               0.000805091               0.000000000               0.000000000               0.000000000               0.000000000              -0.000074869               0.003218246              -0.000028017              -0.000430356               0.001216190               0.000785834               0.000000000               0.000000000               0.000000000               0.000000000              -0.000122361               0.003199989              -0.000006894              -0.000445883               0.001215280               0.000769397               0.000000000               0.000000000               0.000000000               0.000000000               0.000798932               0.001047308              -0.000843273               0.000168684               0.000292871               0.000461554               0.000000000               0.000000000               0.000000000               0.000000000               0.000694509               0.001511408              -0.000942703               0.000071513               0.000479960               0.000551473               0.000000000               0.000000000               0.000000000               0.000000000               0.000514863               0.002110516              -0.000961379              -0.000070742               0.000727079               0.000656337               0.000000000               0.000000000               0.000000000               0.000000000               0.000431449               0.002447825              -0.000852303              -0.000144185               0.000863995               0.000719810               0.000000000               0.000000000               0.000000000               0.000000000               0.000383100               0.002655857              -0.000729874              -0.000188320               0.000948050               0.000759730               0.000000000               0.000000000               0.000000000               0.000000000               0.000353794               0.002810413              -0.000625242              -0.000218629               0.001009671               0.000791042               0.000000000               0.000000000               0.000000000               0.000000000               0.000333522               0.002941561              -0.000542710              -0.000242624               0.001061385               0.000818761               0.000000000               0.000000000               0.000000000               0.000000000               0.000312343               0.003052565              -0.000471953              -0.000264442               0.001105659               0.000841217               0.000000000               0.000000000               0.000000000               0.000000000               0.000286468               0.003138166              -0.000408198              -0.000284845               0.001140993               0.000856148               0.000000000               0.000000000               0.000000000               0.000000000               0.000254459               0.003194615              -0.000352112              -0.000303904               0.001166162               0.000862258               0.000000000               0.000000000               0.000000000               0.000000000               0.000222379               0.003219609              -0.000303782              -0.000319058               0.001179545               0.000860487               0.000000000               0.000000000               0.000000000               0.000000000               0.000189444               0.003221999              -0.000255427              -0.000331707               0.001184558               0.000852851               0.000000000               0.000000000               0.000000000               0.000000000               0.000151291               0.003216198              -0.000201365              -0.000345290               0.001187152               0.000841862               0.000000000               0.000000000               0.000000000               0.000000000               0.000103790               0.003209356              -0.000146998              -0.000362247               0.001190524               0.000828276               0.000000000               0.000000000               0.000000000               0.000000000               0.000044570               0.003204857              -0.000096692              -0.000383892               0.001196239               0.000812347               0.000000000               0.000000000               0.000000000               0.000000000              -0.000028329               0.003203117              -0.000047839              -0.000411012               0.001204699               0.000793687               0.000000000               0.000000000               0.000000000               0.000000000              -0.000088651               0.003189760              -0.000015731              -0.000431963               0.001207230               0.000775267               0.000000000               0.000000000               0.000000000               0.000000000               0.000561145               0.000669021              -0.000614553               0.000126800               0.000180738               0.000307538               0.000000000               0.000000000               0.000000000               0.000000000               0.000635969               0.001117264              -0.000790525               0.000098828               0.000339474               0.000438303               0.000000000               0.000000000               0.000000000               0.000000000               0.000585623               0.001691554              -0.000895171               0.000008163               0.000561124               0.000569287               0.000000000               0.000000000               0.000000000               0.000000000               0.000536721               0.002071319              -0.000836751              -0.000057645               0.000709648               0.000652002               0.000000000               0.000000000               0.000000000               0.000000000               0.000493744               0.002335249              -0.000744614              -0.000106753               0.000813993               0.000707240               0.000000000               0.000000000               0.000000000               0.000000000               0.000460333               0.002541622              -0.000656850              -0.000145078               0.000895558               0.000750480               0.000000000               0.000000000               0.000000000               0.000000000               0.000431415               0.002719090              -0.000578978              -0.000178106               0.000965723               0.000787617               0.000000000               0.000000000               0.000000000               0.000000000               0.000399193               0.002871044              -0.000508718              -0.000209183               0.001026733               0.000817550               0.000000000               0.000000000               0.000000000               0.000000000               0.000366258               0.002991214              -0.000444667              -0.000236555               0.001075913               0.000839358               0.000000000               0.000000000               0.000000000               0.000000000               0.000329756               0.003078158              -0.000389315              -0.000261111               0.001113079               0.000851969               0.000000000               0.000000000               0.000000000               0.000000000               0.000290854               0.003136279              -0.000341933              -0.000282964               0.001139737               0.000856773               0.000000000               0.000000000               0.000000000               0.000000000               0.000252615               0.003169936              -0.000294996              -0.000301511               0.001157138               0.000855628               0.000000000               0.000000000               0.000000000               0.000000000               0.000217115               0.003182475              -0.000243365              -0.000316391               0.001166278               0.000849887               0.000000000               0.000000000               0.000000000               0.000000000               0.000178322               0.003184678              -0.000188395              -0.000331213               0.001171953               0.000840740               0.000000000               0.000000000               0.000000000               0.000000000               0.000129643               0.003188960              -0.000130963              -0.000350003               0.001179644               0.000829641               0.000000000               0.000000000               0.000000000               0.000000000               0.000064581               0.003197044              -0.000068140              -0.000375412               0.001190808               0.000815396               0.000000000               0.000000000               0.000000000               0.000000000               0.000007565               0.003189745              -0.000028786              -0.000395880               0.001195198               0.000799317               0.000000000               0.000000000               0.000000000               0.000000000               0.000306481               0.000386405              -0.000408756               0.000066629               0.000106590               0.000173219               0.000000000               0.000000000               0.000000000               0.000000000               0.000553951               0.000782715              -0.000608903               0.000109891               0.000224272               0.000334163               0.000000000               0.000000000               0.000000000               0.000000000               0.000648401               0.001302303              -0.000754824               0.000080361               0.000407309               0.000487670               0.000000000               0.000000000               0.000000000               0.000000000               0.000651326               0.001703576              -0.000739633               0.000031299               0.000557420               0.000588719               0.000000000               0.000000000               0.000000000               0.000000000               0.000626925               0.002009544              -0.000681028              -0.000016097               0.000675207               0.000659110               0.000000000               0.000000000               0.000000000               0.000000000               0.000589774               0.002255618              -0.000614570              -0.000060788               0.000772128               0.000711340               0.000000000               0.000000000               0.000000000               0.000000000               0.000548301               0.002469302              -0.000547057              -0.000103050               0.000857442               0.000754392               0.000000000               0.000000000               0.000000000               0.000000000               0.000506326               0.002655643              -0.000485138              -0.000142083               0.000932567               0.000790483               0.000000000               0.000000000               0.000000000               0.000000000               0.000468966               0.002807554              -0.000430361              -0.000175082               0.000994203               0.000819121               0.000000000               0.000000000               0.000000000               0.000000000               0.000430744               0.002927823              -0.000379600              -0.000204448               0.001044081               0.000839632               0.000000000               0.000000000               0.000000000               0.000000000               0.000387842               0.003025407              -0.000336018              -0.000232734               0.001086037               0.000853302               0.000000000               0.000000000               0.000000000               0.000000000               0.000349493               0.003095525              -0.000298213              -0.000255880               0.001117125               0.000861245               0.000000000               0.000000000               0.000000000               0.000000000               0.000317929               0.003135859              -0.000255507              -0.000272758               0.001136195               0.000863437               0.000000000               0.000000000               0.000000000               0.000000000               0.000287333               0.003160500              -0.000203454              -0.000287312               0.001149260               0.000861948               0.000000000               0.000000000               0.000000000               0.000000000               0.000250102               0.003178058              -0.000144888              -0.000303468               0.001160498               0.000857030               0.000000000               0.000000000               0.000000000               0.000000000               0.000205510               0.003191848              -0.000077798              -0.000321914               0.001171243               0.000849329               0.000000000               0.000000000               0.000000000               0.000000000               0.000168348               0.003190691              -0.000037884              -0.000335705               0.001175455               0.000839750               0.000000000               0.000000000               0.000000000               0.000000000               0.000076386               0.000198478              -0.000239373               0.000003834               0.000064880               0.000068715               0.000000000               0.000000000               0.000000000               0.000000000               0.000468940               0.000530225              -0.000410837               0.000109573               0.000140215               0.000249788               0.000000000               0.000000000               0.000000000               0.000000000               0.000698833               0.000984612              -0.000547341               0.000138984               0.000281873               0.000420857               0.000000000               0.000000000               0.000000000               0.000000000               0.000757765               0.001389890              -0.000557291               0.000110424               0.000426484               0.000536908               0.000000000               0.000000000               0.000000000               0.000000000               0.000751345               0.001719125              -0.000526341               0.000066863               0.000550748               0.000617611               0.000000000               0.000000000               0.000000000               0.000000000               0.000713985               0.001989117              -0.000480466               0.000019104               0.000656664               0.000675768               0.000000000               0.000000000               0.000000000               0.000000000               0.000665251               0.002224602              -0.000430469              -0.000028607               0.000751062               0.000722456               0.000000000               0.000000000               0.000000000               0.000000000               0.000620377               0.002434736              -0.000386420              -0.000071701               0.000835471               0.000763770               0.000000000               0.000000000               0.000000000               0.000000000               0.000579477               0.002617554              -0.000346139              -0.000109890               0.000909139               0.000799249               0.000000000               0.000000000               0.000000000               0.000000000               0.000539198               0.002774693              -0.000304520              -0.000144637               0.000973101               0.000828464               0.000000000               0.000000000               0.000000000               0.000000000               0.000498163               0.002902903              -0.000273001              -0.000176051               0.001026308               0.000850257               0.000000000               0.000000000               0.000000000               0.000000000               0.000460044               0.003001236              -0.000249888              -0.000202638               0.001067948               0.000865310               0.000000000               0.000000000               0.000000000               0.000000000               0.000426977               0.003077321              -0.000218630              -0.000224548               0.001100613               0.000876065               0.000000000               0.000000000               0.000000000               0.000000000               0.000400336               0.003133315              -0.000173441              -0.000241538               0.001124940               0.000883403               0.000000000               0.000000000               0.000000000               0.000000000               0.000377601               0.003168697              -0.000121899              -0.000254486               0.001141050               0.000886564               0.000000000               0.000000000               0.000000000               0.000000000               0.000359823               0.003188479              -0.000065490              -0.000263626               0.001150691               0.000887065               0.000000000               0.000000000               0.000000000               0.000000000               0.000351338               0.003193820              -0.000034124              -0.000267475               0.001153755               0.000886279               0.000000000               0.000000000               0.000000000               0.000000000              -0.000084471               0.000091796              -0.000107607              -0.000043151               0.000044982               0.000001831               0.000000000               0.000000000               0.000000000               0.000000000               0.000407187               0.000372813              -0.000206507               0.000106092               0.000088906               0.000194998               0.000000000               0.000000000               0.000000000               0.000000000               0.000731317               0.000775882              -0.000288593               0.000177257               0.000199539               0.000376796               0.000000000               0.000000000               0.000000000               0.000000000               0.000833079               0.001176514              -0.000301104               0.000165339               0.000337054               0.000502393               0.000000000               0.000000000               0.000000000               0.000000000               0.000837422               0.001513026              -0.000288083               0.000124904               0.000462702               0.000587606               0.000000000               0.000000000               0.000000000               0.000000000               0.000802676               0.001793406              -0.000263635               0.000076827               0.000572187               0.000649014               0.000000000               0.000000000               0.000000000               0.000000000               0.000755797               0.002037402              -0.000237338               0.000028748               0.000669544               0.000698293               0.000000000               0.000000000               0.000000000               0.000000000               0.000709017               0.002263942              -0.000215012              -0.000017111               0.000760343               0.000743232               0.000000000               0.000000000               0.000000000               0.000000000               0.000662162               0.002475108              -0.000193202              -0.000061078               0.000845387               0.000784309               0.000000000               0.000000000               0.000000000               0.000000000               0.000619396               0.002659167              -0.000169604              -0.000100122               0.000919754               0.000819632               0.000000000               0.000000000               0.000000000               0.000000000               0.000579911               0.002809761              -0.000154199              -0.000133753               0.000981162               0.000847409               0.000000000               0.000000000               0.000000000               0.000000000               0.000537808               0.002930575              -0.000144618              -0.000164643               0.001031730               0.000867086               0.000000000               0.000000000               0.000000000               0.000000000               0.000498699               0.003029849              -0.000127974              -0.000191718               0.001073846               0.000882127               0.000000000               0.000000000               0.000000000               0.000000000               0.000473267               0.003105804              -0.000101476              -0.000210750               0.001105508               0.000894758               0.000000000               0.000000000               0.000000000               0.000000000               0.000467306               0.003156347              -0.000069409              -0.000219303               0.001125206               0.000905903               0.000000000               0.000000000               0.000000000               0.000000000               0.000480943               0.003185371              -0.000035671              -0.000217817               0.001134386               0.000916568               0.000000000               0.000000000               0.000000000               0.000000000               0.000501069               0.003197812              -0.000018749              -0.000211825               0.001136535               0.000924710               0.000000000               0.000000000               0.000000000               0.000000000               0.000000000               0.000000000               0.000000000               0.000000000               0.000000000               0.000000000               0.000000000               0.000000000               0.000000000               0.000000000               0.000000000               0.000000000               0.000000000               0.000000000               0.000000000               0.000000000               0.000000000               0.000000000               0.000000000               0.000000000               0.000000000               0.000000000               0.000000000               0.000000000               0.000000000               0.000000000               0.000000000               0.000000000               0.000000000               0.000000000               0.000000000               0.000000000               0.000000000               0.000000000               0.000000000               0.000000000               0.000000000               0.000000000               0.000000000               0.000000000               0.000000000               0.000000000               0.000000000               0.000000000               0.000000000               0.000000000               0.000000000               0.000000000               0.000000000               0.000000000               0.000000000               0.000000000               0.000000000               0.000000000               0.000000000               0.000000000               0.000000000               0.000000000               0.000000000               0.000000000               0.000000000               0.000000000               0.000000000               0.000000000               0.000000000               0.000000000               0.000000000               0.000000000               0.000000000               0.000000000               0.000000000               0.000000000               0.000000000               0.000000000               0.000000000               0.000000000               0.000000000               0.000000000               0.000000000               0.000000000               0.000000000               0.000000000               0.000000000               0.000000000               0.000000000               0.000000000               0.000000000               0.000000000               0.000000000               0.000000000               0.000000000               0.000000000               0.000000000               0.000000000               0.000000000               0.000000000               0.000000000               0.000000000               0.000000000               0.000000000               0.000000000               0.000000000               0.000000000               0.000000000               0.000000000               0.000000000               0.000000000               0.000000000               0.000000000               0.000000000               0.000000000               0.000000000               0.000000000               0.000000000               0.000000000               0.000000000               0.000000000               0.000000000               0.000000000               0.000000000               0.000000000               0.000000000               0.000000000               0.000000000               0.000000000               0.000000000               0.000000000               0.000000000               0.000000000               0.000000000               0.000000000               0.000000000               0.000000000               0.000000000               0.000000000               0.000000000               0.000000000               0.000000000               0.000000000               0.000000000               0.000000000               0.000000000               0.000000000               0.000000000               0.000000000               0.000000000               0.000000000               0.000000000               0.000000000               0.000000000               0.000000000               0.000000000               0.000000000               0.000000000               0.000000000               0.000000000               0.000000000               0.000000000               0.000000000               0.000000000               0.000000000               0.000000000               0.000000000               0.000000000               0.000000000               0.000000000               0.000000000               0.000000000               0.000000000               0.000000000               0.000000000               0.000000000               0.000000000               0.000000000               0.000000000               0.000000000               0.000000000               0.000000000               0.000000000               0.000000000               0.000000000               0.000000000               0.000000000               0.000000000               0.000000000               0.000000000               0.000000000               0.000000000               0.000000000               0.000000000               0.000000000               0.000000000               0.000000000               0.000000000               0.000000000               0.000000000               0.000000000               0.000000000               0.000000000               0.000000000               0.000000000               0.000000000               0.000000000               0.000000000               0.000000000               0.000000000               0.000000000               0.000000000               0.000000000               0.000000000               0.000000000               0.000000000               0.000000000               0.000000000               0.000000000               0.000000000               0.000000000               0.000000000               0.000000000               0.000000000               0.000000000               0.000000000               0.000000000               0.000000000               0.000000000               0.000000000               0.000000000               0.000000000               0.000000000               0.000000000               0.000000000               0.000000000               0.000000000               0.000000000               0.000000000               0.000000000               0.000000000               0.000000000               0.000000000               0.000000000               0.000000000               0.000000000               0.000000000               0.000000000               0.000000000               0.000000000               0.000000000               0.000000000               0.000000000               0.000000000               0.000000000               0.000000000               0.000000000               0.000000000               0.000000000               0.000000000               0.000000000               0.000000000               0.000000000               0.000000000               0.000000000               0.000000000               0.000000000               0.000000000               0.000000000               0.000000000               0.000000000               0.000000000               0.000000000               0.000000000               0.000000000               0.000000000               0.000000000               0.000000000               0.000000000               0.000000000               0.000000000               0.000000000               0.000000000               0.000000000               0.000000000               0.000000000               0.000000000               0.000000000               0.000000000               0.000000000               0.000000000               0.000000000               0.000000000               0.000000000               0.000000000               0.000000000               0.000000000               0.000000000               0.000000000               0.000000000               0.000000000               0.000000000               0.000000000               0.000000000               0.000000000               0.000000000               0.000000000               0.000000000               0.000000000               0.000000000               0.000000000               0.000000000               0.000000000               0.000000000               0.000000000               0.000000000               0.000000000               0.000000000               0.000000000               0.000000000               0.000000000               0.000000000               0.000000000               0.000000000               0.000000000               0.000000000               0.000000000               0.000000000               0.000000000               0.000000000               0.000000000               0.000000000               0.000000000               0.000000000               0.000000000               0.000000000               0.000000000               0.000000000               0.000000000               0.000000000               0.000000000               0.000000000               0.000000000               0.000000000               0.000634815               0.006941252               0.000529935              -0.000629600               0.002523594               0.001893994               0.000000000               0.000000000               0.000000000               0.000000000               0.000662243               0.005750819               0.000336094              -0.000470510               0.002073757               0.001603247               0.000000000               0.000000000               0.000000000               0.000000000               0.000890497               0.004806101               0.000135607              -0.000266825               0.001690959               0.001424134               0.000000000               0.000000000               0.000000000               0.000000000               0.000915398               0.004287381               0.000043294              -0.000192648               0.001493329               0.001300681               0.000000000               0.000000000               0.000000000               0.000000000               0.000862577               0.003980101              -0.000000174              -0.000174046               0.001384702               0.001210656               0.000000000               0.000000000               0.000000000               0.000000000               0.000784341               0.003789538              -0.000020776              -0.000179564               0.001323021               0.001143457               0.000000000               0.000000000               0.000000000               0.000000000               0.000702696               0.003668789              -0.000030824              -0.000195087               0.001287946               0.001092859               0.000000000               0.000000000               0.000000000               0.000000000               0.000620698               0.003592001              -0.000035261              -0.000216238               0.001269401               0.001053163               0.000000000               0.000000000               0.000000000               0.000000000               0.000541776               0.003541754              -0.000034400              -0.000239553               0.001260424               0.001020871               0.000000000               0.000000000               0.000000000               0.000000000               0.000469060               0.003507994              -0.000033318              -0.000262601               0.001256853               0.000994252               0.000000000               0.000000000               0.000000000               0.000000000               0.000397807               0.003487285              -0.000034251              -0.000286732               0.001257994               0.000971262               0.000000000               0.000000000               0.000000000               0.000000000               0.000324166               0.003476002              -0.000034119              -0.000312937               0.001262968               0.000950031               0.000000000               0.000000000               0.000000000               0.000000000               0.000252516               0.003470898              -0.000032141              -0.000339168               0.001270011               0.000930842               0.000000000               0.000000000               0.000000000               0.000000000               0.000184514               0.003468254              -0.000027866              -0.000364338               0.001277519               0.000913181               0.000000000               0.000000000               0.000000000               0.000000000               0.000119143               0.003464161              -0.000021788              -0.000388341               0.001284156               0.000895815               0.000000000               0.000000000               0.000000000               0.000000000               0.000057707               0.003457902              -0.000012670              -0.000410597               0.001289488               0.000878891               0.000000000               0.000000000               0.000000000               0.000000000               0.000029010               0.003455066              -0.000006518              -0.000421003               0.001292012               0.000871008               0.000000000               0.000000000               0.000000000               0.000000000               0.000735348               0.006587487               0.001001642              -0.000547680               0.002378367               0.001830687               0.000000000               0.000000000               0.000000000               0.000000000               0.000688617               0.005502498               0.000636522              -0.000429580               0.001977341               0.001547761               0.000000000               0.000000000               0.000000000               0.000000000               0.000835589               0.004670583               0.000262799              -0.000270476               0.001647004               0.001376528               0.000000000               0.000000000               0.000000000               0.000000000               0.000827310               0.004212967               0.000094534              -0.000216379               0.001476435               0.001260056               0.000000000               0.000000000               0.000000000               0.000000000               0.000765325               0.003941289               0.000015190              -0.000205664               0.001382304               0.001176641               0.000000000               0.000000000               0.000000000               0.000000000               0.000687442               0.003771523              -0.000022707              -0.000213649               0.001328378               0.001114729               0.000000000               0.000000000               0.000000000               0.000000000               0.000612635               0.003662499              -0.000041463              -0.000228074               0.001296845               0.001068772               0.000000000               0.000000000               0.000000000               0.000000000               0.000539232               0.003589423              -0.000050758              -0.000246465               0.001278617               0.001032152               0.000000000               0.000000000               0.000000000               0.000000000               0.000468827               0.003540783              -0.000050620              -0.000266787               0.001269178               0.001002391               0.000000000               0.000000000               0.000000000               0.000000000               0.000404455               0.003508302              -0.000048093              -0.000286866               0.001265044               0.000978178               0.000000000               0.000000000               0.000000000               0.000000000               0.000341138               0.003487979              -0.000049130              -0.000308070               0.001265338               0.000957268               0.000000000               0.000000000               0.000000000               0.000000000               0.000276969               0.003478240              -0.000048983              -0.000330916               0.001269707               0.000938791               0.000000000               0.000000000               0.000000000               0.000000000               0.000215507               0.003475422              -0.000045029              -0.000353612               0.001276333               0.000922721               0.000000000               0.000000000               0.000000000               0.000000000               0.000157184               0.003475171              -0.000037149              -0.000375451               0.001283529               0.000908078               0.000000000               0.000000000               0.000000000               0.000000000               0.000102037               0.003476677              -0.000027647              -0.000396320               0.001290987               0.000894667               0.000000000               0.000000000               0.000000000               0.000000000               0.000050197               0.003482677              -0.000016018              -0.000416510               0.001299717               0.000883208               0.000000000               0.000000000               0.000000000               0.000000000               0.000028305               0.003494323              -0.000007365              -0.000426175               0.001306821               0.000880646               0.000000000               0.000000000               0.000000000               0.000000000               0.000872362               0.006044581               0.001369227              -0.000428437               0.002157652               0.001729216               0.000000000               0.000000000               0.000000000               0.000000000               0.000719251               0.005128529               0.000876881              -0.000371347               0.001833275               0.001461928               0.000000000               0.000000000               0.000000000               0.000000000               0.000751275               0.004471549               0.000376806              -0.000277215               0.001582906               0.001305691               0.000000000               0.000000000               0.000000000               0.000000000               0.000701636               0.004104414               0.000155878              -0.000249938               0.001451437               0.001201499               0.000000000               0.000000000               0.000000000               0.000000000               0.000632284               0.003880484               0.000051798              -0.000247953               0.001376133               0.001128179               0.000000000               0.000000000               0.000000000               0.000000000               0.000557882               0.003734529               0.000000792              -0.000257610               0.001330701               0.001073091               0.000000000               0.000000000               0.000000000               0.000000000               0.000489833               0.003637098              -0.000024898              -0.000270949               0.001302670               0.001031721               0.000000000               0.000000000               0.000000000               0.000000000               0.000428823               0.003571459              -0.000037624              -0.000285623               0.001285682               0.001000059               0.000000000               0.000000000               0.000000000               0.000000000               0.000369618               0.003527525              -0.000038273              -0.000302333               0.001276608               0.000974274               0.000000000               0.000000000               0.000000000               0.000000000               0.000314344               0.003498952              -0.000033751              -0.000319489               0.001272802               0.000953313               0.000000000               0.000000000               0.000000000               0.000000000               0.000263295               0.003480355              -0.000034985              -0.000336308               0.001272209               0.000935902               0.000000000               0.000000000               0.000000000               0.000000000               0.000213997               0.003470675              -0.000036617              -0.000353585               0.001274742               0.000921157               0.000000000               0.000000000               0.000000000               0.000000000               0.000168575               0.003468763              -0.000032701              -0.000370379               0.001279702               0.000909324               0.000000000               0.000000000               0.000000000               0.000000000               0.000126440               0.003473307              -0.000024220              -0.000386747               0.001286673               0.000899926               0.000000000               0.000000000               0.000000000               0.000000000               0.000085352               0.003485834              -0.000015474              -0.000403721               0.001296507               0.000892786               0.000000000               0.000000000               0.000000000               0.000000000               0.000043358               0.003508824              -0.000008768              -0.000422343               0.001310377               0.000888035               0.000000000               0.000000000               0.000000000               0.000000000               0.000028174               0.003535741              -0.000002362              -0.000431401               0.001322369               0.000890968               0.000000000               0.000000000               0.000000000               0.000000000               0.001011288               0.005377722               0.001611143              -0.000292983               0.001890217               0.001597234               0.000000000               0.000000000               0.000000000               0.000000000               0.000742530               0.004677653               0.001048718              -0.000306258               0.001661288               0.001355030               0.000000000               0.000000000               0.000000000               0.000000000               0.000651286               0.004234727               0.000477856              -0.000285108               0.001506598               0.001221489               0.000000000               0.000000000               0.000000000               0.000000000               0.000565198               0.003966581               0.000228766              -0.000283873               0.001416804               0.001132932               0.000000000               0.000000000               0.000000000               0.000000000               0.000492716               0.003793651               0.000111964              -0.000289437               0.001361017               0.001071580               0.000000000               0.000000000               0.000000000               0.000000000               0.000428519               0.003673108               0.000053138              -0.000298443               0.001323838               0.001025395               0.000000000               0.000000000               0.000000000               0.000000000               0.000371175               0.003589843               0.000022283              -0.000309539               0.001299782               0.000990243               0.000000000               0.000000000               0.000000000               0.000000000               0.000318579               0.003533954               0.000006022              -0.000322276               0.001285398               0.000963122               0.000000000               0.000000000               0.000000000               0.000000000               0.000269967               0.003497393               0.000000970              -0.000335935               0.001277764               0.000941829               0.000000000               0.000000000               0.000000000               0.000000000               0.000227277               0.003478770               0.000004127              -0.000349616               0.001276117               0.000926501               0.000000000               0.000000000               0.000000000               0.000000000               0.000190155               0.003466851               0.000003130              -0.000362047               0.001276288               0.000914240               0.000000000               0.000000000               0.000000000               0.000000000               0.000157535               0.003460246              -0.000001309              -0.000373454               0.001277889               0.000904434               0.000000000               0.000000000               0.000000000               0.000000000               0.000129279               0.003462164              -0.000000837              -0.000384290               0.001282140               0.000897850               0.000000000               0.000000000               0.000000000               0.000000000               0.000101968               0.003473811               0.000003236              -0.000395987               0.001289921               0.000893934               0.000000000               0.000000000               0.000000000               0.000000000               0.000071953               0.003497429               0.000006736              -0.000410195               0.001302530               0.000892335               0.000000000               0.000000000               0.000000000               0.000000000               0.000036902               0.003531704               0.000005502              -0.000427624               0.001319764               0.000892140               0.000000000               0.000000000               0.000000000               0.000000000               0.000025875               0.003564388               0.000007592              -0.000435844               0.001333399               0.000897555               0.000000000               0.000000000               0.000000000               0.000000000               0.001125493               0.004653257               0.001727562              -0.000159599               0.001604269               0.001444671               0.000000000               0.000000000               0.000000000               0.000000000               0.000754495               0.004194148               0.001151585              -0.000241333               0.001478479               0.001237146               0.000000000               0.000000000               0.000000000               0.000000000               0.000548350               0.003977853               0.000565234              -0.000291600               0.001423138               0.001131538               0.000000000               0.000000000               0.000000000               0.000000000               0.000437261               0.003809385               0.000311980              -0.000312200               0.001373849               0.001061649               0.000000000               0.000000000               0.000000000               0.000000000               0.000370822               0.003683398               0.000190758              -0.000321366               0.001334909               0.001013543               0.000000000               0.000000000               0.000000000               0.000000000               0.000319052               0.003589031               0.000126098              -0.000328984               0.001305993               0.000977009               0.000000000               0.000000000               0.000000000               0.000000000               0.000275338               0.003529141               0.000089991              -0.000337890               0.001288999               0.000951109               0.000000000               0.000000000               0.000000000               0.000000000               0.000236979               0.003489623               0.000068327              -0.000347335               0.001278974               0.000931639               0.000000000               0.000000000               0.000000000               0.000000000               0.000201264               0.003465784               0.000055526              -0.000357748               0.001274499               0.000916751               0.000000000               0.000000000               0.000000000               0.000000000               0.000168747               0.003454730               0.000053944              -0.000368560               0.001274419               0.000905858               0.000000000               0.000000000               0.000000000               0.000000000               0.000143078               0.003449247               0.000053688              -0.000377500               0.001275571               0.000898070               0.000000000               0.000000000               0.000000000               0.000000000               0.000121562               0.003447206               0.000046779              -0.000385314               0.001277495               0.000892181               0.000000000               0.000000000               0.000000000               0.000000000               0.000104100               0.003454095               0.000042187              -0.000392723               0.001282261               0.000889538               0.000000000               0.000000000               0.000000000               0.000000000               0.000085171               0.003471161               0.000039147              -0.000401955               0.001291027               0.000889072               0.000000000               0.000000000               0.000000000               0.000000000               0.000059494               0.003496071               0.000033397              -0.000414698               0.001303578               0.000888880               0.000000000               0.000000000               0.000000000               0.000000000               0.000030919               0.003523400               0.000021381              -0.000428829               0.001317398               0.000888569               0.000000000               0.000000000               0.000000000               0.000000000               0.000020306               0.003541330               0.000014995              -0.000435051               0.001325449               0.000890398               0.000000000               0.000000000               0.000000000               0.000000000               0.001192267               0.003927808               0.001727043              -0.000043878               0.001323882               0.001280004               0.000000000               0.000000000               0.000000000               0.000000000               0.000750048               0.003714703               0.001193251              -0.000183070               0.001299245               0.001116175               0.000000000               0.000000000               0.000000000               0.000000000               0.000456425               0.003715606               0.000642761              -0.000293291               0.001336287               0.001042996               0.000000000               0.000000000               0.000000000               0.000000000               0.000336250               0.003637189               0.000400417              -0.000328554               0.001321902               0.000993348               0.000000000               0.000000000               0.000000000               0.000000000               0.000280847               0.003557174               0.000277091              -0.000339328               0.001298822               0.000959494               0.000000000               0.000000000               0.000000000               0.000000000               0.000245713               0.003498615               0.000203936              -0.000345184               0.001281254               0.000936071               0.000000000               0.000000000               0.000000000               0.000000000               0.000215569               0.003465133               0.000158665              -0.000352302               0.001272467               0.000920165               0.000000000               0.000000000               0.000000000               0.000000000               0.000187075               0.003443433               0.000131965              -0.000360275               0.001267891               0.000907616               0.000000000               0.000000000               0.000000000               0.000000000               0.000161690               0.003431970               0.000114391              -0.000368361               0.001266766               0.000898404               0.000000000               0.000000000               0.000000000               0.000000000               0.000139026               0.003427416               0.000108598              -0.000376291               0.001267891               0.000891600               0.000000000               0.000000000               0.000000000               0.000000000               0.000121099               0.003427462               0.000106623              -0.000383020               0.001270149               0.000887130               0.000000000               0.000000000               0.000000000               0.000000000               0.000104037               0.003430116               0.000095661              -0.000389750               0.001273277               0.000883528               0.000000000               0.000000000               0.000000000               0.000000000               0.000085111               0.003437691               0.000080358              -0.000397794               0.001278483               0.000880690               0.000000000               0.000000000               0.000000000               0.000000000               0.000063879               0.003451203               0.000063898              -0.000407445               0.001286205               0.000878760               0.000000000               0.000000000               0.000000000               0.000000000               0.000039324               0.003463605               0.000044020              -0.000418203               0.001293924               0.000875721               0.000000000               0.000000000               0.000000000               0.000000000               0.000018134               0.003466256               0.000023106              -0.000426481               0.001297567               0.000871087               0.000000000               0.000000000               0.000000000               0.000000000               0.000004911               0.003457049               0.000010570              -0.000430289               0.001295768               0.000865479               0.000000000               0.000000000               0.000000000               0.000000000               0.001205108               0.003237284               0.001629748               0.000047252               0.001063332               0.001110585               0.000000000               0.000000000               0.000000000               0.000000000               0.000730572               0.003264625               0.001188274              -0.000134115               0.001132902               0.000998787               0.000000000               0.000000000               0.000000000               0.000000000               0.000386636               0.003460089               0.000714466              -0.000287523               0.001249192               0.000961670               0.000000000               0.000000000               0.000000000               0.000000000               0.000272877               0.003461397               0.000486052              -0.000330345               0.001263903               0.000933557               0.000000000               0.000000000               0.000000000               0.000000000               0.000233864               0.003431296               0.000357303              -0.000341212               0.001257491               0.000916279               0.000000000               0.000000000               0.000000000               0.000000000               0.000211314               0.003410380               0.000274703              -0.000347054               0.001252467               0.000905413               0.000000000               0.000000000               0.000000000               0.000000000               0.000189903               0.003399566               0.000221415              -0.000353731               0.001251088               0.000897356               0.000000000               0.000000000               0.000000000               0.000000000               0.000167709               0.003396537               0.000191570              -0.000361675               0.001252726               0.000891051               0.000000000               0.000000000               0.000000000               0.000000000               0.000147511               0.003397215               0.000169354              -0.000369334               0.001255505               0.000886171               0.000000000               0.000000000               0.000000000               0.000000000               0.000130661               0.003396863               0.000153769              -0.000375609               0.001257479               0.000881870               0.000000000               0.000000000               0.000000000               0.000000000               0.000110794               0.003397356               0.000141314              -0.000383121               0.001260147               0.000877027               0.000000000               0.000000000               0.000000000               0.000000000               0.000086614               0.003399897               0.000119361              -0.000392506               0.001264123               0.000871617               0.000000000               0.000000000               0.000000000               0.000000000               0.000059209               0.003403433               0.000089819              -0.000403225               0.001268875               0.000865650               0.000000000               0.000000000               0.000000000               0.000000000               0.000031031               0.003402921               0.000058288              -0.000413728               0.001272205               0.000858477               0.000000000               0.000000000               0.000000000               0.000000000               0.000007565               0.003393350               0.000028101              -0.000421331               0.001271549               0.000850218               0.000000000               0.000000000               0.000000000               0.000000000              -0.000003105               0.003371330               0.000007441              -0.000422580               0.001264625               0.000842046               0.000000000               0.000000000               0.000000000               0.000000000              -0.000009811               0.003348620              -0.000002410              -0.000422255               0.001256947               0.000834692               0.000000000               0.000000000               0.000000000               0.000000000               0.001184621               0.002632865               0.001471572               0.000115122               0.000839238               0.000954360               0.000000000               0.000000000               0.000000000               0.000000000               0.000719850               0.002863119               0.001160145              -0.000087947               0.000983679               0.000895732               0.000000000               0.000000000               0.000000000               0.000000000               0.000360109               0.003227224               0.000792966              -0.000268362               0.001165185               0.000896822               0.000000000               0.000000000               0.000000000               0.000000000               0.000255379               0.003310194               0.000577238              -0.000318007               0.001209389               0.000891382               0.000000000               0.000000000               0.000000000               0.000000000               0.000223379               0.003329153               0.000438840              -0.000332376               0.001220499               0.000888122               0.000000000               0.000000000               0.000000000               0.000000000               0.000205852               0.003339663               0.000346207              -0.000340263               0.001226631               0.000886368               0.000000000               0.000000000               0.000000000               0.000000000               0.000187413               0.003350631               0.000285501              -0.000348548               0.001233049               0.000884500               0.000000000               0.000000000               0.000000000               0.000000000               0.000174358               0.003366587               0.000248644              -0.000355438               0.001240664               0.000885226               0.000000000               0.000000000               0.000000000               0.000000000               0.000160465               0.003378287               0.000219319              -0.000362111               0.001246788               0.000884677               0.000000000               0.000000000               0.000000000               0.000000000               0.000143646               0.003378499               0.000191131              -0.000368444               0.001248970               0.000880525               0.000000000               0.000000000               0.000000000               0.000000000               0.000118215               0.003373132               0.000162996              -0.000377310               0.001250136               0.000872826               0.000000000               0.000000000               0.000000000               0.000000000               0.000085237               0.003372025               0.000129186              -0.000389538               0.001253843               0.000864305               0.000000000               0.000000000               0.000000000               0.000000000               0.000047554               0.003369233               0.000090266              -0.000403321               0.001257507               0.000854186               0.000000000               0.000000000               0.000000000               0.000000000               0.000008596               0.003356295               0.000051373              -0.000416312               0.001257524               0.000841212               0.000000000               0.000000000               0.000000000               0.000000000              -0.000025338               0.003329481               0.000019224              -0.000425686               0.001251711               0.000826025               0.000000000               0.000000000               0.000000000               0.000000000              -0.000045492               0.003288703               0.000000460              -0.000428146               0.001238939               0.000810792               0.000000000               0.000000000               0.000000000               0.000000000              -0.000050424               0.003262926              -0.000005875              -0.000426774               0.001229889               0.000803115               0.000000000               0.000000000               0.000000000               0.000000000               0.001120165               0.002054210               0.001284819               0.000163283               0.000630302               0.000793585               0.000000000               0.000000000               0.000000000               0.000000000               0.000723591               0.002401783               0.001121887              -0.000028878               0.000810212               0.000781334               0.000000000               0.000000000               0.000000000               0.000000000               0.000383812               0.002889850               0.000885907              -0.000217302               0.001035708               0.000818406               0.000000000               0.000000000               0.000000000               0.000000000               0.000281740               0.003072269               0.000689289              -0.000278381               0.001116873               0.000838492               0.000000000               0.000000000               0.000000000               0.000000000               0.000244880               0.003150523               0.000542823              -0.000301985               0.001150825               0.000848841               0.000000000               0.000000000               0.000000000               0.000000000               0.000229819               0.003199947               0.000439505              -0.000313811               0.001171242               0.000857431               0.000000000               0.000000000               0.000000000               0.000000000               0.000216465               0.003246850               0.000369113              -0.000324681               0.001190499               0.000865818               0.000000000               0.000000000               0.000000000               0.000000000               0.000205448               0.003290863               0.000318932              -0.000334314               0.001208381               0.000874067               0.000000000               0.000000000               0.000000000               0.000000000               0.000189883               0.003318688               0.000275988              -0.000343629               0.001220761               0.000877132               0.000000000               0.000000000               0.000000000               0.000000000               0.000169131               0.003326712               0.000235652              -0.000352414               0.001226364               0.000873950               0.000000000               0.000000000               0.000000000               0.000000000               0.000140141               0.003319179               0.000195815              -0.000362344               0.001227163               0.000864819               0.000000000               0.000000000               0.000000000               0.000000000               0.000102804               0.003309079               0.000155520              -0.000375082               0.001228043               0.000852960               0.000000000               0.000000000               0.000000000               0.000000000               0.000057841               0.003298064               0.000111411              -0.000390567               0.001229533               0.000838966               0.000000000               0.000000000               0.000000000               0.000000000               0.000009193               0.003287139               0.000067511              -0.000407444               0.001231517               0.000824073               0.000000000               0.000000000               0.000000000               0.000000000              -0.000038480               0.003268974               0.000032486              -0.000423051               0.001230664               0.000807613               0.000000000               0.000000000               0.000000000               0.000000000              -0.000080284               0.003240429               0.000009939              -0.000435159               0.001225185               0.000790026               0.000000000               0.000000000               0.000000000               0.000000000              -0.000101475               0.003220253              -0.000000222              -0.000440584               0.001220268               0.000779684               0.000000000               0.000000000               0.000000000               0.000000000               0.000990350               0.001515887               0.001073314               0.000181893               0.000444659               0.000626552               0.000000000               0.000000000               0.000000000               0.000000000               0.000723695               0.001944349               0.001054674               0.000028340               0.000638663               0.000667003               0.000000000               0.000000000               0.000000000               0.000000000               0.000444044               0.002518091               0.000955146              -0.000148245               0.000888770               0.000740525               0.000000000               0.000000000               0.000000000               0.000000000               0.000344001               0.002790382               0.000796100              -0.000219798               0.001003384               0.000783586               0.000000000               0.000000000               0.000000000               0.000000000               0.000299645               0.002932899               0.000654423              -0.000254245               0.001062372               0.000808126               0.000000000               0.000000000               0.000000000               0.000000000               0.000277692               0.003031148               0.000544664              -0.000274759               0.001101959               0.000827200               0.000000000               0.000000000               0.000000000               0.000000000               0.000263451               0.003118921               0.000464041              -0.000291070               0.001136653               0.000845583               0.000000000               0.000000000               0.000000000               0.000000000               0.000247869               0.003193310               0.000399601              -0.000306212               0.001166497               0.000860284               0.000000000               0.000000000               0.000000000               0.000000000               0.000227748               0.003244239               0.000344033              -0.000320124               0.001188110               0.000867986               0.000000000               0.000000000               0.000000000               0.000000000               0.000203810               0.003271139               0.000294784              -0.000332463               0.001201190               0.000868727               0.000000000               0.000000000               0.000000000               0.000000000               0.000176788               0.003277129               0.000248451              -0.000343345               0.001206814               0.000863469               0.000000000               0.000000000               0.000000000               0.000000000               0.000144205               0.003267183               0.000202930              -0.000354320               0.001207157               0.000852837               0.000000000               0.000000000               0.000000000               0.000000000               0.000101142               0.003252037               0.000154126              -0.000368575               0.001206860               0.000838285               0.000000000               0.000000000               0.000000000               0.000000000               0.000048823               0.003240877               0.000105410              -0.000386800               0.001209215               0.000822415               0.000000000               0.000000000               0.000000000               0.000000000              -0.000010458               0.003230861               0.000062649              -0.000407778               0.001212869               0.000805091               0.000000000               0.000000000               0.000000000               0.000000000              -0.000074869               0.003218246               0.000028017              -0.000430356               0.001216190               0.000785834               0.000000000               0.000000000               0.000000000               0.000000000              -0.000122361               0.003199989               0.000006894              -0.000445883               0.001215280               0.000769397               0.000000000               0.000000000               0.000000000               0.000000000               0.000798932               0.001047308               0.000843273               0.000168684               0.000292871               0.000461554               0.000000000               0.000000000               0.000000000               0.000000000               0.000694509               0.001511408               0.000942703               0.000071513               0.000479960               0.000551473               0.000000000               0.000000000               0.000000000               0.000000000               0.000514863               0.002110516               0.000961379              -0.000070742               0.000727079               0.000656337               0.000000000               0.000000000               0.000000000               0.000000000               0.000431449               0.002447825               0.000852303              -0.000144185               0.000863995               0.000719810               0.000000000               0.000000000               0.000000000               0.000000000               0.000383100               0.002655857               0.000729874              -0.000188320               0.000948050               0.000759730               0.000000000               0.000000000               0.000000000               0.000000000               0.000353794               0.002810413               0.000625242              -0.000218629               0.001009671               0.000791042               0.000000000               0.000000000               0.000000000               0.000000000               0.000333522               0.002941561               0.000542710              -0.000242624               0.001061385               0.000818761               0.000000000               0.000000000               0.000000000               0.000000000               0.000312343               0.003052565               0.000471953              -0.000264442               0.001105659               0.000841217               0.000000000               0.000000000               0.000000000               0.000000000               0.000286468               0.003138166               0.000408198              -0.000284845               0.001140993               0.000856148               0.000000000               0.000000000               0.000000000               0.000000000               0.000254459               0.003194615               0.000352112              -0.000303904               0.001166162               0.000862258               0.000000000               0.000000000               0.000000000               0.000000000               0.000222379               0.003219609               0.000303782              -0.000319058               0.001179545               0.000860487               0.000000000               0.000000000               0.000000000               0.000000000               0.000189444               0.003221999               0.000255427              -0.000331707               0.001184558               0.000852851               0.000000000               0.000000000               0.000000000               0.000000000               0.000151291               0.003216198               0.000201365              -0.000345290               0.001187152               0.000841862               0.000000000               0.000000000               0.000000000               0.000000000               0.000103790               0.003209356               0.000146998              -0.000362247               0.001190524               0.000828276               0.000000000               0.000000000               0.000000000               0.000000000               0.000044570               0.003204857               0.000096692              -0.000383892               0.001196239               0.000812347               0.000000000               0.000000000               0.000000000               0.000000000              -0.000028329               0.003203117               0.000047839              -0.000411012               0.001204699               0.000793687               0.000000000               0.000000000               0.000000000               0.000000000              -0.000088651               0.003189760               0.000015731              -0.000431963               0.001207230               0.000775267               0.000000000               0.000000000               0.000000000               0.000000000               0.000561145               0.000669021               0.000614553               0.000126800               0.000180738               0.000307538               0.000000000               0.000000000               0.000000000               0.000000000               0.000635969               0.001117264               0.000790525               0.000098828               0.000339474               0.000438303               0.000000000               0.000000000               0.000000000               0.000000000               0.000585623               0.001691554               0.000895171               0.000008163               0.000561124               0.000569287               0.000000000               0.000000000               0.000000000               0.000000000               0.000536721               0.002071319               0.000836751              -0.000057645               0.000709648               0.000652002               0.000000000               0.000000000               0.000000000               0.000000000               0.000493744               0.002335249               0.000744614              -0.000106753               0.000813993               0.000707240               0.000000000               0.000000000               0.000000000               0.000000000               0.000460333               0.002541622               0.000656850              -0.000145078               0.000895558               0.000750480               0.000000000               0.000000000               0.000000000               0.000000000               0.000431415               0.002719090               0.000578978              -0.000178106               0.000965723               0.000787617               0.000000000               0.000000000               0.000000000               0.000000000               0.000399193               0.002871044               0.000508718              -0.000209183               0.001026733               0.000817550               0.000000000               0.000000000               0.000000000               0.000000000               0.000366258               0.002991214               0.000444667              -0.000236555               0.001075913               0.000839358               0.000000000               0.000000000               0.000000000               0.000000000               0.000329756               0.003078158               0.000389315              -0.000261111               0.001113079               0.000851969               0.000000000               0.000000000               0.000000000               0.000000000               0.000290854               0.003136279               0.000341933              -0.000282964               0.001139737               0.000856773               0.000000000               0.000000000               0.000000000               0.000000000               0.000252615               0.003169936               0.000294996              -0.000301511               0.001157138               0.000855628               0.000000000               0.000000000               0.000000000               0.000000000               0.000217115               0.003182475               0.000243365              -0.000316391               0.001166278               0.000849887               0.000000000               0.000000000               0.000000000               0.000000000               0.000178322               0.003184678               0.000188395              -0.000331213               0.001171953               0.000840740               0.000000000               0.000000000               0.000000000               0.000000000               0.000129643               0.003188960               0.000130963              -0.000350003               0.001179644               0.000829641               0.000000000               0.000000000               0.000000000               0.000000000               0.000064581               0.003197044               0.000068140              -0.000375412               0.001190808               0.000815396               0.000000000               0.000000000               0.000000000               0.000000000               0.000007565               0.003189745               0.000028786              -0.000395880               0.001195198               0.000799317               0.000000000               0.000000000               0.000000000               0.000000000               0.000306481               0.000386405               0.000408756               0.000066629               0.000106590               0.000173219               0.000000000               0.000000000               0.000000000               0.000000000               0.000553951               0.000782715               0.000608903               0.000109891               0.000224272               0.000334163               0.000000000               0.000000000               0.000000000               0.000000000               0.000648401               0.001302303               0.000754824               0.000080361               0.000407309               0.000487670               0.000000000               0.000000000               0.000000000               0.000000000               0.000651326               0.001703576               0.000739633               0.000031299               0.000557420               0.000588719               0.000000000               0.000000000               0.000000000               0.000000000               0.000626925               0.002009544               0.000681028              -0.000016097               0.000675207               0.000659110               0.000000000               0.000000000               0.000000000               0.000000000               0.000589774               0.002255618               0.000614570              -0.000060788               0.000772128               0.000711340               0.000000000               0.000000000               0.000000000               0.000000000               0.000548301               0.002469302               0.000547057              -0.000103050               0.000857442               0.000754392               0.000000000               0.000000000               0.000000000               0.000000000               0.000506326               0.002655643               0.000485138              -0.000142083               0.000932567               0.000790483               0.000000000               0.000000000               0.000000000               0.000000000               0.000468966               0.002807554               0.000430361              -0.000175082               0.000994203               0.000819121               0.000000000               0.000000000               0.000000000               0.000000000               0.000430744               0.002927823               0.000379600              -0.000204448               0.001044081               0.000839632               0.000000000               0.000000000               0.000000000               0.000000000               0.000387842               0.003025407               0.000336018              -0.000232734               0.001086037               0.000853302               0.000000000               0.000000000               0.000000000               0.000000000               0.000349493               0.003095525               0.000298213              -0.000255880               0.001117125               0.000861245               0.000000000               0.000000000               0.000000000               0.000000000               0.000317929               0.003135859               0.000255507              -0.000272758               0.001136195               0.000863437               0.000000000               0.000000000               0.000000000               0.000000000               0.000287333               0.003160500               0.000203454              -0.000287312               0.001149260               0.000861948               0.000000000               0.000000000               0.000000000               0.000000000               0.000250102               0.003178058               0.000144888              -0.000303468               0.001160498               0.000857030               0.000000000               0.000000000               0.000000000               0.000000000               0.000205510               0.003191848               0.000077798              -0.000321914               0.001171243               0.000849329               0.000000000               0.000000000               0.000000000               0.000000000               0.000168348               0.003190691               0.000037884              -0.000335705               0.001175455               0.000839750               0.000000000               0.000000000               0.000000000               0.000000000               0.000076386               0.000198478               0.000239373               0.000003834               0.000064880               0.000068715               0.000000000               0.000000000               0.000000000               0.000000000               0.000468940               0.000530225               0.000410837               0.000109573               0.000140215               0.000249788               0.000000000               0.000000000               0.000000000               0.000000000               0.000698833               0.000984612               0.000547341               0.000138984               0.000281873               0.000420857               0.000000000               0.000000000               0.000000000               0.000000000               0.000757765               0.001389890               0.000557291               0.000110424               0.000426484               0.000536908               0.000000000               0.000000000               0.000000000               0.000000000               0.000751345               0.001719125               0.000526341               0.000066863               0.000550748               0.000617611               0.000000000               0.000000000               0.000000000               0.000000000               0.000713985               0.001989117               0.000480466               0.000019104               0.000656664               0.000675768               0.000000000               0.000000000               0.000000000               0.000000000               0.000665251               0.002224602               0.000430469              -0.000028607               0.000751062               0.000722456               0.000000000               0.000000000               0.000000000               0.000000000               0.000620377               0.002434736               0.000386420              -0.000071701               0.000835471               0.000763770               0.000000000               0.000000000               0.000000000               0.000000000               0.000579477               0.002617554               0.000346139              -0.000109890               0.000909139               0.000799249               0.000000000               0.000000000               0.000000000               0.000000000               0.000539198               0.002774693               0.000304520              -0.000144637               0.000973101               0.000828464               0.000000000               0.000000000               0.000000000               0.000000000               0.000498163               0.002902903               0.000273001              -0.000176051               0.001026308               0.000850257               0.000000000               0.000000000               0.000000000               0.000000000               0.000460044               0.003001236               0.000249888              -0.000202638               0.001067948               0.000865310               0.000000000               0.000000000               0.000000000               0.000000000               0.000426977               0.003077321               0.000218630              -0.000224548               0.001100613               0.000876065               0.000000000               0.000000000               0.000000000               0.000000000               0.000400336               0.003133315               0.000173441              -0.000241538               0.001124940               0.000883403               0.000000000               0.000000000               0.000000000               0.000000000               0.000377601               0.003168697               0.000121899              -0.000254486               0.001141050               0.000886564               0.000000000               0.000000000               0.000000000               0.000000000               0.000359823               0.003188479               0.000065490              -0.000263626               0.001150691               0.000887065               0.000000000               0.000000000               0.000000000               0.000000000               0.000351338               0.003193820               0.000034124              -0.000267475               0.001153755               0.000886279               0.000000000               0.000000000               0.000000000               0.000000000              -0.000084471               0.000091796               0.000107607              -0.000043151               0.000044982               0.000001831               0.000000000               0.000000000               0.000000000               0.000000000               0.000407187               0.000372813               0.000206507               0.000106092               0.000088906               0.000194998               0.000000000               0.000000000               0.000000000               0.000000000               0.000731317               0.000775882               0.000288593               0.000177257               0.000199539               0.000376796               0.000000000               0.000000000               0.000000000               0.000000000               0.000833079               0.001176514               0.000301104               0.000165339               0.000337054               0.000502393               0.000000000               0.000000000               0.000000000               0.000000000               0.000837422               0.001513026               0.000288083               0.000124904               0.000462702               0.000587606               0.000000000               0.000000000               0.000000000               0.000000000               0.000802676               0.001793406               0.000263635               0.000076827               0.000572187               0.000649014               0.000000000               0.000000000               0.000000000               0.000000000               0.000755797               0.002037402               0.000237338               0.000028748               0.000669544               0.000698293               0.000000000               0.000000000               0.000000000               0.000000000               0.000709017               0.002263942               0.000215012              -0.000017111               0.000760343               0.000743232               0.000000000               0.000000000               0.000000000               0.000000000               0.000662162               0.002475108               0.000193202              -0.000061078               0.000845387               0.000784309               0.000000000               0.000000000               0.000000000               0.000000000               0.000619396               0.002659167               0.000169604              -0.000100122               0.000919754               0.000819632               0.000000000               0.000000000               0.000000000               0.000000000               0.000579911               0.002809761               0.000154199              -0.000133753               0.000981162               0.000847409               0.000000000               0.000000000               0.000000000               0.000000000               0.000537808               0.002930575               0.000144618              -0.000164643               0.001031730               0.000867086               0.000000000               0.000000000               0.000000000               0.000000000               0.000498699               0.003029849               0.000127974              -0.000191718               0.001073846               0.000882127               0.000000000               0.000000000               0.000000000               0.000000000               0.000473267               0.003105804               0.000101476              -0.000210750               0.001105508               0.000894758               0.000000000               0.000000000               0.000000000               0.000000000               0.000467306               0.003156347               0.000069409              -0.000219303               0.001125206               0.000905903               0.000000000               0.000000000               0.000000000               0.000000000               0.000480943               0.003185371               0.000035671              -0.000217817               0.001134386               0.000916568               0.000000000               0.000000000               0.000000000               0.000000000               0.000501069               0.003197812               0.000018749              -0.000211825               0.001136535               0.000924710               0.000000000               0.000000000               0.000000000               0.000000000               0.000000000               0.000000000               0.000000000               0.000000000               0.000000000               0.000000000               0.000000000               0.000000000               0.000000000               0.000000000               0.000000000               0.000000000               0.000000000               0.000000000               0.000000000               0.000000000               0.000000000               0.000000000               0.000000000               0.000000000               0.000000000               0.000000000               0.000000000               0.000000000               0.000000000               0.000000000               0.000000000               0.000000000               0.000000000               0.000000000               0.000000000               0.000000000               0.000000000               0.000000000               0.000000000               0.000000000               0.000000000               0.000000000               0.000000000               0.000000000               0.000000000               0.000000000               0.000000000               0.000000000               0.000000000               0.000000000               0.000000000               0.000000000               0.000000000               0.000000000               0.000000000               0.000000000               0.000000000               0.000000000               0.000000000               0.000000000               0.000000000               0.000000000               0.000000000               0.000000000               0.000000000               0.000000000               0.000000000               0.000000000               0.000000000               0.000000000               0.000000000               0.000000000               0.000000000               0.000000000               0.000000000               0.000000000               0.000000000               0.000000000               0.000000000               0.000000000               0.000000000               0.000000000               0.000000000               0.000000000               0.000000000               0.000000000               0.000000000               0.000000000               0.000000000               0.000000000               0.000000000               0.000000000               0.000000000               0.000000000               0.000000000               0.000000000               0.000000000               0.000000000               0.000000000               0.000000000               0.000000000               0.000000000               0.000000000               0.000000000               0.000000000               0.000000000               0.000000000               0.000000000               0.000000000               0.000000000               0.000000000               0.000000000               0.000000000               0.000000000               0.000000000               0.000000000               0.000000000               0.000000000               0.000000000               0.000000000               0.000000000               0.000000000               0.000000000               0.000000000               0.000000000               0.000000000               0.000000000               0.000000000               0.000000000               0.000000000               0.000000000               0.000000000               0.000000000               0.000000000               0.000000000               0.000000000               0.000000000               0.000000000               0.000000000               0.000000000               0.000000000               0.000000000               0.000000000               0.000000000               0.000000000               0.000000000               0.000000000               0.000000000               0.000000000               0.000000000               0.000000000               0.000000000               0.000000000               0.000000000               0.000000000               0.000000000               0.000000000               0.000000000               0.000000000               0.000000000               0.000000000               0.000000000               0.000000000               0.000000000               0.000000000               0.000000000               0.000000000               0.000000000               0.000000000               0.000000000               0.000000000               0.000000000               0.000000000               0.000000000 </DataArray>
</PointData>
</Piece>
</UnstructuredGrid> </VTKFile>
