<?xml version="1.0"?>
<VTKFile type="UnstructuredGrid" version="0.1">
<UnstructuredGrid>
<Piece NumberOfPoints="      1156" NumberOfCells="      1024">
<Points>
<DataArray type="Float64"                                    Name="coordinates"                                                      NumberOfComponents=" 3" format="ascii">
              0.133000000               0.000000000               0.000000000               0.155937500               0.000000000               0.000000000               0.178875000               0.000000000               0.000000000               0.201812500               0.000000000               0.000000000               0.224750000               0.000000000               0.000000000               0.247687500               0.000000000               0.000000000               0.270625000               0.000000000               0.000000000               0.293562500               0.000000000               0.000000000               0.316500000               0.000000000               0.000000000               0.339437500               0.000000000               0.000000000               0.362375000               0.000000000               0.000000000               0.385312500               0.000000000               0.000000000               0.408250000               0.000000000               0.000000000               0.431187500               0.000000000               0.000000000               0.454125000               0.000000000               0.000000000               0.477062500               0.000000000               0.000000000               0.500000000               0.000000000               0.000000000               0.132359569               0.013036280               0.000000000               0.155337096               0.016127762               0.000000000               0.178314623               0.019219245               0.000000000               0.201292150               0.022310727               0.000000000               0.224269676               0.025402210               0.000000000               0.247247203               0.028493692               0.000000000               0.270224730               0.031585175               0.000000000               0.293202257               0.034676657               0.000000000               0.316179784               0.037768140               0.000000000               0.339157311               0.040859622               0.000000000               0.362134838               0.043951105               0.000000000               0.385112365               0.047042587               0.000000000               0.408089892               0.050134070               0.000000000               0.431067419               0.053225552               0.000000000               0.454044946               0.056317035               0.000000000               0.477022473               0.059408517               0.000000000               0.500000000               0.062500000               0.000000000               0.130444442               0.025947013               0.000000000               0.153541665               0.032137825               0.000000000               0.176638887               0.038328636               0.000000000               0.199736109               0.044519448               0.000000000               0.222833332               0.050710260               0.000000000               0.245930554               0.056901071               0.000000000               0.269027776               0.063091883               0.000000000               0.292124999               0.069282695               0.000000000               0.315222221               0.075473506               0.000000000               0.338319444               0.081664318               0.000000000               0.361416666               0.087855130               0.000000000               0.384513888               0.094045942               0.000000000               0.407611111               0.100236753               0.000000000               0.430708333               0.106427565               0.000000000               0.453805555               0.112618377               0.000000000               0.476902778               0.118809188               0.000000000               0.500000000               0.125000000               0.000000000               0.127273065               0.038607862               0.000000000               0.150568498               0.047913621               0.000000000               0.173863932               0.057219379               0.000000000               0.197159365               0.066525138               0.000000000               0.220454798               0.075830897               0.000000000               0.243750232               0.085136655               0.000000000               0.267045665               0.094442414               0.000000000               0.290341099               0.103748172               0.000000000               0.313636532               0.113053931               0.000000000               0.336931966               0.122359690               0.000000000               0.360227399               0.131665448               0.000000000               0.383522833               0.140971207               0.000000000               0.406818266               0.150276966               0.000000000               0.430113700               0.159582724               0.000000000               0.453409133               0.168888483               0.000000000               0.476704567               0.178194241               0.000000000               0.500000000               0.187500000               0.000000000               0.122875978               0.050896897               0.000000000               0.146446229               0.063340840               0.000000000               0.170016481               0.075784784               0.000000000               0.193586732               0.088228728               0.000000000               0.217156983               0.100672672               0.000000000               0.240727235               0.113116616               0.000000000               0.264297486               0.125560560               0.000000000               0.287867738               0.138004504               0.000000000               0.311437989               0.150448448               0.000000000               0.335008240               0.162892392               0.000000000               0.358578492               0.175336336               0.000000000               0.382148743               0.187780280               0.000000000               0.405718994               0.200224224               0.000000000               0.429289246               0.212668168               0.000000000               0.452859497               0.225112112               0.000000000               0.476429749               0.237556056               0.000000000               0.500000000               0.250000000               0.000000000               0.117295528               0.062695766               0.000000000               0.141214558               0.078308531               0.000000000               0.165133587               0.093921295               0.000000000               0.189052617               0.109534060               0.000000000               0.212971646               0.125146824               0.000000000               0.236890676               0.140759589               0.000000000               0.260809705               0.156372354               0.000000000               0.284728735               0.171985118               0.000000000               0.308647764               0.187597883               0.000000000               0.332566794               0.203210648               0.000000000               0.356485823               0.218823412               0.000000000               0.380404853               0.234436177               0.000000000               0.404323882               0.250048941               0.000000000               0.428242912               0.265661706               0.000000000               0.452161941               0.281274471               0.000000000               0.476080971               0.296887235               0.000000000               0.500000000               0.312500000               0.000000000               0.110585458               0.073890841               0.000000000               0.134923867               0.092710163               0.000000000               0.159262276               0.111529486               0.000000000               0.183600685               0.130348808               0.000000000               0.207939094               0.149168131               0.000000000               0.232277503               0.167987453               0.000000000               0.256615912               0.186806776               0.000000000               0.280954320               0.205626098               0.000000000               0.305292729               0.224445420               0.000000000               0.329631138               0.243264743               0.000000000               0.353969547               0.262084065               0.000000000               0.378307956               0.280903388               0.000000000               0.402646365               0.299722710               0.000000000               0.426984773               0.318542033               0.000000000               0.451323182               0.337361355               0.000000000               0.475661591               0.356180678               0.000000000               0.500000000               0.375000000               0.000000000               0.102810390               0.084374307               0.000000000               0.127634741               0.106444663               0.000000000               0.152459092               0.128515018               0.000000000               0.177283442               0.150585374               0.000000000               0.202107793               0.172655730               0.000000000               0.226932143               0.194726086               0.000000000               0.251756494               0.216796442               0.000000000               0.276580845               0.238866798               0.000000000               0.301405195               0.260937153               0.000000000               0.326229546               0.283007509               0.000000000               0.351053896               0.305077865               0.000000000               0.375878247               0.327148221               0.000000000               0.400702598               0.349218577               0.000000000               0.425526948               0.371288933               0.000000000               0.450351299               0.393359288               0.000000000               0.475175649               0.415429644               0.000000000               0.500000000               0.437500000               0.000000000               0.094045202               0.094045202               0.000000000               0.119417377               0.119417377               0.000000000               0.144789552               0.144789552               0.000000000               0.170161727               0.170161727               0.000000000               0.195533901               0.195533901               0.000000000               0.220906076               0.220906076               0.000000000               0.246278251               0.246278251               0.000000000               0.271650426               0.271650426               0.000000000               0.297022601               0.297022601               0.000000000               0.322394776               0.322394776               0.000000000               0.347766951               0.347766951               0.000000000               0.373139126               0.373139126               0.000000000               0.398511300               0.398511300               0.000000000               0.423883475               0.423883475               0.000000000               0.449255650               0.449255650               0.000000000               0.474627825               0.474627825               0.000000000               0.500000000               0.500000000               0.000000000               0.084374307               0.102810390               0.000000000               0.106444663               0.127634741               0.000000000               0.128515018               0.152459092               0.000000000               0.150585374               0.177283442               0.000000000               0.172655730               0.202107793               0.000000000               0.194726086               0.226932143               0.000000000               0.216796442               0.251756494               0.000000000               0.238866798               0.276580845               0.000000000               0.260937153               0.301405195               0.000000000               0.283007509               0.326229546               0.000000000               0.305077865               0.351053896               0.000000000               0.327148221               0.375878247               0.000000000               0.349218577               0.400702598               0.000000000               0.371288933               0.425526948               0.000000000               0.393359288               0.450351299               0.000000000               0.415429644               0.475175649               0.000000000               0.437500000               0.500000000               0.000000000               0.073890841               0.110585458               0.000000000               0.092710163               0.134923867               0.000000000               0.111529486               0.159262276               0.000000000               0.130348808               0.183600685               0.000000000               0.149168131               0.207939094               0.000000000               0.167987453               0.232277503               0.000000000               0.186806776               0.256615912               0.000000000               0.205626098               0.280954320               0.000000000               0.224445420               0.305292729               0.000000000               0.243264743               0.329631138               0.000000000               0.262084065               0.353969547               0.000000000               0.280903388               0.378307956               0.000000000               0.299722710               0.402646365               0.000000000               0.318542033               0.426984773               0.000000000               0.337361355               0.451323182               0.000000000               0.356180678               0.475661591               0.000000000               0.375000000               0.500000000               0.000000000               0.062695766               0.117295528               0.000000000               0.078308531               0.141214558               0.000000000               0.093921295               0.165133587               0.000000000               0.109534060               0.189052617               0.000000000               0.125146824               0.212971646               0.000000000               0.140759589               0.236890676               0.000000000               0.156372354               0.260809705               0.000000000               0.171985118               0.284728735               0.000000000               0.187597883               0.308647764               0.000000000               0.203210648               0.332566794               0.000000000               0.218823412               0.356485823               0.000000000               0.234436177               0.380404853               0.000000000               0.250048941               0.404323882               0.000000000               0.265661706               0.428242912               0.000000000               0.281274471               0.452161941               0.000000000               0.296887235               0.476080971               0.000000000               0.312500000               0.500000000               0.000000000               0.050896897               0.122875978               0.000000000               0.063340840               0.146446229               0.000000000               0.075784784               0.170016481               0.000000000               0.088228728               0.193586732               0.000000000               0.100672672               0.217156983               0.000000000               0.113116616               0.240727235               0.000000000               0.125560560               0.264297486               0.000000000               0.138004504               0.287867738               0.000000000               0.150448448               0.311437989               0.000000000               0.162892392               0.335008240               0.000000000               0.175336336               0.358578492               0.000000000               0.187780280               0.382148743               0.000000000               0.200224224               0.405718994               0.000000000               0.212668168               0.429289246               0.000000000               0.225112112               0.452859497               0.000000000               0.237556056               0.476429749               0.000000000               0.250000000               0.500000000               0.000000000               0.038607862               0.127273065               0.000000000               0.047913621               0.150568498               0.000000000               0.057219379               0.173863932               0.000000000               0.066525138               0.197159365               0.000000000               0.075830897               0.220454798               0.000000000               0.085136655               0.243750232               0.000000000               0.094442414               0.267045665               0.000000000               0.103748172               0.290341099               0.000000000               0.113053931               0.313636532               0.000000000               0.122359690               0.336931966               0.000000000               0.131665448               0.360227399               0.000000000               0.140971207               0.383522833               0.000000000               0.150276966               0.406818266               0.000000000               0.159582724               0.430113700               0.000000000               0.168888483               0.453409133               0.000000000               0.178194241               0.476704567               0.000000000               0.187500000               0.500000000               0.000000000               0.025947013               0.130444442               0.000000000               0.032137825               0.153541665               0.000000000               0.038328636               0.176638887               0.000000000               0.044519448               0.199736109               0.000000000               0.050710260               0.222833332               0.000000000               0.056901071               0.245930554               0.000000000               0.063091883               0.269027776               0.000000000               0.069282695               0.292124999               0.000000000               0.075473506               0.315222221               0.000000000               0.081664318               0.338319444               0.000000000               0.087855130               0.361416666               0.000000000               0.094045942               0.384513888               0.000000000               0.100236753               0.407611111               0.000000000               0.106427565               0.430708333               0.000000000               0.112618377               0.453805555               0.000000000               0.118809188               0.476902778               0.000000000               0.125000000               0.500000000               0.000000000               0.013036280               0.132359569               0.000000000               0.016127762               0.155337096               0.000000000               0.019219245               0.178314623               0.000000000               0.022310727               0.201292150               0.000000000               0.025402210               0.224269676               0.000000000               0.028493692               0.247247203               0.000000000               0.031585175               0.270224730               0.000000000               0.034676657               0.293202257               0.000000000               0.037768140               0.316179784               0.000000000               0.040859622               0.339157311               0.000000000               0.043951105               0.362134838               0.000000000               0.047042587               0.385112365               0.000000000               0.050134070               0.408089892               0.000000000               0.053225552               0.431067419               0.000000000               0.056317035               0.454044946               0.000000000               0.059408517               0.477022473               0.000000000               0.062500000               0.500000000               0.000000000               0.000000000               0.133000000               0.000000000               0.000000000               0.155937500               0.000000000               0.000000000               0.178875000               0.000000000               0.000000000               0.201812500               0.000000000               0.000000000               0.224750000               0.000000000               0.000000000               0.247687500               0.000000000               0.000000000               0.270625000               0.000000000               0.000000000               0.293562500               0.000000000               0.000000000               0.316500000               0.000000000               0.000000000               0.339437500               0.000000000               0.000000000               0.362375000               0.000000000               0.000000000               0.385312500               0.000000000               0.000000000               0.408250000               0.000000000               0.000000000               0.431187500               0.000000000               0.000000000               0.454125000               0.000000000               0.000000000               0.477062500               0.000000000               0.000000000               0.500000000               0.000000000               0.133000000               0.000000000               0.000000000               0.155937500               0.000000000               0.000000000               0.178875000               0.000000000               0.000000000               0.201812500               0.000000000               0.000000000               0.224750000               0.000000000               0.000000000               0.247687500               0.000000000               0.000000000               0.270625000               0.000000000               0.000000000               0.293562500               0.000000000               0.000000000               0.316500000               0.000000000               0.000000000               0.339437500               0.000000000               0.000000000               0.362375000               0.000000000               0.000000000               0.385312500               0.000000000               0.000000000               0.408250000               0.000000000               0.000000000               0.431187500               0.000000000               0.000000000               0.454125000               0.000000000               0.000000000               0.477062500               0.000000000               0.000000000               0.500000000               0.000000000               0.000000000               0.132359569              -0.013036280               0.000000000               0.155337096              -0.016127762               0.000000000               0.178314623              -0.019219245               0.000000000               0.201292150              -0.022310727               0.000000000               0.224269676              -0.025402210               0.000000000               0.247247203              -0.028493692               0.000000000               0.270224730              -0.031585175               0.000000000               0.293202257              -0.034676657               0.000000000               0.316179784              -0.037768140               0.000000000               0.339157311              -0.040859622               0.000000000               0.362134838              -0.043951105               0.000000000               0.385112365              -0.047042587               0.000000000               0.408089892              -0.050134070               0.000000000               0.431067419              -0.053225552               0.000000000               0.454044946              -0.056317035               0.000000000               0.477022473              -0.059408517               0.000000000               0.500000000              -0.062500000               0.000000000               0.130444442              -0.025947013               0.000000000               0.153541665              -0.032137825               0.000000000               0.176638887              -0.038328636               0.000000000               0.199736109              -0.044519448               0.000000000               0.222833332              -0.050710260               0.000000000               0.245930554              -0.056901071               0.000000000               0.269027776              -0.063091883               0.000000000               0.292124999              -0.069282695               0.000000000               0.315222221              -0.075473506               0.000000000               0.338319444              -0.081664318               0.000000000               0.361416666              -0.087855130               0.000000000               0.384513888              -0.094045942               0.000000000               0.407611111              -0.100236753               0.000000000               0.430708333              -0.106427565               0.000000000               0.453805555              -0.112618377               0.000000000               0.476902778              -0.118809188               0.000000000               0.500000000              -0.125000000               0.000000000               0.127273065              -0.038607862               0.000000000               0.150568498              -0.047913621               0.000000000               0.173863932              -0.057219379               0.000000000               0.197159365              -0.066525138               0.000000000               0.220454798              -0.075830897               0.000000000               0.243750232              -0.085136655               0.000000000               0.267045665              -0.094442414               0.000000000               0.290341099              -0.103748172               0.000000000               0.313636532              -0.113053931               0.000000000               0.336931966              -0.122359690               0.000000000               0.360227399              -0.131665448               0.000000000               0.383522833              -0.140971207               0.000000000               0.406818266              -0.150276966               0.000000000               0.430113700              -0.159582724               0.000000000               0.453409133              -0.168888483               0.000000000               0.476704567              -0.178194241               0.000000000               0.500000000              -0.187500000               0.000000000               0.122875978              -0.050896897               0.000000000               0.146446229              -0.063340840               0.000000000               0.170016481              -0.075784784               0.000000000               0.193586732              -0.088228728               0.000000000               0.217156983              -0.100672672               0.000000000               0.240727235              -0.113116616               0.000000000               0.264297486              -0.125560560               0.000000000               0.287867738              -0.138004504               0.000000000               0.311437989              -0.150448448               0.000000000               0.335008240              -0.162892392               0.000000000               0.358578492              -0.175336336               0.000000000               0.382148743              -0.187780280               0.000000000               0.405718994              -0.200224224               0.000000000               0.429289246              -0.212668168               0.000000000               0.452859497              -0.225112112               0.000000000               0.476429749              -0.237556056               0.000000000               0.500000000              -0.250000000               0.000000000               0.117295528              -0.062695766               0.000000000               0.141214558              -0.078308531               0.000000000               0.165133587              -0.093921295               0.000000000               0.189052617              -0.109534060               0.000000000               0.212971646              -0.125146824               0.000000000               0.236890676              -0.140759589               0.000000000               0.260809705              -0.156372354               0.000000000               0.284728735              -0.171985118               0.000000000               0.308647764              -0.187597883               0.000000000               0.332566794              -0.203210648               0.000000000               0.356485823              -0.218823412               0.000000000               0.380404853              -0.234436177               0.000000000               0.404323882              -0.250048941               0.000000000               0.428242912              -0.265661706               0.000000000               0.452161941              -0.281274471               0.000000000               0.476080971              -0.296887235               0.000000000               0.500000000              -0.312500000               0.000000000               0.110585458              -0.073890841               0.000000000               0.134923867              -0.092710163               0.000000000               0.159262276              -0.111529486               0.000000000               0.183600685              -0.130348808               0.000000000               0.207939094              -0.149168131               0.000000000               0.232277503              -0.167987453               0.000000000               0.256615912              -0.186806776               0.000000000               0.280954320              -0.205626098               0.000000000               0.305292729              -0.224445420               0.000000000               0.329631138              -0.243264743               0.000000000               0.353969547              -0.262084065               0.000000000               0.378307956              -0.280903388               0.000000000               0.402646365              -0.299722710               0.000000000               0.426984773              -0.318542033               0.000000000               0.451323182              -0.337361355               0.000000000               0.475661591              -0.356180678               0.000000000               0.500000000              -0.375000000               0.000000000               0.102810390              -0.084374307               0.000000000               0.127634741              -0.106444663               0.000000000               0.152459092              -0.128515018               0.000000000               0.177283442              -0.150585374               0.000000000               0.202107793              -0.172655730               0.000000000               0.226932143              -0.194726086               0.000000000               0.251756494              -0.216796442               0.000000000               0.276580845              -0.238866798               0.000000000               0.301405195              -0.260937153               0.000000000               0.326229546              -0.283007509               0.000000000               0.351053896              -0.305077865               0.000000000               0.375878247              -0.327148221               0.000000000               0.400702598              -0.349218577               0.000000000               0.425526948              -0.371288933               0.000000000               0.450351299              -0.393359288               0.000000000               0.475175649              -0.415429644               0.000000000               0.500000000              -0.437500000               0.000000000               0.094045202              -0.094045202               0.000000000               0.119417377              -0.119417377               0.000000000               0.144789552              -0.144789552               0.000000000               0.170161727              -0.170161727               0.000000000               0.195533901              -0.195533901               0.000000000               0.220906076              -0.220906076               0.000000000               0.246278251              -0.246278251               0.000000000               0.271650426              -0.271650426               0.000000000               0.297022601              -0.297022601               0.000000000               0.322394776              -0.322394776               0.000000000               0.347766951              -0.347766951               0.000000000               0.373139126              -0.373139126               0.000000000               0.398511300              -0.398511300               0.000000000               0.423883475              -0.423883475               0.000000000               0.449255650              -0.449255650               0.000000000               0.474627825              -0.474627825               0.000000000               0.500000000              -0.500000000               0.000000000               0.084374307              -0.102810390               0.000000000               0.106444663              -0.127634741               0.000000000               0.128515018              -0.152459092               0.000000000               0.150585374              -0.177283442               0.000000000               0.172655730              -0.202107793               0.000000000               0.194726086              -0.226932143               0.000000000               0.216796442              -0.251756494               0.000000000               0.238866798              -0.276580845               0.000000000               0.260937153              -0.301405195               0.000000000               0.283007509              -0.326229546               0.000000000               0.305077865              -0.351053896               0.000000000               0.327148221              -0.375878247               0.000000000               0.349218577              -0.400702598               0.000000000               0.371288933              -0.425526948               0.000000000               0.393359288              -0.450351299               0.000000000               0.415429644              -0.475175649               0.000000000               0.437500000              -0.500000000               0.000000000               0.073890841              -0.110585458               0.000000000               0.092710163              -0.134923867               0.000000000               0.111529486              -0.159262276               0.000000000               0.130348808              -0.183600685               0.000000000               0.149168131              -0.207939094               0.000000000               0.167987453              -0.232277503               0.000000000               0.186806776              -0.256615912               0.000000000               0.205626098              -0.280954320               0.000000000               0.224445420              -0.305292729               0.000000000               0.243264743              -0.329631138               0.000000000               0.262084065              -0.353969547               0.000000000               0.280903388              -0.378307956               0.000000000               0.299722710              -0.402646365               0.000000000               0.318542033              -0.426984773               0.000000000               0.337361355              -0.451323182               0.000000000               0.356180678              -0.475661591               0.000000000               0.375000000              -0.500000000               0.000000000               0.062695766              -0.117295528               0.000000000               0.078308531              -0.141214558               0.000000000               0.093921295              -0.165133587               0.000000000               0.109534060              -0.189052617               0.000000000               0.125146824              -0.212971646               0.000000000               0.140759589              -0.236890676               0.000000000               0.156372354              -0.260809705               0.000000000               0.171985118              -0.284728735               0.000000000               0.187597883              -0.308647764               0.000000000               0.203210648              -0.332566794               0.000000000               0.218823412              -0.356485823               0.000000000               0.234436177              -0.380404853               0.000000000               0.250048941              -0.404323882               0.000000000               0.265661706              -0.428242912               0.000000000               0.281274471              -0.452161941               0.000000000               0.296887235              -0.476080971               0.000000000               0.312500000              -0.500000000               0.000000000               0.050896897              -0.122875978               0.000000000               0.063340840              -0.146446229               0.000000000               0.075784784              -0.170016481               0.000000000               0.088228728              -0.193586732               0.000000000               0.100672672              -0.217156983               0.000000000               0.113116616              -0.240727235               0.000000000               0.125560560              -0.264297486               0.000000000               0.138004504              -0.287867738               0.000000000               0.150448448              -0.311437989               0.000000000               0.162892392              -0.335008240               0.000000000               0.175336336              -0.358578492               0.000000000               0.187780280              -0.382148743               0.000000000               0.200224224              -0.405718994               0.000000000               0.212668168              -0.429289246               0.000000000               0.225112112              -0.452859497               0.000000000               0.237556056              -0.476429749               0.000000000               0.250000000              -0.500000000               0.000000000               0.038607862              -0.127273065               0.000000000               0.047913621              -0.150568498               0.000000000               0.057219379              -0.173863932               0.000000000               0.066525138              -0.197159365               0.000000000               0.075830897              -0.220454798               0.000000000               0.085136655              -0.243750232               0.000000000               0.094442414              -0.267045665               0.000000000               0.103748172              -0.290341099               0.000000000               0.113053931              -0.313636532               0.000000000               0.122359690              -0.336931966               0.000000000               0.131665448              -0.360227399               0.000000000               0.140971207              -0.383522833               0.000000000               0.150276966              -0.406818266               0.000000000               0.159582724              -0.430113700               0.000000000               0.168888483              -0.453409133               0.000000000               0.178194241              -0.476704567               0.000000000               0.187500000              -0.500000000               0.000000000               0.025947013              -0.130444442               0.000000000               0.032137825              -0.153541665               0.000000000               0.038328636              -0.176638887               0.000000000               0.044519448              -0.199736109               0.000000000               0.050710260              -0.222833332               0.000000000               0.056901071              -0.245930554               0.000000000               0.063091883              -0.269027776               0.000000000               0.069282695              -0.292124999               0.000000000               0.075473506              -0.315222221               0.000000000               0.081664318              -0.338319444               0.000000000               0.087855130              -0.361416666               0.000000000               0.094045942              -0.384513888               0.000000000               0.100236753              -0.407611111               0.000000000               0.106427565              -0.430708333               0.000000000               0.112618377              -0.453805555               0.000000000               0.118809188              -0.476902778               0.000000000               0.125000000              -0.500000000               0.000000000               0.013036280              -0.132359569               0.000000000               0.016127762              -0.155337096               0.000000000               0.019219245              -0.178314623               0.000000000               0.022310727              -0.201292150               0.000000000               0.025402210              -0.224269676               0.000000000               0.028493692              -0.247247203               0.000000000               0.031585175              -0.270224730               0.000000000               0.034676657              -0.293202257               0.000000000               0.037768140              -0.316179784               0.000000000               0.040859622              -0.339157311               0.000000000               0.043951105              -0.362134838               0.000000000               0.047042587              -0.385112365               0.000000000               0.050134070              -0.408089892               0.000000000               0.053225552              -0.431067419               0.000000000               0.056317035              -0.454044946               0.000000000               0.059408517              -0.477022473               0.000000000               0.062500000              -0.500000000               0.000000000               0.000000000              -0.133000000               0.000000000               0.000000000              -0.155937500               0.000000000               0.000000000              -0.178875000               0.000000000               0.000000000              -0.201812500               0.000000000               0.000000000              -0.224750000               0.000000000               0.000000000              -0.247687500               0.000000000               0.000000000              -0.270625000               0.000000000               0.000000000              -0.293562500               0.000000000               0.000000000              -0.316500000               0.000000000               0.000000000              -0.339437500               0.000000000               0.000000000              -0.362375000               0.000000000               0.000000000              -0.385312500               0.000000000               0.000000000              -0.408250000               0.000000000               0.000000000              -0.431187500               0.000000000               0.000000000              -0.454125000               0.000000000               0.000000000              -0.477062500               0.000000000               0.000000000              -0.500000000               0.000000000              -0.133000000               0.000000000               0.000000000              -0.155937500               0.000000000               0.000000000              -0.178875000               0.000000000               0.000000000              -0.201812500               0.000000000               0.000000000              -0.224750000               0.000000000               0.000000000              -0.247687500               0.000000000               0.000000000              -0.270625000               0.000000000               0.000000000              -0.293562500               0.000000000               0.000000000              -0.316500000               0.000000000               0.000000000              -0.339437500               0.000000000               0.000000000              -0.362375000               0.000000000               0.000000000              -0.385312500               0.000000000               0.000000000              -0.408250000               0.000000000               0.000000000              -0.431187500               0.000000000               0.000000000              -0.454125000               0.000000000               0.000000000              -0.477062500               0.000000000               0.000000000              -0.500000000               0.000000000               0.000000000              -0.132359569              -0.013036280               0.000000000              -0.155337096              -0.016127762               0.000000000              -0.178314623              -0.019219245               0.000000000              -0.201292150              -0.022310727               0.000000000              -0.224269676              -0.025402210               0.000000000              -0.247247203              -0.028493692               0.000000000              -0.270224730              -0.031585175               0.000000000              -0.293202257              -0.034676657               0.000000000              -0.316179784              -0.037768140               0.000000000              -0.339157311              -0.040859622               0.000000000              -0.362134838              -0.043951105               0.000000000              -0.385112365              -0.047042587               0.000000000              -0.408089892              -0.050134070               0.000000000              -0.431067419              -0.053225552               0.000000000              -0.454044946              -0.056317035               0.000000000              -0.477022473              -0.059408517               0.000000000              -0.500000000              -0.062500000               0.000000000              -0.130444442              -0.025947013               0.000000000              -0.153541665              -0.032137825               0.000000000              -0.176638887              -0.038328636               0.000000000              -0.199736109              -0.044519448               0.000000000              -0.222833332              -0.050710260               0.000000000              -0.245930554              -0.056901071               0.000000000              -0.269027776              -0.063091883               0.000000000              -0.292124999              -0.069282695               0.000000000              -0.315222221              -0.075473506               0.000000000              -0.338319444              -0.081664318               0.000000000              -0.361416666              -0.087855130               0.000000000              -0.384513888              -0.094045942               0.000000000              -0.407611111              -0.100236753               0.000000000              -0.430708333              -0.106427565               0.000000000              -0.453805555              -0.112618377               0.000000000              -0.476902778              -0.118809188               0.000000000              -0.500000000              -0.125000000               0.000000000              -0.127273065              -0.038607862               0.000000000              -0.150568498              -0.047913621               0.000000000              -0.173863932              -0.057219379               0.000000000              -0.197159365              -0.066525138               0.000000000              -0.220454798              -0.075830897               0.000000000              -0.243750232              -0.085136655               0.000000000              -0.267045665              -0.094442414               0.000000000              -0.290341099              -0.103748172               0.000000000              -0.313636532              -0.113053931               0.000000000              -0.336931966              -0.122359690               0.000000000              -0.360227399              -0.131665448               0.000000000              -0.383522833              -0.140971207               0.000000000              -0.406818266              -0.150276966               0.000000000              -0.430113700              -0.159582724               0.000000000              -0.453409133              -0.168888483               0.000000000              -0.476704567              -0.178194241               0.000000000              -0.500000000              -0.187500000               0.000000000              -0.122875978              -0.050896897               0.000000000              -0.146446229              -0.063340840               0.000000000              -0.170016481              -0.075784784               0.000000000              -0.193586732              -0.088228728               0.000000000              -0.217156983              -0.100672672               0.000000000              -0.240727235              -0.113116616               0.000000000              -0.264297486              -0.125560560               0.000000000              -0.287867738              -0.138004504               0.000000000              -0.311437989              -0.150448448               0.000000000              -0.335008240              -0.162892392               0.000000000              -0.358578492              -0.175336336               0.000000000              -0.382148743              -0.187780280               0.000000000              -0.405718994              -0.200224224               0.000000000              -0.429289246              -0.212668168               0.000000000              -0.452859497              -0.225112112               0.000000000              -0.476429749              -0.237556056               0.000000000              -0.500000000              -0.250000000               0.000000000              -0.117295528              -0.062695766               0.000000000              -0.141214558              -0.078308531               0.000000000              -0.165133587              -0.093921295               0.000000000              -0.189052617              -0.109534060               0.000000000              -0.212971646              -0.125146824               0.000000000              -0.236890676              -0.140759589               0.000000000              -0.260809705              -0.156372354               0.000000000              -0.284728735              -0.171985118               0.000000000              -0.308647764              -0.187597883               0.000000000              -0.332566794              -0.203210648               0.000000000              -0.356485823              -0.218823412               0.000000000              -0.380404853              -0.234436177               0.000000000              -0.404323882              -0.250048941               0.000000000              -0.428242912              -0.265661706               0.000000000              -0.452161941              -0.281274471               0.000000000              -0.476080971              -0.296887235               0.000000000              -0.500000000              -0.312500000               0.000000000              -0.110585458              -0.073890841               0.000000000              -0.134923867              -0.092710163               0.000000000              -0.159262276              -0.111529486               0.000000000              -0.183600685              -0.130348808               0.000000000              -0.207939094              -0.149168131               0.000000000              -0.232277503              -0.167987453               0.000000000              -0.256615912              -0.186806776               0.000000000              -0.280954320              -0.205626098               0.000000000              -0.305292729              -0.224445420               0.000000000              -0.329631138              -0.243264743               0.000000000              -0.353969547              -0.262084065               0.000000000              -0.378307956              -0.280903388               0.000000000              -0.402646365              -0.299722710               0.000000000              -0.426984773              -0.318542033               0.000000000              -0.451323182              -0.337361355               0.000000000              -0.475661591              -0.356180678               0.000000000              -0.500000000              -0.375000000               0.000000000              -0.102810390              -0.084374307               0.000000000              -0.127634741              -0.106444663               0.000000000              -0.152459092              -0.128515018               0.000000000              -0.177283442              -0.150585374               0.000000000              -0.202107793              -0.172655730               0.000000000              -0.226932143              -0.194726086               0.000000000              -0.251756494              -0.216796442               0.000000000              -0.276580845              -0.238866798               0.000000000              -0.301405195              -0.260937153               0.000000000              -0.326229546              -0.283007509               0.000000000              -0.351053896              -0.305077865               0.000000000              -0.375878247              -0.327148221               0.000000000              -0.400702598              -0.349218577               0.000000000              -0.425526948              -0.371288933               0.000000000              -0.450351299              -0.393359288               0.000000000              -0.475175649              -0.415429644               0.000000000              -0.500000000              -0.437500000               0.000000000              -0.094045202              -0.094045202               0.000000000              -0.119417377              -0.119417377               0.000000000              -0.144789552              -0.144789552               0.000000000              -0.170161727              -0.170161727               0.000000000              -0.195533901              -0.195533901               0.000000000              -0.220906076              -0.220906076               0.000000000              -0.246278251              -0.246278251               0.000000000              -0.271650426              -0.271650426               0.000000000              -0.297022601              -0.297022601               0.000000000              -0.322394776              -0.322394776               0.000000000              -0.347766951              -0.347766951               0.000000000              -0.373139126              -0.373139126               0.000000000              -0.398511300              -0.398511300               0.000000000              -0.423883475              -0.423883475               0.000000000              -0.449255650              -0.449255650               0.000000000              -0.474627825              -0.474627825               0.000000000              -0.500000000              -0.500000000               0.000000000              -0.084374307              -0.102810390               0.000000000              -0.106444663              -0.127634741               0.000000000              -0.128515018              -0.152459092               0.000000000              -0.150585374              -0.177283442               0.000000000              -0.172655730              -0.202107793               0.000000000              -0.194726086              -0.226932143               0.000000000              -0.216796442              -0.251756494               0.000000000              -0.238866798              -0.276580845               0.000000000              -0.260937153              -0.301405195               0.000000000              -0.283007509              -0.326229546               0.000000000              -0.305077865              -0.351053896               0.000000000              -0.327148221              -0.375878247               0.000000000              -0.349218577              -0.400702598               0.000000000              -0.371288933              -0.425526948               0.000000000              -0.393359288              -0.450351299               0.000000000              -0.415429644              -0.475175649               0.000000000              -0.437500000              -0.500000000               0.000000000              -0.073890841              -0.110585458               0.000000000              -0.092710163              -0.134923867               0.000000000              -0.111529486              -0.159262276               0.000000000              -0.130348808              -0.183600685               0.000000000              -0.149168131              -0.207939094               0.000000000              -0.167987453              -0.232277503               0.000000000              -0.186806776              -0.256615912               0.000000000              -0.205626098              -0.280954320               0.000000000              -0.224445420              -0.305292729               0.000000000              -0.243264743              -0.329631138               0.000000000              -0.262084065              -0.353969547               0.000000000              -0.280903388              -0.378307956               0.000000000              -0.299722710              -0.402646365               0.000000000              -0.318542033              -0.426984773               0.000000000              -0.337361355              -0.451323182               0.000000000              -0.356180678              -0.475661591               0.000000000              -0.375000000              -0.500000000               0.000000000              -0.062695766              -0.117295528               0.000000000              -0.078308531              -0.141214558               0.000000000              -0.093921295              -0.165133587               0.000000000              -0.109534060              -0.189052617               0.000000000              -0.125146824              -0.212971646               0.000000000              -0.140759589              -0.236890676               0.000000000              -0.156372354              -0.260809705               0.000000000              -0.171985118              -0.284728735               0.000000000              -0.187597883              -0.308647764               0.000000000              -0.203210648              -0.332566794               0.000000000              -0.218823412              -0.356485823               0.000000000              -0.234436177              -0.380404853               0.000000000              -0.250048941              -0.404323882               0.000000000              -0.265661706              -0.428242912               0.000000000              -0.281274471              -0.452161941               0.000000000              -0.296887235              -0.476080971               0.000000000              -0.312500000              -0.500000000               0.000000000              -0.050896897              -0.122875978               0.000000000              -0.063340840              -0.146446229               0.000000000              -0.075784784              -0.170016481               0.000000000              -0.088228728              -0.193586732               0.000000000              -0.100672672              -0.217156983               0.000000000              -0.113116616              -0.240727235               0.000000000              -0.125560560              -0.264297486               0.000000000              -0.138004504              -0.287867738               0.000000000              -0.150448448              -0.311437989               0.000000000              -0.162892392              -0.335008240               0.000000000              -0.175336336              -0.358578492               0.000000000              -0.187780280              -0.382148743               0.000000000              -0.200224224              -0.405718994               0.000000000              -0.212668168              -0.429289246               0.000000000              -0.225112112              -0.452859497               0.000000000              -0.237556056              -0.476429749               0.000000000              -0.250000000              -0.500000000               0.000000000              -0.038607862              -0.127273065               0.000000000              -0.047913621              -0.150568498               0.000000000              -0.057219379              -0.173863932               0.000000000              -0.066525138              -0.197159365               0.000000000              -0.075830897              -0.220454798               0.000000000              -0.085136655              -0.243750232               0.000000000              -0.094442414              -0.267045665               0.000000000              -0.103748172              -0.290341099               0.000000000              -0.113053931              -0.313636532               0.000000000              -0.122359690              -0.336931966               0.000000000              -0.131665448              -0.360227399               0.000000000              -0.140971207              -0.383522833               0.000000000              -0.150276966              -0.406818266               0.000000000              -0.159582724              -0.430113700               0.000000000              -0.168888483              -0.453409133               0.000000000              -0.178194241              -0.476704567               0.000000000              -0.187500000              -0.500000000               0.000000000              -0.025947013              -0.130444442               0.000000000              -0.032137825              -0.153541665               0.000000000              -0.038328636              -0.176638887               0.000000000              -0.044519448              -0.199736109               0.000000000              -0.050710260              -0.222833332               0.000000000              -0.056901071              -0.245930554               0.000000000              -0.063091883              -0.269027776               0.000000000              -0.069282695              -0.292124999               0.000000000              -0.075473506              -0.315222221               0.000000000              -0.081664318              -0.338319444               0.000000000              -0.087855130              -0.361416666               0.000000000              -0.094045942              -0.384513888               0.000000000              -0.100236753              -0.407611111               0.000000000              -0.106427565              -0.430708333               0.000000000              -0.112618377              -0.453805555               0.000000000              -0.118809188              -0.476902778               0.000000000              -0.125000000              -0.500000000               0.000000000              -0.013036280              -0.132359569               0.000000000              -0.016127762              -0.155337096               0.000000000              -0.019219245              -0.178314623               0.000000000              -0.022310727              -0.201292150               0.000000000              -0.025402210              -0.224269676               0.000000000              -0.028493692              -0.247247203               0.000000000              -0.031585175              -0.270224730               0.000000000              -0.034676657              -0.293202257               0.000000000              -0.037768140              -0.316179784               0.000000000              -0.040859622              -0.339157311               0.000000000              -0.043951105              -0.362134838               0.000000000              -0.047042587              -0.385112365               0.000000000              -0.050134070              -0.408089892               0.000000000              -0.053225552              -0.431067419               0.000000000              -0.056317035              -0.454044946               0.000000000              -0.059408517              -0.477022473               0.000000000              -0.062500000              -0.500000000               0.000000000               0.000000000              -0.133000000               0.000000000               0.000000000              -0.155937500               0.000000000               0.000000000              -0.178875000               0.000000000               0.000000000              -0.201812500               0.000000000               0.000000000              -0.224750000               0.000000000               0.000000000              -0.247687500               0.000000000               0.000000000              -0.270625000               0.000000000               0.000000000              -0.293562500               0.000000000               0.000000000              -0.316500000               0.000000000               0.000000000              -0.339437500               0.000000000               0.000000000              -0.362375000               0.000000000               0.000000000              -0.385312500               0.000000000               0.000000000              -0.408250000               0.000000000               0.000000000              -0.431187500               0.000000000               0.000000000              -0.454125000               0.000000000               0.000000000              -0.477062500               0.000000000               0.000000000              -0.500000000               0.000000000              -0.133000000               0.000000000               0.000000000              -0.155937500               0.000000000               0.000000000              -0.178875000               0.000000000               0.000000000              -0.201812500               0.000000000               0.000000000              -0.224750000               0.000000000               0.000000000              -0.247687500               0.000000000               0.000000000              -0.270625000               0.000000000               0.000000000              -0.293562500               0.000000000               0.000000000              -0.316500000               0.000000000               0.000000000              -0.339437500               0.000000000               0.000000000              -0.362375000               0.000000000               0.000000000              -0.385312500               0.000000000               0.000000000              -0.408250000               0.000000000               0.000000000              -0.431187500               0.000000000               0.000000000              -0.454125000               0.000000000               0.000000000              -0.477062500               0.000000000               0.000000000              -0.500000000               0.000000000               0.000000000              -0.132359569               0.013036280               0.000000000              -0.155337096               0.016127762               0.000000000              -0.178314623               0.019219245               0.000000000              -0.201292150               0.022310727               0.000000000              -0.224269676               0.025402210               0.000000000              -0.247247203               0.028493692               0.000000000              -0.270224730               0.031585175               0.000000000              -0.293202257               0.034676657               0.000000000              -0.316179784               0.037768140               0.000000000              -0.339157311               0.040859622               0.000000000              -0.362134838               0.043951105               0.000000000              -0.385112365               0.047042587               0.000000000              -0.408089892               0.050134070               0.000000000              -0.431067419               0.053225552               0.000000000              -0.454044946               0.056317035               0.000000000              -0.477022473               0.059408517               0.000000000              -0.500000000               0.062500000               0.000000000              -0.130444442               0.025947013               0.000000000              -0.153541665               0.032137825               0.000000000              -0.176638887               0.038328636               0.000000000              -0.199736109               0.044519448               0.000000000              -0.222833332               0.050710260               0.000000000              -0.245930554               0.056901071               0.000000000              -0.269027776               0.063091883               0.000000000              -0.292124999               0.069282695               0.000000000              -0.315222221               0.075473506               0.000000000              -0.338319444               0.081664318               0.000000000              -0.361416666               0.087855130               0.000000000              -0.384513888               0.094045942               0.000000000              -0.407611111               0.100236753               0.000000000              -0.430708333               0.106427565               0.000000000              -0.453805555               0.112618377               0.000000000              -0.476902778               0.118809188               0.000000000              -0.500000000               0.125000000               0.000000000              -0.127273065               0.038607862               0.000000000              -0.150568498               0.047913621               0.000000000              -0.173863932               0.057219379               0.000000000              -0.197159365               0.066525138               0.000000000              -0.220454798               0.075830897               0.000000000              -0.243750232               0.085136655               0.000000000              -0.267045665               0.094442414               0.000000000              -0.290341099               0.103748172               0.000000000              -0.313636532               0.113053931               0.000000000              -0.336931966               0.122359690               0.000000000              -0.360227399               0.131665448               0.000000000              -0.383522833               0.140971207               0.000000000              -0.406818266               0.150276966               0.000000000              -0.430113700               0.159582724               0.000000000              -0.453409133               0.168888483               0.000000000              -0.476704567               0.178194241               0.000000000              -0.500000000               0.187500000               0.000000000              -0.122875978               0.050896897               0.000000000              -0.146446229               0.063340840               0.000000000              -0.170016481               0.075784784               0.000000000              -0.193586732               0.088228728               0.000000000              -0.217156983               0.100672672               0.000000000              -0.240727235               0.113116616               0.000000000              -0.264297486               0.125560560               0.000000000              -0.287867738               0.138004504               0.000000000              -0.311437989               0.150448448               0.000000000              -0.335008240               0.162892392               0.000000000              -0.358578492               0.175336336               0.000000000              -0.382148743               0.187780280               0.000000000              -0.405718994               0.200224224               0.000000000              -0.429289246               0.212668168               0.000000000              -0.452859497               0.225112112               0.000000000              -0.476429749               0.237556056               0.000000000              -0.500000000               0.250000000               0.000000000              -0.117295528               0.062695766               0.000000000              -0.141214558               0.078308531               0.000000000              -0.165133587               0.093921295               0.000000000              -0.189052617               0.109534060               0.000000000              -0.212971646               0.125146824               0.000000000              -0.236890676               0.140759589               0.000000000              -0.260809705               0.156372354               0.000000000              -0.284728735               0.171985118               0.000000000              -0.308647764               0.187597883               0.000000000              -0.332566794               0.203210648               0.000000000              -0.356485823               0.218823412               0.000000000              -0.380404853               0.234436177               0.000000000              -0.404323882               0.250048941               0.000000000              -0.428242912               0.265661706               0.000000000              -0.452161941               0.281274471               0.000000000              -0.476080971               0.296887235               0.000000000              -0.500000000               0.312500000               0.000000000              -0.110585458               0.073890841               0.000000000              -0.134923867               0.092710163               0.000000000              -0.159262276               0.111529486               0.000000000              -0.183600685               0.130348808               0.000000000              -0.207939094               0.149168131               0.000000000              -0.232277503               0.167987453               0.000000000              -0.256615912               0.186806776               0.000000000              -0.280954320               0.205626098               0.000000000              -0.305292729               0.224445420               0.000000000              -0.329631138               0.243264743               0.000000000              -0.353969547               0.262084065               0.000000000              -0.378307956               0.280903388               0.000000000              -0.402646365               0.299722710               0.000000000              -0.426984773               0.318542033               0.000000000              -0.451323182               0.337361355               0.000000000              -0.475661591               0.356180678               0.000000000              -0.500000000               0.375000000               0.000000000              -0.102810390               0.084374307               0.000000000              -0.127634741               0.106444663               0.000000000              -0.152459092               0.128515018               0.000000000              -0.177283442               0.150585374               0.000000000              -0.202107793               0.172655730               0.000000000              -0.226932143               0.194726086               0.000000000              -0.251756494               0.216796442               0.000000000              -0.276580845               0.238866798               0.000000000              -0.301405195               0.260937153               0.000000000              -0.326229546               0.283007509               0.000000000              -0.351053896               0.305077865               0.000000000              -0.375878247               0.327148221               0.000000000              -0.400702598               0.349218577               0.000000000              -0.425526948               0.371288933               0.000000000              -0.450351299               0.393359288               0.000000000              -0.475175649               0.415429644               0.000000000              -0.500000000               0.437500000               0.000000000              -0.094045202               0.094045202               0.000000000              -0.119417377               0.119417377               0.000000000              -0.144789552               0.144789552               0.000000000              -0.170161727               0.170161727               0.000000000              -0.195533901               0.195533901               0.000000000              -0.220906076               0.220906076               0.000000000              -0.246278251               0.246278251               0.000000000              -0.271650426               0.271650426               0.000000000              -0.297022601               0.297022601               0.000000000              -0.322394776               0.322394776               0.000000000              -0.347766951               0.347766951               0.000000000              -0.373139126               0.373139126               0.000000000              -0.398511300               0.398511300               0.000000000              -0.423883475               0.423883475               0.000000000              -0.449255650               0.449255650               0.000000000              -0.474627825               0.474627825               0.000000000              -0.500000000               0.500000000               0.000000000              -0.084374307               0.102810390               0.000000000              -0.106444663               0.127634741               0.000000000              -0.128515018               0.152459092               0.000000000              -0.150585374               0.177283442               0.000000000              -0.172655730               0.202107793               0.000000000              -0.194726086               0.226932143               0.000000000              -0.216796442               0.251756494               0.000000000              -0.238866798               0.276580845               0.000000000              -0.260937153               0.301405195               0.000000000              -0.283007509               0.326229546               0.000000000              -0.305077865               0.351053896               0.000000000              -0.327148221               0.375878247               0.000000000              -0.349218577               0.400702598               0.000000000              -0.371288933               0.425526948               0.000000000              -0.393359288               0.450351299               0.000000000              -0.415429644               0.475175649               0.000000000              -0.437500000               0.500000000               0.000000000              -0.073890841               0.110585458               0.000000000              -0.092710163               0.134923867               0.000000000              -0.111529486               0.159262276               0.000000000              -0.130348808               0.183600685               0.000000000              -0.149168131               0.207939094               0.000000000              -0.167987453               0.232277503               0.000000000              -0.186806776               0.256615912               0.000000000              -0.205626098               0.280954320               0.000000000              -0.224445420               0.305292729               0.000000000              -0.243264743               0.329631138               0.000000000              -0.262084065               0.353969547               0.000000000              -0.280903388               0.378307956               0.000000000              -0.299722710               0.402646365               0.000000000              -0.318542033               0.426984773               0.000000000              -0.337361355               0.451323182               0.000000000              -0.356180678               0.475661591               0.000000000              -0.375000000               0.500000000               0.000000000              -0.062695766               0.117295528               0.000000000              -0.078308531               0.141214558               0.000000000              -0.093921295               0.165133587               0.000000000              -0.109534060               0.189052617               0.000000000              -0.125146824               0.212971646               0.000000000              -0.140759589               0.236890676               0.000000000              -0.156372354               0.260809705               0.000000000              -0.171985118               0.284728735               0.000000000              -0.187597883               0.308647764               0.000000000              -0.203210648               0.332566794               0.000000000              -0.218823412               0.356485823               0.000000000              -0.234436177               0.380404853               0.000000000              -0.250048941               0.404323882               0.000000000              -0.265661706               0.428242912               0.000000000              -0.281274471               0.452161941               0.000000000              -0.296887235               0.476080971               0.000000000              -0.312500000               0.500000000               0.000000000              -0.050896897               0.122875978               0.000000000              -0.063340840               0.146446229               0.000000000              -0.075784784               0.170016481               0.000000000              -0.088228728               0.193586732               0.000000000              -0.100672672               0.217156983               0.000000000              -0.113116616               0.240727235               0.000000000              -0.125560560               0.264297486               0.000000000              -0.138004504               0.287867738               0.000000000              -0.150448448               0.311437989               0.000000000              -0.162892392               0.335008240               0.000000000              -0.175336336               0.358578492               0.000000000              -0.187780280               0.382148743               0.000000000              -0.200224224               0.405718994               0.000000000              -0.212668168               0.429289246               0.000000000              -0.225112112               0.452859497               0.000000000              -0.237556056               0.476429749               0.000000000              -0.250000000               0.500000000               0.000000000              -0.038607862               0.127273065               0.000000000              -0.047913621               0.150568498               0.000000000              -0.057219379               0.173863932               0.000000000              -0.066525138               0.197159365               0.000000000              -0.075830897               0.220454798               0.000000000              -0.085136655               0.243750232               0.000000000              -0.094442414               0.267045665               0.000000000              -0.103748172               0.290341099               0.000000000              -0.113053931               0.313636532               0.000000000              -0.122359690               0.336931966               0.000000000              -0.131665448               0.360227399               0.000000000              -0.140971207               0.383522833               0.000000000              -0.150276966               0.406818266               0.000000000              -0.159582724               0.430113700               0.000000000              -0.168888483               0.453409133               0.000000000              -0.178194241               0.476704567               0.000000000              -0.187500000               0.500000000               0.000000000              -0.025947013               0.130444442               0.000000000              -0.032137825               0.153541665               0.000000000              -0.038328636               0.176638887               0.000000000              -0.044519448               0.199736109               0.000000000              -0.050710260               0.222833332               0.000000000              -0.056901071               0.245930554               0.000000000              -0.063091883               0.269027776               0.000000000              -0.069282695               0.292124999               0.000000000              -0.075473506               0.315222221               0.000000000              -0.081664318               0.338319444               0.000000000              -0.087855130               0.361416666               0.000000000              -0.094045942               0.384513888               0.000000000              -0.100236753               0.407611111               0.000000000              -0.106427565               0.430708333               0.000000000              -0.112618377               0.453805555               0.000000000              -0.118809188               0.476902778               0.000000000              -0.125000000               0.500000000               0.000000000              -0.013036280               0.132359569               0.000000000              -0.016127762               0.155337096               0.000000000              -0.019219245               0.178314623               0.000000000              -0.022310727               0.201292150               0.000000000              -0.025402210               0.224269676               0.000000000              -0.028493692               0.247247203               0.000000000              -0.031585175               0.270224730               0.000000000              -0.034676657               0.293202257               0.000000000              -0.037768140               0.316179784               0.000000000              -0.040859622               0.339157311               0.000000000              -0.043951105               0.362134838               0.000000000              -0.047042587               0.385112365               0.000000000              -0.050134070               0.408089892               0.000000000              -0.053225552               0.431067419               0.000000000              -0.056317035               0.454044946               0.000000000              -0.059408517               0.477022473               0.000000000              -0.062500000               0.500000000               0.000000000               0.000000000               0.133000000               0.000000000               0.000000000               0.155937500               0.000000000               0.000000000               0.178875000               0.000000000               0.000000000               0.201812500               0.000000000               0.000000000               0.224750000               0.000000000               0.000000000               0.247687500               0.000000000               0.000000000               0.270625000               0.000000000               0.000000000               0.293562500               0.000000000               0.000000000               0.316500000               0.000000000               0.000000000               0.339437500               0.000000000               0.000000000               0.362375000               0.000000000               0.000000000               0.385312500               0.000000000               0.000000000               0.408250000               0.000000000               0.000000000               0.431187500               0.000000000               0.000000000               0.454125000               0.000000000               0.000000000               0.477062500               0.000000000               0.000000000               0.500000000               0.000000000 </DataArray>
</Points>
<Cells>
<DataArray type="Int32"                                    Name="connectivity"                                                      NumberOfComponents=" 1" format="ascii">
         0          1         18         17          1          2         19         18          2          3         20         19          3          4         21         20          4          5         22         21          5          6         23         22          6          7         24         23          7          8         25         24          8          9         26         25          9         10         27         26         10         11         28         27         11         12         29         28         12         13         30         29         13         14         31         30         14         15         32         31         15         16         33         32         17         18         35         34         18         19         36         35         19         20         37         36         20         21         38         37         21         22         39         38         22         23         40         39         23         24         41         40         24         25         42         41         25         26         43         42         26         27         44         43         27         28         45         44         28         29         46         45         29         30         47         46         30         31         48         47         31         32         49         48         32         33         50         49         34         35         52         51         35         36         53         52         36         37         54         53         37         38         55         54         38         39         56         55         39         40         57         56         40         41         58         57         41         42         59         58         42         43         60         59         43         44         61         60         44         45         62         61         45         46         63         62         46         47         64         63         47         48         65         64         48         49         66         65         49         50         67         66         51         52         69         68         52         53         70         69         53         54         71         70         54         55         72         71         55         56         73         72         56         57         74         73         57         58         75         74         58         59         76         75         59         60         77         76         60         61         78         77         61         62         79         78         62         63         80         79         63         64         81         80         64         65         82         81         65         66         83         82         66         67         84         83         68         69         86         85         69         70         87         86         70         71         88         87         71         72         89         88         72         73         90         89         73         74         91         90         74         75         92         91         75         76         93         92         76         77         94         93         77         78         95         94         78         79         96         95         79         80         97         96         80         81         98         97         81         82         99         98         82         83        100         99         83         84        101        100         85         86        103        102         86         87        104        103         87         88        105        104         88         89        106        105         89         90        107        106         90         91        108        107         91         92        109        108         92         93        110        109         93         94        111        110         94         95        112        111         95         96        113        112         96         97        114        113         97         98        115        114         98         99        116        115         99        100        117        116        100        101        118        117        102        103        120        119        103        104        121        120        104        105        122        121        105        106        123        122        106        107        124        123        107        108        125        124        108        109        126        125        109        110        127        126        110        111        128        127        111        112        129        128        112        113        130        129        113        114        131        130        114        115        132        131        115        116        133        132        116        117        134        133        117        118        135        134        119        120        137        136        120        121        138        137        121        122        139        138        122        123        140        139        123        124        141        140        124        125        142        141        125        126        143        142        126        127        144        143        127        128        145        144        128        129        146        145        129        130        147        146        130        131        148        147        131        132        149        148        132        133        150        149        133        134        151        150        134        135        152        151        136        137        154        153        137        138        155        154        138        139        156        155        139        140        157        156        140        141        158        157        141        142        159        158        142        143        160        159        143        144        161        160        144        145        162        161        145        146        163        162        146        147        164        163        147        148        165        164        148        149        166        165        149        150        167        166        150        151        168        167        151        152        169        168        153        154        171        170        154        155        172        171        155        156        173        172        156        157        174        173        157        158        175        174        158        159        176        175        159        160        177        176        160        161        178        177        161        162        179        178        162        163        180        179        163        164        181        180        164        165        182        181        165        166        183        182        166        167        184        183        167        168        185        184        168        169        186        185        170        171        188        187        171        172        189        188        172        173        190        189        173        174        191        190        174        175        192        191        175        176        193        192        176        177        194        193        177        178        195        194        178        179        196        195        179        180        197        196        180        181        198        197        181        182        199        198        182        183        200        199        183        184        201        200        184        185        202        201        185        186        203        202        187        188        205        204        188        189        206        205        189        190        207        206        190        191        208        207        191        192        209        208        192        193        210        209        193        194        211        210        194        195        212        211        195        196        213        212        196        197        214        213        197        198        215        214        198        199        216        215        199        200        217        216        200        201        218        217        201        202        219        218        202        203        220        219        204        205        222        221        205        206        223        222        206        207        224        223        207        208        225        224        208        209        226        225        209        210        227        226        210        211        228        227        211        212        229        228        212        213        230        229        213        214        231        230        214        215        232        231        215        216        233        232        216        217        234        233        217        218        235        234        218        219        236        235        219        220        237        236        221        222        239        238        222        223        240        239        223        224        241        240        224        225        242        241        225        226        243        242        226        227        244        243        227        228        245        244        228        229        246        245        229        230        247        246        230        231        248        247        231        232        249        248        232        233        250        249        233        234        251        250        234        235        252        251        235        236        253        252        236        237        254        253        238        239        256        255        239        240        257        256        240        241        258        257        241        242        259        258        242        243        260        259        243        244        261        260        244        245        262        261        245        246        263        262        246        247        264        263        247        248        265        264        248        249        266        265        249        250        267        266        250        251        268        267        251        252        269        268        252        253        270        269        253        254        271        270        255        256        273        272        256        257        274        273        257        258        275        274        258        259        276        275        259        260        277        276        260        261        278        277        261        262        279        278        262        263        280        279        263        264        281        280        264        265        282        281        265        266        283        282        266        267        284        283        267        268        285        284        268        269        286        285        269        270        287        286        270        271        288        287        306        307          1          0        307        308          2          1        308        309          3          2        309        310          4          3        310        311          5          4        311        312          6          5        312        313          7          6        313        314          8          7        314        315          9          8        315        316         10          9        316        317         11         10        317        318         12         11        318        319         13         12        319        320         14         13        320        321         15         14        321        322         16         15        323        324        307        306        324        325        308        307        325        326        309        308        326        327        310        309        327        328        311        310        328        329        312        311        329        330        313        312        330        331        314        313        331        332        315        314        332        333        316        315        333        334        317        316        334        335        318        317        335        336        319        318        336        337        320        319        337        338        321        320        338        339        322        321        340        341        324        323        341        342        325        324        342        343        326        325        343        344        327        326        344        345        328        327        345        346        329        328        346        347        330        329        347        348        331        330        348        349        332        331        349        350        333        332        350        351        334        333        351        352        335        334        352        353        336        335        353        354        337        336        354        355        338        337        355        356        339        338        357        358        341        340        358        359        342        341        359        360        343        342        360        361        344        343        361        362        345        344        362        363        346        345        363        364        347        346        364        365        348        347        365        366        349        348        366        367        350        349        367        368        351        350        368        369        352        351        369        370        353        352        370        371        354        353        371        372        355        354        372        373        356        355        374        375        358        357        375        376        359        358        376        377        360        359        377        378        361        360        378        379        362        361        379        380        363        362        380        381        364        363        381        382        365        364        382        383        366        365        383        384        367        366        384        385        368        367        385        386        369        368        386        387        370        369        387        388        371        370        388        389        372        371        389        390        373        372        391        392        375        374        392        393        376        375        393        394        377        376        394        395        378        377        395        396        379        378        396        397        380        379        397        398        381        380        398        399        382        381        399        400        383        382        400        401        384        383        401        402        385        384        402        403        386        385        403        404        387        386        404        405        388        387        405        406        389        388        406        407        390        389        408        409        392        391        409        410        393        392        410        411        394        393        411        412        395        394        412        413        396        395        413        414        397        396        414        415        398        397        415        416        399        398        416        417        400        399        417        418        401        400        418        419        402        401        419        420        403        402        420        421        404        403        421        422        405        404        422        423        406        405        423        424        407        406        425        426        409        408        426        427        410        409        427        428        411        410        428        429        412        411        429        430        413        412        430        431        414        413        431        432        415        414        432        433        416        415        433        434        417        416        434        435        418        417        435        436        419        418        436        437        420        419        437        438        421        420        438        439        422        421        439        440        423        422        440        441        424        423        442        443        426        425        443        444        427        426        444        445        428        427        445        446        429        428        446        447        430        429        447        448        431        430        448        449        432        431        449        450        433        432        450        451        434        433        451        452        435        434        452        453        436        435        453        454        437        436        454        455        438        437        455        456        439        438        456        457        440        439        457        458        441        440        459        460        443        442        460        461        444        443        461        462        445        444        462        463        446        445        463        464        447        446        464        465        448        447        465        466        449        448        466        467        450        449        467        468        451        450        468        469        452        451        469        470        453        452        470        471        454        453        471        472        455        454        472        473        456        455        473        474        457        456        474        475        458        457        476        477        460        459        477        478        461        460        478        479        462        461        479        480        463        462        480        481        464        463        481        482        465        464        482        483        466        465        483        484        467        466        484        485        468        467        485        486        469        468        486        487        470        469        487        488        471        470        488        489        472        471        489        490        473        472        490        491        474        473        491        492        475        474        493        494        477        476        494        495        478        477        495        496        479        478        496        497        480        479        497        498        481        480        498        499        482        481        499        500        483        482        500        501        484        483        501        502        485        484        502        503        486        485        503        504        487        486        504        505        488        487        505        506        489        488        506        507        490        489        507        508        491        490        508        509        492        491        510        511        494        493        511        512        495        494        512        513        496        495        513        514        497        496        514        515        498        497        515        516        499        498        516        517        500        499        517        518        501        500        518        519        502        501        519        520        503        502        520        521        504        503        521        522        505        504        522        523        506        505        523        524        507        506        524        525        508        507        525        526        509        508        527        528        511        510        528        529        512        511        529        530        513        512        530        531        514        513        531        532        515        514        532        533        516        515        533        534        517        516        534        535        518        517        535        536        519        518        536        537        520        519        537        538        521        520        538        539        522        521        539        540        523        522        540        541        524        523        541        542        525        524        542        543        526        525        544        545        528        527        545        546        529        528        546        547        530        529        547        548        531        530        548        549        532        531        549        550        533        532        550        551        534        533        551        552        535        534        552        553        536        535        553        554        537        536        554        555        538        537        555        556        539        538        556        557        540        539        557        558        541        540        558        559        542        541        559        560        543        542        561        562        545        544        562        563        546        545        563        564        547        546        564        565        548        547        565        566        549        548        566        567        550        549        567        568        551        550        568        569        552        551        569        570        553        552        570        571        554        553        571        572        555        554        572        573        556        555        573        574        557        556        574        575        558        557        575        576        559        558        576        577        560        559        578        579        596        595        579        580        597        596        580        581        598        597        581        582        599        598        582        583        600        599        583        584        601        600        584        585        602        601        585        586        603        602        586        587        604        603        587        588        605        604        588        589        606        605        589        590        607        606        590        591        608        607        591        592        609        608        592        593        610        609        593        594        611        610        595        596        613        612        596        597        614        613        597        598        615        614        598        599        616        615        599        600        617        616        600        601        618        617        601        602        619        618        602        603        620        619        603        604        621        620        604        605        622        621        605        606        623        622        606        607        624        623        607        608        625        624        608        609        626        625        609        610        627        626        610        611        628        627        612        613        630        629        613        614        631        630        614        615        632        631        615        616        633        632        616        617        634        633        617        618        635        634        618        619        636        635        619        620        637        636        620        621        638        637        621        622        639        638        622        623        640        639        623        624        641        640        624        625        642        641        625        626        643        642        626        627        644        643        627        628        645        644        629        630        647        646        630        631        648        647        631        632        649        648        632        633        650        649        633        634        651        650        634        635        652        651        635        636        653        652        636        637        654        653        637        638        655        654        638        639        656        655        639        640        657        656        640        641        658        657        641        642        659        658        642        643        660        659        643        644        661        660        644        645        662        661        646        647        664        663        647        648        665        664        648        649        666        665        649        650        667        666        650        651        668        667        651        652        669        668        652        653        670        669        653        654        671        670        654        655        672        671        655        656        673        672        656        657        674        673        657        658        675        674        658        659        676        675        659        660        677        676        660        661        678        677        661        662        679        678        663        664        681        680        664        665        682        681        665        666        683        682        666        667        684        683        667        668        685        684        668        669        686        685        669        670        687        686        670        671        688        687        671        672        689        688        672        673        690        689        673        674        691        690        674        675        692        691        675        676        693        692        676        677        694        693        677        678        695        694        678        679        696        695        680        681        698        697        681        682        699        698        682        683        700        699        683        684        701        700        684        685        702        701        685        686        703        702        686        687        704        703        687        688        705        704        688        689        706        705        689        690        707        706        690        691        708        707        691        692        709        708        692        693        710        709        693        694        711        710        694        695        712        711        695        696        713        712        697        698        715        714        698        699        716        715        699        700        717        716        700        701        718        717        701        702        719        718        702        703        720        719        703        704        721        720        704        705        722        721        705        706        723        722        706        707        724        723        707        708        725        724        708        709        726        725        709        710        727        726        710        711        728        727        711        712        729        728        712        713        730        729        714        715        732        731        715        716        733        732        716        717        734        733        717        718        735        734        718        719        736        735        719        720        737        736        720        721        738        737        721        722        739        738        722        723        740        739        723        724        741        740        724        725        742        741        725        726        743        742        726        727        744        743        727        728        745        744        728        729        746        745        729        730        747        746        731        732        749        748        732        733        750        749        733        734        751        750        734        735        752        751        735        736        753        752        736        737        754        753        737        738        755        754        738        739        756        755        739        740        757        756        740        741        758        757        741        742        759        758        742        743        760        759        743        744        761        760        744        745        762        761        745        746        763        762        746        747        764        763        748        749        766        765        749        750        767        766        750        751        768        767        751        752        769        768        752        753        770        769        753        754        771        770        754        755        772        771        755        756        773        772        756        757        774        773        757        758        775        774        758        759        776        775        759        760        777        776        760        761        778        777        761        762        779        778        762        763        780        779        763        764        781        780        765        766        783        782        766        767        784        783        767        768        785        784        768        769        786        785        769        770        787        786        770        771        788        787        771        772        789        788        772        773        790        789        773        774        791        790        774        775        792        791        775        776        793        792        776        777        794        793        777        778        795        794        778        779        796        795        779        780        797        796        780        781        798        797        782        783        800        799        783        784        801        800        784        785        802        801        785        786        803        802        786        787        804        803        787        788        805        804        788        789        806        805        789        790        807        806        790        791        808        807        791        792        809        808        792        793        810        809        793        794        811        810        794        795        812        811        795        796        813        812        796        797        814        813        797        798        815        814        799        800        817        816        800        801        818        817        801        802        819        818        802        803        820        819        803        804        821        820        804        805        822        821        805        806        823        822        806        807        824        823        807        808        825        824        808        809        826        825        809        810        827        826        810        811        828        827        811        812        829        828        812        813        830        829        813        814        831        830        814        815        832        831        816        817        834        833        817        818        835        834        818        819        836        835        819        820        837        836        820        821        838        837        821        822        839        838        822        823        840        839        823        824        841        840        824        825        842        841        825        826        843        842        826        827        844        843        827        828        845        844        828        829        846        845        829        830        847        846        830        831        848        847        831        832        849        848        833        834        562        561        834        835        563        562        835        836        564        563        836        837        565        564        837        838        566        565        838        839        567        566        839        840        568        567        840        841        569        568        841        842        570        569        842        843        571        570        843        844        572        571        844        845        573        572        845        846        574        573        846        847        575        574        847        848        576        575        848        849        577        576        884        885        579        578        885        886        580        579        886        887        581        580        887        888        582        581        888        889        583        582        889        890        584        583        890        891        585        584        891        892        586        585        892        893        587        586        893        894        588        587        894        895        589        588        895        896        590        589        896        897        591        590        897        898        592        591        898        899        593        592        899        900        594        593        901        902        885        884        902        903        886        885        903        904        887        886        904        905        888        887        905        906        889        888        906        907        890        889        907        908        891        890        908        909        892        891        909        910        893        892        910        911        894        893        911        912        895        894        912        913        896        895        913        914        897        896        914        915        898        897        915        916        899        898        916        917        900        899        918        919        902        901        919        920        903        902        920        921        904        903        921        922        905        904        922        923        906        905        923        924        907        906        924        925        908        907        925        926        909        908        926        927        910        909        927        928        911        910        928        929        912        911        929        930        913        912        930        931        914        913        931        932        915        914        932        933        916        915        933        934        917        916        935        936        919        918        936        937        920        919        937        938        921        920        938        939        922        921        939        940        923        922        940        941        924        923        941        942        925        924        942        943        926        925        943        944        927        926        944        945        928        927        945        946        929        928        946        947        930        929        947        948        931        930        948        949        932        931        949        950        933        932        950        951        934        933        952        953        936        935        953        954        937        936        954        955        938        937        955        956        939        938        956        957        940        939        957        958        941        940        958        959        942        941        959        960        943        942        960        961        944        943        961        962        945        944        962        963        946        945        963        964        947        946        964        965        948        947        965        966        949        948        966        967        950        949        967        968        951        950        969        970        953        952        970        971        954        953        971        972        955        954        972        973        956        955        973        974        957        956        974        975        958        957        975        976        959        958        976        977        960        959        977        978        961        960        978        979        962        961        979        980        963        962        980        981        964        963        981        982        965        964        982        983        966        965        983        984        967        966        984        985        968        967        986        987        970        969        987        988        971        970        988        989        972        971        989        990        973        972        990        991        974        973        991        992        975        974        992        993        976        975        993        994        977        976        994        995        978        977        995        996        979        978        996        997        980        979        997        998        981        980        998        999        982        981        999       1000        983        982       1000       1001        984        983       1001       1002        985        984       1003       1004        987        986       1004       1005        988        987       1005       1006        989        988       1006       1007        990        989       1007       1008        991        990       1008       1009        992        991       1009       1010        993        992       1010       1011        994        993       1011       1012        995        994       1012       1013        996        995       1013       1014        997        996       1014       1015        998        997       1015       1016        999        998       1016       1017       1000        999       1017       1018       1001       1000       1018       1019       1002       1001       1020       1021       1004       1003       1021       1022       1005       1004       1022       1023       1006       1005       1023       1024       1007       1006       1024       1025       1008       1007       1025       1026       1009       1008       1026       1027       1010       1009       1027       1028       1011       1010       1028       1029       1012       1011       1029       1030       1013       1012       1030       1031       1014       1013       1031       1032       1015       1014       1032       1033       1016       1015       1033       1034       1017       1016       1034       1035       1018       1017       1035       1036       1019       1018       1037       1038       1021       1020       1038       1039       1022       1021       1039       1040       1023       1022       1040       1041       1024       1023       1041       1042       1025       1024       1042       1043       1026       1025       1043       1044       1027       1026       1044       1045       1028       1027       1045       1046       1029       1028       1046       1047       1030       1029       1047       1048       1031       1030       1048       1049       1032       1031       1049       1050       1033       1032       1050       1051       1034       1033       1051       1052       1035       1034       1052       1053       1036       1035       1054       1055       1038       1037       1055       1056       1039       1038       1056       1057       1040       1039       1057       1058       1041       1040       1058       1059       1042       1041       1059       1060       1043       1042       1060       1061       1044       1043       1061       1062       1045       1044       1062       1063       1046       1045       1063       1064       1047       1046       1064       1065       1048       1047       1065       1066       1049       1048       1066       1067       1050       1049       1067       1068       1051       1050       1068       1069       1052       1051       1069       1070       1053       1052       1071       1072       1055       1054       1072       1073       1056       1055       1073       1074       1057       1056       1074       1075       1058       1057       1075       1076       1059       1058       1076       1077       1060       1059       1077       1078       1061       1060       1078       1079       1062       1061       1079       1080       1063       1062       1080       1081       1064       1063       1081       1082       1065       1064       1082       1083       1066       1065       1083       1084       1067       1066       1084       1085       1068       1067       1085       1086       1069       1068       1086       1087       1070       1069       1088       1089       1072       1071       1089       1090       1073       1072       1090       1091       1074       1073       1091       1092       1075       1074       1092       1093       1076       1075       1093       1094       1077       1076       1094       1095       1078       1077       1095       1096       1079       1078       1096       1097       1080       1079       1097       1098       1081       1080       1098       1099       1082       1081       1099       1100       1083       1082       1100       1101       1084       1083       1101       1102       1085       1084       1102       1103       1086       1085       1103       1104       1087       1086       1105       1106       1089       1088       1106       1107       1090       1089       1107       1108       1091       1090       1108       1109       1092       1091       1109       1110       1093       1092       1110       1111       1094       1093       1111       1112       1095       1094       1112       1113       1096       1095       1113       1114       1097       1096       1114       1115       1098       1097       1115       1116       1099       1098       1116       1117       1100       1099       1117       1118       1101       1100       1118       1119       1102       1101       1119       1120       1103       1102       1120       1121       1104       1103       1122       1123       1106       1105       1123       1124       1107       1106       1124       1125       1108       1107       1125       1126       1109       1108       1126       1127       1110       1109       1127       1128       1111       1110       1128       1129       1112       1111       1129       1130       1113       1112       1130       1131       1114       1113       1131       1132       1115       1114       1132       1133       1116       1115       1133       1134       1117       1116       1134       1135       1118       1117       1135       1136       1119       1118       1136       1137       1120       1119       1137       1138       1121       1120        272        273       1123       1122        273        274       1124       1123        274        275       1125       1124        275        276       1126       1125        276        277       1127       1126        277        278       1128       1127        278        279       1129       1128        279        280       1130       1129        280        281       1131       1130        281        282       1132       1131        282        283       1133       1132        283        284       1134       1133        284        285       1135       1134        285        286       1136       1135        286        287       1137       1136        287        288       1138       1137 </DataArray>
<DataArray type="Int32"                                    Name="offsets"                                                      NumberOfComponents=" 1" format="ascii">
         4          8         12         16         20         24         28         32         36         40         44         48         52         56         60         64         68         72         76         80         84         88         92         96        100        104        108        112        116        120        124        128        132        136        140        144        148        152        156        160        164        168        172        176        180        184        188        192        196        200        204        208        212        216        220        224        228        232        236        240        244        248        252        256        260        264        268        272        276        280        284        288        292        296        300        304        308        312        316        320        324        328        332        336        340        344        348        352        356        360        364        368        372        376        380        384        388        392        396        400        404        408        412        416        420        424        428        432        436        440        444        448        452        456        460        464        468        472        476        480        484        488        492        496        500        504        508        512        516        520        524        528        532        536        540        544        548        552        556        560        564        568        572        576        580        584        588        592        596        600        604        608        612        616        620        624        628        632        636        640        644        648        652        656        660        664        668        672        676        680        684        688        692        696        700        704        708        712        716        720        724        728        732        736        740        744        748        752        756        760        764        768        772        776        780        784        788        792        796        800        804        808        812        816        820        824        828        832        836        840        844        848        852        856        860        864        868        872        876        880        884        888        892        896        900        904        908        912        916        920        924        928        932        936        940        944        948        952        956        960        964        968        972        976        980        984        988        992        996       1000       1004       1008       1012       1016       1020       1024       1028       1032       1036       1040       1044       1048       1052       1056       1060       1064       1068       1072       1076       1080       1084       1088       1092       1096       1100       1104       1108       1112       1116       1120       1124       1128       1132       1136       1140       1144       1148       1152       1156       1160       1164       1168       1172       1176       1180       1184       1188       1192       1196       1200       1204       1208       1212       1216       1220       1224       1228       1232       1236       1240       1244       1248       1252       1256       1260       1264       1268       1272       1276       1280       1284       1288       1292       1296       1300       1304       1308       1312       1316       1320       1324       1328       1332       1336       1340       1344       1348       1352       1356       1360       1364       1368       1372       1376       1380       1384       1388       1392       1396       1400       1404       1408       1412       1416       1420       1424       1428       1432       1436       1440       1444       1448       1452       1456       1460       1464       1468       1472       1476       1480       1484       1488       1492       1496       1500       1504       1508       1512       1516       1520       1524       1528       1532       1536       1540       1544       1548       1552       1556       1560       1564       1568       1572       1576       1580       1584       1588       1592       1596       1600       1604       1608       1612       1616       1620       1624       1628       1632       1636       1640       1644       1648       1652       1656       1660       1664       1668       1672       1676       1680       1684       1688       1692       1696       1700       1704       1708       1712       1716       1720       1724       1728       1732       1736       1740       1744       1748       1752       1756       1760       1764       1768       1772       1776       1780       1784       1788       1792       1796       1800       1804       1808       1812       1816       1820       1824       1828       1832       1836       1840       1844       1848       1852       1856       1860       1864       1868       1872       1876       1880       1884       1888       1892       1896       1900       1904       1908       1912       1916       1920       1924       1928       1932       1936       1940       1944       1948       1952       1956       1960       1964       1968       1972       1976       1980       1984       1988       1992       1996       2000       2004       2008       2012       2016       2020       2024       2028       2032       2036       2040       2044       2048       2052       2056       2060       2064       2068       2072       2076       2080       2084       2088       2092       2096       2100       2104       2108       2112       2116       2120       2124       2128       2132       2136       2140       2144       2148       2152       2156       2160       2164       2168       2172       2176       2180       2184       2188       2192       2196       2200       2204       2208       2212       2216       2220       2224       2228       2232       2236       2240       2244       2248       2252       2256       2260       2264       2268       2272       2276       2280       2284       2288       2292       2296       2300       2304       2308       2312       2316       2320       2324       2328       2332       2336       2340       2344       2348       2352       2356       2360       2364       2368       2372       2376       2380       2384       2388       2392       2396       2400       2404       2408       2412       2416       2420       2424       2428       2432       2436       2440       2444       2448       2452       2456       2460       2464       2468       2472       2476       2480       2484       2488       2492       2496       2500       2504       2508       2512       2516       2520       2524       2528       2532       2536       2540       2544       2548       2552       2556       2560       2564       2568       2572       2576       2580       2584       2588       2592       2596       2600       2604       2608       2612       2616       2620       2624       2628       2632       2636       2640       2644       2648       2652       2656       2660       2664       2668       2672       2676       2680       2684       2688       2692       2696       2700       2704       2708       2712       2716       2720       2724       2728       2732       2736       2740       2744       2748       2752       2756       2760       2764       2768       2772       2776       2780       2784       2788       2792       2796       2800       2804       2808       2812       2816       2820       2824       2828       2832       2836       2840       2844       2848       2852       2856       2860       2864       2868       2872       2876       2880       2884       2888       2892       2896       2900       2904       2908       2912       2916       2920       2924       2928       2932       2936       2940       2944       2948       2952       2956       2960       2964       2968       2972       2976       2980       2984       2988       2992       2996       3000       3004       3008       3012       3016       3020       3024       3028       3032       3036       3040       3044       3048       3052       3056       3060       3064       3068       3072       3076       3080       3084       3088       3092       3096       3100       3104       3108       3112       3116       3120       3124       3128       3132       3136       3140       3144       3148       3152       3156       3160       3164       3168       3172       3176       3180       3184       3188       3192       3196       3200       3204       3208       3212       3216       3220       3224       3228       3232       3236       3240       3244       3248       3252       3256       3260       3264       3268       3272       3276       3280       3284       3288       3292       3296       3300       3304       3308       3312       3316       3320       3324       3328       3332       3336       3340       3344       3348       3352       3356       3360       3364       3368       3372       3376       3380       3384       3388       3392       3396       3400       3404       3408       3412       3416       3420       3424       3428       3432       3436       3440       3444       3448       3452       3456       3460       3464       3468       3472       3476       3480       3484       3488       3492       3496       3500       3504       3508       3512       3516       3520       3524       3528       3532       3536       3540       3544       3548       3552       3556       3560       3564       3568       3572       3576       3580       3584       3588       3592       3596       3600       3604       3608       3612       3616       3620       3624       3628       3632       3636       3640       3644       3648       3652       3656       3660       3664       3668       3672       3676       3680       3684       3688       3692       3696       3700       3704       3708       3712       3716       3720       3724       3728       3732       3736       3740       3744       3748       3752       3756       3760       3764       3768       3772       3776       3780       3784       3788       3792       3796       3800       3804       3808       3812       3816       3820       3824       3828       3832       3836       3840       3844       3848       3852       3856       3860       3864       3868       3872       3876       3880       3884       3888       3892       3896       3900       3904       3908       3912       3916       3920       3924       3928       3932       3936       3940       3944       3948       3952       3956       3960       3964       3968       3972       3976       3980       3984       3988       3992       3996       4000       4004       4008       4012       4016       4020       4024       4028       4032       4036       4040       4044       4048       4052       4056       4060       4064       4068       4072       4076       4080       4084       4088       4092       4096 </DataArray>
<DataArray type="UInt8"                                    Name="types"                                                      NumberOfComponents=" 1" format="ascii">
         9          9          9          9          9          9          9          9          9          9          9          9          9          9          9          9          9          9          9          9          9          9          9          9          9          9          9          9          9          9          9          9          9          9          9          9          9          9          9          9          9          9          9          9          9          9          9          9          9          9          9          9          9          9          9          9          9          9          9          9          9          9          9          9          9          9          9          9          9          9          9          9          9          9          9          9          9          9          9          9          9          9          9          9          9          9          9          9          9          9          9          9          9          9          9          9          9          9          9          9          9          9          9          9          9          9          9          9          9          9          9          9          9          9          9          9          9          9          9          9          9          9          9          9          9          9          9          9          9          9          9          9          9          9          9          9          9          9          9          9          9          9          9          9          9          9          9          9          9          9          9          9          9          9          9          9          9          9          9          9          9          9          9          9          9          9          9          9          9          9          9          9          9          9          9          9          9          9          9          9          9          9          9          9          9          9          9          9          9          9          9          9          9          9          9          9          9          9          9          9          9          9          9          9          9          9          9          9          9          9          9          9          9          9          9          9          9          9          9          9          9          9          9          9          9          9          9          9          9          9          9          9          9          9          9          9          9          9          9          9          9          9          9          9          9          9          9          9          9          9          9          9          9          9          9          9          9          9          9          9          9          9          9          9          9          9          9          9          9          9          9          9          9          9          9          9          9          9          9          9          9          9          9          9          9          9          9          9          9          9          9          9          9          9          9          9          9          9          9          9          9          9          9          9          9          9          9          9          9          9          9          9          9          9          9          9          9          9          9          9          9          9          9          9          9          9          9          9          9          9          9          9          9          9          9          9          9          9          9          9          9          9          9          9          9          9          9          9          9          9          9          9          9          9          9          9          9          9          9          9          9          9          9          9          9          9          9          9          9          9          9          9          9          9          9          9          9          9          9          9          9          9          9          9          9          9          9          9          9          9          9          9          9          9          9          9          9          9          9          9          9          9          9          9          9          9          9          9          9          9          9          9          9          9          9          9          9          9          9          9          9          9          9          9          9          9          9          9          9          9          9          9          9          9          9          9          9          9          9          9          9          9          9          9          9          9          9          9          9          9          9          9          9          9          9          9          9          9          9          9          9          9          9          9          9          9          9          9          9          9          9          9          9          9          9          9          9          9          9          9          9          9          9          9          9          9          9          9          9          9          9          9          9          9          9          9          9          9          9          9          9          9          9          9          9          9          9          9          9          9          9          9          9          9          9          9          9          9          9          9          9          9          9          9          9          9          9          9          9          9          9          9          9          9          9          9          9          9          9          9          9          9          9          9          9          9          9          9          9          9          9          9          9          9          9          9          9          9          9          9          9          9          9          9          9          9          9          9          9          9          9          9          9          9          9          9          9          9          9          9          9          9          9          9          9          9          9          9          9          9          9          9          9          9          9          9          9          9          9          9          9          9          9          9          9          9          9          9          9          9          9          9          9          9          9          9          9          9          9          9          9          9          9          9          9          9          9          9          9          9          9          9          9          9          9          9          9          9          9          9          9          9          9          9          9          9          9          9          9          9          9          9          9          9          9          9          9          9          9          9          9          9          9          9          9          9          9          9          9          9          9          9          9          9          9          9          9          9          9          9          9          9          9          9          9          9          9          9          9          9          9          9          9          9          9          9          9          9          9          9          9          9          9          9          9          9          9          9          9          9          9          9          9          9          9          9          9          9          9          9          9          9          9          9          9          9          9          9          9          9          9          9          9          9          9          9          9          9          9          9          9          9          9          9          9          9          9          9          9          9          9          9          9          9          9          9          9          9          9          9          9          9          9          9          9          9          9          9          9          9          9          9          9          9          9          9          9          9          9          9          9          9          9          9          9          9          9          9          9          9          9          9          9          9          9          9          9          9          9          9          9          9          9          9          9          9          9          9          9          9          9          9          9          9          9          9          9          9          9          9          9          9          9          9          9          9          9          9          9          9          9          9          9          9          9          9          9          9          9          9          9          9          9          9          9          9          9          9          9          9          9          9          9          9          9          9          9          9          9          9          9          9          9          9          9          9          9          9          9          9          9          9          9          9          9          9          9          9          9          9          9          9          9          9          9          9          9          9          9          9          9          9          9          9          9          9          9          9          9          9          9          9          9          9          9          9          9          9          9          9          9          9          9          9          9          9          9          9          9          9          9          9          9          9          9          9          9          9          9          9          9          9          9          9          9          9          9          9          9          9          9          9          9          9          9          9          9          9          9          9          9          9          9          9          9          9          9          9          9          9          9          9          9          9          9          9          9          9          9          9          9          9          9          9          9          9          9          9          9          9          9          9          9          9          9          9          9          9          9          9          9          9          9          9          9          9          9          9          9          9          9          9          9          9          9          9          9          9          9          9          9          9          9          9          9          9          9          9          9          9          9          9          9          9 </DataArray>
</Cells>
<CellData>
<DataArray type="Int32"                                    Name="material"                                                      NumberOfComponents=" 1" format="ascii">
         1          1          1          1          1          1          1          1          1          1          1          1          1          1          1          1          1          1          1          1          1          1          1          1          1          1          1          1          1          1          1          1          1          1          1          1          1          1          1          1          1          1          1          1          1          1          1          1          1          1          1          1          1          1          1          1          1          1          1          1          1          1          1          1          1          1          1          1          1          1          1          1          1          1          1          1          1          1          1          1          1          1          1          1          1          1          1          1          1          1          1          1          1          1          1          1          1          1          1          1          1          1          1          1          1          1          1          1          1          1          1          1          1          1          1          1          1          1          1          1          1          1          1          1          1          1          1          1          1          1          1          1          1          1          1          1          1          1          1          1          1          1          1          1          1          1          1          1          1          1          1          1          1          1          1          1          1          1          1          1          1          1          1          1          1          1          1          1          1          1          1          1          1          1          1          1          1          1          1          1          1          1          1          1          1          1          1          1          1          1          1          1          1          1          1          1          1          1          1          1          1          1          1          1          1          1          1          1          1          1          1          1          1          1          1          1          1          1          1          1          1          1          1          1          1          1          1          1          1          1          1          1          1          1          1          1          1          1          1          1          1          1          1          1          1          1          1          1          1          1          1          1          1          1          1          1          1          1          1          1          1          1          1          1          1          1          1          1          1          1          1          1          1          1          1          1          1          1          1          1          1          1          1          1          1          1          1          1          1          1          1          1          1          1          1          1          1          1          1          1          1          1          1          1          1          1          1          1          1          1          1          1          1          1          1          1          1          1          1          1          1          1          1          1          1          1          1          1          1          1          1          1          1          1          1          1          1          1          1          1          1          1          1          1          1          1          1          1          1          1          1          1          1          1          1          1          1          1          1          1          1          1          1          1          1          1          1          1          1          1          1          1          1          1          1          1          1          1          1          1          1          1          1          1          1          1          1          1          1          1          1          1          1          1          1          1          1          1          1          1          1          1          1          1          1          1          1          1          1          1          1          1          1          1          1          1          1          1          1          1          1          1          1          1          1          1          1          1          1          1          1          1          1          1          1          1          1          1          1          1          1          1          1          1          1          1          1          1          1          1          1          1          1          1          1          1          1          1          1          1          1          1          1          1          1          1          1          1          1          1          1          1          1          1          1          1          1          1          1          1          1          1          1          1          1          1          1          1          1          1          1          1          1          1          1          1          1          1          1          1          1          1          1          1          1          1          1          1          1          1          1          1          1          1          1          1          1          1          1          1          1          1          1          1          1          1          1          1          1          1          1          1          1          1          1          1          1          1          1          1          1          1          1          1          1          1          1          1          1          1          1          1          1          1          1          1          1          1          1          1          1          1          1          1          1          1          1          1          1          1          1          1          1          1          1          1          1          1          1          1          1          1          1          1          1          1          1          1          1          1          1          1          1          1          1          1          1          1          1          1          1          1          1          1          1          1          1          1          1          1          1          1          1          1          1          1          1          1          1          1          1          1          1          1          1          1          1          1          1          1          1          1          1          1          1          1          1          1          1          1          1          1          1          1          1          1          1          1          1          1          1          1          1          1          1          1          1          1          1          1          1          1          1          1          1          1          1          1          1          1          1          1          1          1          1          1          1          1          1          1          1          1          1          1          1          1          1          1          1          1          1          1          1          1          1          1          1          1          1          1          1          1          1          1          1          1          1          1          1          1          1          1          1          1          1          1          1          1          1          1          1          1          1          1          1          1          1          1          1          1          1          1          1          1          1          1          1          1          1          1          1          1          1          1          1          1          1          1          1          1          1          1          1          1          1          1          1          1          1          1          1          1          1          1          1          1          1          1          1          1          1          1          1          1          1          1          1          1          1          1          1          1          1          1          1          1          1          1          1          1          1          1          1          1          1          1          1          1          1          1          1          1          1          1          1          1          1          1          1          1          1          1          1          1          1          1          1          1          1          1          1          1          1          1          1          1          1          1          1          1          1          1          1          1          1          1          1          1          1          1          1          1          1          1          1          1          1          1          1          1          1          1          1          1          1          1          1          1          1          1          1          1          1          1          1          1          1          1          1          1          1          1          1          1          1          1          1          1          1          1          1          1          1          1          1          1          1          1          1          1          1          1          1          1          1          1          1          1          1          1          1          1          1          1          1          1          1          1          1          1          1          1          1          1          1          1          1          1          1          1          1          1          1          1          1          1          1          1          1          1          1          1          1          1          1          1          1          1          1          1          1          1          1          1          1          1          1          1          1          1          1          1          1          1          1          1          1          1          1          1          1          1          1          1          1          1          1          1          1          1          1          1          1          1          1          1          1          1          1          1          1          1          1          1          1          1          1          1          1          1          1          1          1          1          1          1          1          1          1          1          1          1          1          1          1          1          1          1          1          1          1          1          1          1          1          1          1          1          1          1          1          1          1          1 </DataArray>
</CellData>
<PointData>
<DataArray type="Float64"                                    Name="u"                                                      NumberOfComponents=" 3" format="ascii">
             -0.000511415               0.000000000               0.999999984              -0.000555572               0.000000000               0.999999984              -0.000575550               0.000000000               0.999999984              -0.000587175               0.000000000               0.999999984              -0.000596343               0.000000000               0.999999984              -0.000605457               0.000000000               0.999999984              -0.000615493               0.000000000               0.999999984              -0.000626631               0.000000000               0.999999984              -0.000638816               0.000000000               0.999999984              -0.000652011               0.000000000               0.999999984              -0.000665994              -0.000000000               0.999999984              -0.000680540              -0.000000000               0.999999984              -0.000695428              -0.000000000               0.999999984              -0.000710354               0.000000000               0.999999984              -0.000725117              -0.000000000               0.999999984              -0.000739293               0.000000000               0.999999984              -0.000752310               0.000000000               0.999999984              -0.000508478               0.000112786               0.999999984              -0.000549613               0.000093558               0.999999984              -0.000567748               0.000085779               0.999999984              -0.000578231               0.000083854               0.999999984              -0.000586714               0.000084986               0.999999984              -0.000595414               0.000087964               0.999999984              -0.000605037               0.000091697               0.999999984              -0.000615769               0.000095805               0.999999984              -0.000627539               0.000100035               0.999999984              -0.000640194               0.000103950               0.999999984              -0.000653479               0.000107325               0.999999984              -0.000667105               0.000109920               0.999999984              -0.000680828               0.000111526               0.999999984              -0.000694489               0.000111979               0.999999984              -0.000707872               0.000110799               0.999999984              -0.000720619               0.000107199               0.999999984              -0.000732338               0.000100266               0.999999984              -0.000499926               0.000224416               0.999999984              -0.000532271               0.000186432               0.999999984              -0.000545148               0.000171903               0.999999984              -0.000552597               0.000168839               0.999999984              -0.000559276               0.000171757               0.999999984              -0.000566763               0.000177925               0.999999984              -0.000575422               0.000185660               0.999999984              -0.000585150               0.000194082               0.999999984              -0.000595714               0.000202429               0.999999984              -0.000606861               0.000210154               0.999999984              -0.000618227               0.000216800               0.999999984              -0.000629637               0.000222089               0.999999984              -0.000640857               0.000225681               0.999999984              -0.000651667               0.000227072               0.999999984              -0.000661842               0.000225583               0.999999984              -0.000671144               0.000220214               0.999999984              -0.000679594               0.000210155               0.999999984              -0.000485824               0.000333807               0.999999984              -0.000504338               0.000278112               0.999999984              -0.000509709               0.000258518               0.999999984              -0.000513118               0.000255709               0.999999984              -0.000517606               0.000261296               0.999999984              -0.000523727               0.000271238               0.999999984              -0.000531200               0.000283181               0.999999984              -0.000539592               0.000295900               0.999999984              -0.000548521               0.000308454               0.999999984              -0.000557619               0.000319905               0.999999984              -0.000566577               0.000329814               0.999999984              -0.000575024               0.000337808               0.999999984              -0.000582742               0.000343597               0.999999984              -0.000589577               0.000346716               0.999999984              -0.000595521               0.000346596               0.999999984              -0.000600705               0.000342480               0.999999984              -0.000605336               0.000334192               0.999999984              -0.000466429               0.000439808               0.999999984              -0.000467307               0.000368303               0.999999984              -0.000464359               0.000345668               0.999999984              -0.000463867               0.000344595               0.999999984              -0.000466570               0.000353774               0.999999984              -0.000471678               0.000367906               0.999999984              -0.000478207               0.000384217               0.999999984              -0.000485447               0.000401094               0.999999984              -0.000492792               0.000417570               0.999999984              -0.000499682               0.000432559               0.999999984              -0.000505816               0.000445650               0.999999984              -0.000510981               0.000456598               0.999999984              -0.000514996               0.000465175               0.999999984              -0.000517881               0.000471057               0.999999984              -0.000519811               0.000474056               0.999999984              -0.000521046               0.000474174               0.999999984              -0.000522001               0.000471500               0.999999984              -0.000442229               0.000541287               0.999999984              -0.000423256               0.000456757               0.999999984              -0.000412605               0.000433133               0.999999984              -0.000409470               0.000434941               0.999999984              -0.000411372               0.000448285               0.999999984              -0.000416163               0.000466842               0.999999984              -0.000422271               0.000487391               0.999999984              -0.000428542               0.000508348               0.999999984              -0.000434214               0.000528485               0.999999984              -0.000438945               0.000546906               0.999999984              -0.000442418               0.000563237               0.999999984              -0.000444431               0.000577337               0.999999984              -0.000444971               0.000588895               0.999999984              -0.000444184               0.000598088               0.999999984              -0.000442361               0.000605259               0.999999984              -0.000439822               0.000610397               0.999999984              -0.000436637               0.000613659               0.999999984              -0.000413658               0.000637203               0.999999984              -0.000374451               0.000543328               0.999999984              -0.000358178               0.000520328               0.999999984              -0.000354245               0.000525609               0.999999984              -0.000356553               0.000543186               0.999999984              -0.000361753               0.000566249               0.999999984              -0.000367648               0.000590991               0.999999984              -0.000372982               0.000615825               0.999999984              -0.000377163               0.000639522               0.999999984              -0.000379673               0.000661345               0.999999984              -0.000380188               0.000680784               0.999999984              -0.000378790               0.000697694               0.999999984              -0.000375592               0.000712154               0.999999984              -0.000370931               0.000724699               0.999999984              -0.000364939               0.000735665               0.999999984              -0.000357688               0.000744986               0.999999984              -0.000349075               0.000752209               0.999999984              -0.000381418               0.000726481               0.999999984              -0.000323506               0.000627672               0.999999984              -0.000304308               0.000606515               0.999999984              -0.000301547               0.000615260               0.999999984              -0.000305346               0.000636853               0.999999984              -0.000311329               0.000664109               0.999999984              -0.000317108               0.000692900               0.999999984              -0.000321542               0.000721614               0.999999984              -0.000323782               0.000748961               0.999999984              -0.000323514               0.000773659               0.999999984              -0.000320664               0.000795438               0.999999984              -0.000315238               0.000814566               0.999999984              -0.000307560               0.000831512               0.999999984              -0.000297870               0.000846983               0.999999984              -0.000286336               0.000861077               0.999999984              -0.000273085               0.000873452               0.999999984              -0.000258217               0.000883506               0.999999984              -0.000346765               0.000807641               0.999999984              -0.000272251               0.000709707               0.999999984              -0.000253811               0.000690634               0.999999984              -0.000253578               0.000702446               0.999999984              -0.000259399               0.000727797               0.999999984              -0.000266297               0.000758913               0.999999984              -0.000271860               0.000791826               0.999999984              -0.000274831               0.000824274               0.999999984              -0.000274650               0.000854372               0.999999984              -0.000270830               0.000881283               0.999999984              -0.000263340               0.000904923               0.999999984              -0.000252520               0.000926025               0.999999984              -0.000238980               0.000945325               0.999999984              -0.000223279               0.000963176               0.999999984              -0.000205793               0.000979586               0.999999984              -0.000186757               0.000994242               0.999999984              -0.000166962               0.001007311               0.999999984              -0.000311478               0.000883798               0.999999984              -0.000230127               0.000799075               0.999999984              -0.000208665               0.000775223               0.999999984              -0.000207058               0.000781169               0.999999984              -0.000212217               0.000801677               0.999999984              -0.000218966               0.000829500               0.999999984              -0.000224939               0.000860865               0.999999984              -0.000228637               0.000892952               0.999999984              -0.000229477               0.000924112               0.999999984              -0.000226985               0.000952935               0.999999984              -0.000220650               0.000978880               0.999999984              -0.000210460               0.001002181               0.999999984              -0.000196935               0.001023380               0.999999984              -0.000180938               0.001043218               0.999999984              -0.000163181               0.001061858               0.999999984              -0.000144064               0.001079517               0.999999984              -0.000124386               0.001095836               0.999999984              -0.000272812               0.000952673               0.999999984              -0.000190845               0.000884833               0.999999984              -0.000166392               0.000861359               0.999999984              -0.000162698               0.000863369               0.999999984              -0.000166569               0.000879936               0.999999984              -0.000172603               0.000904751               0.999999984              -0.000178410               0.000934386               0.999999984              -0.000182534               0.000965937               0.999999984              -0.000184218               0.000997565               0.999999984              -0.000182798               0.001028095               0.999999984              -0.000177704               0.001056534               0.999999984              -0.000168529               0.001082484               0.999999984              -0.000155488               0.001105961               0.999999984              -0.000139126               0.001127602               0.999999984              -0.000120257               0.001147961               0.999999984              -0.000099621               0.001167629               0.999999984              -0.000077891               0.001186626               0.999999984              -0.000231513               0.001012841               0.999999984              -0.000154224               0.000964638               0.999999984              -0.000128190               0.000945237               0.999999984              -0.000122264               0.000946056               0.999999984              -0.000124299               0.000960152               0.999999984              -0.000129158               0.000982791               0.999999984              -0.000134247               0.001010873               0.999999984              -0.000138236               0.001041873               0.999999984              -0.000140384               0.001074020               0.999999984              -0.000139721               0.001105846               0.999999984              -0.000135782               0.001136637               0.999999984              -0.000127921               0.001165599               0.999999984              -0.000115855               0.001192316               0.999999984              -0.000099741               0.001216782               0.999999984              -0.000079933               0.001239496               0.999999984              -0.000056870               0.001261120               0.999999984              -0.000031253               0.001282168               0.999999984              -0.000187998               0.001063284               0.999999984              -0.000120165               0.001035349               0.999999984              -0.000094703               0.001022767               0.999999984              -0.000087133               0.001024873               0.999999984              -0.000087304               0.001038231               0.999999984              -0.000090559               0.001059832               0.999999984              -0.000094477               0.001087188               0.999999984              -0.000097860               0.001117902               0.999999984              -0.000099950               0.001150630               0.999999984              -0.000099805               0.001183978               0.999999984              -0.000096675               0.001216987               0.999999984              -0.000090044               0.001249025               0.999999984              -0.000079655               0.001279467               0.999999984              -0.000064976               0.001307851               0.999999984              -0.000045459               0.001334260               0.999999984              -0.000020961               0.001359004               0.999999984               0.000008347               0.001382663               0.999999984              -0.000142633               0.001103341               0.999999984              -0.000088269               0.001093941               0.999999984              -0.000065968               0.001089484               0.999999984              -0.000058033               0.001094660               0.999999984              -0.000056792               0.001108790               0.999999984              -0.000058418               0.001130434               0.999999984              -0.000061034               0.001157698               0.999999984              -0.000063524               0.001188751               0.999999984              -0.000065207               0.001222200               0.999999984              -0.000065276               0.001256968               0.999999984              -0.000062829               0.001292323               0.999999984              -0.000057573               0.001327304               0.999999984              -0.000049300               0.001361388               0.999999984              -0.000037117               0.001394126               0.999999984              -0.000019875               0.001425160               0.999999984               0.000003194               0.001454338               0.999999984               0.000032797               0.001481810               0.999999984              -0.000095872               0.001132371               0.999999984              -0.000058007               0.001137799               0.999999984              -0.000041418               0.001140952               0.999999984              -0.000034809               0.001149789               0.999999984              -0.000033043               0.001165563               0.999999984              -0.000033511               0.001187944               0.999999984              -0.000034999               0.001215597               0.999999984              -0.000036592               0.001247079               0.999999984              -0.000037693               0.001281378               0.999999984              -0.000037613               0.001317489               0.999999984              -0.000035964               0.001354708               0.999999984              -0.000032432               0.001392273               0.999999984              -0.000026611               0.001429630               0.999999984              -0.000017770               0.001466270               0.999999984              -0.000004909               0.001501737               0.999999984               0.000013196               0.001535574               0.999999984               0.000037737               0.001567432               0.999999984              -0.000048191               0.001149895               0.999999984              -0.000028762               0.001164899               0.999999984              -0.000019895               0.001173549               0.999999984              -0.000016139               0.001185343               0.999999984              -0.000014913               0.001202643               0.999999984              -0.000014879               0.001225782               0.999999984              -0.000015525               0.001253895               0.999999984              -0.000016302               0.001285875               0.999999984              -0.000016822               0.001320779               0.999999984              -0.000016728               0.001357794               0.999999984              -0.000015885               0.001396327               0.999999984              -0.000014117               0.001435676               0.999999984              -0.000011143               0.001475384               0.999999984              -0.000006486               0.001514856               0.999999984               0.000000483               0.001553561               0.999999984               0.000010568               0.001590854               0.999999984               0.000024498               0.001626116               0.999999984               0.000000000               0.001155828               0.999999984              -0.000000000               0.001174079               0.999999984              -0.000000000               0.001184598               0.999999984              -0.000000000               0.001197558               0.999999984              -0.000000000               0.001215549               0.999999984              -0.000000000               0.001239035               0.999999984               0.000000000               0.001267358               0.999999984               0.000000000               0.001299487               0.999999984              -0.000000000               0.001334633               0.999999984              -0.000000000               0.001371953               0.999999984               0.000000000               0.001410930               0.999999984               0.000000000               0.001450919               0.999999984               0.000000000               0.001491469               0.999999984              -0.000000000               0.001532015               0.999999984              -0.000000000               0.001571957               0.999999984               0.000000000               0.001610543               0.999999984               0.000000000               0.001647048               0.999999984              -0.000511415               0.000000000               0.999999984              -0.000555572               0.000000000               0.999999984              -0.000575550               0.000000000               0.999999984              -0.000587175               0.000000000               0.999999984              -0.000596343               0.000000000               0.999999984              -0.000605457               0.000000000               0.999999984              -0.000615493               0.000000000               0.999999984              -0.000626631               0.000000000               0.999999984              -0.000638816               0.000000000               0.999999984              -0.000652011               0.000000000               0.999999984              -0.000665994              -0.000000000               0.999999984              -0.000680540              -0.000000000               0.999999984              -0.000695428              -0.000000000               0.999999984              -0.000710354               0.000000000               0.999999984              -0.000725117              -0.000000000               0.999999984              -0.000739293               0.000000000               0.999999984              -0.000752310               0.000000000               0.999999984              -0.000508478              -0.000112786               0.999999984              -0.000549613              -0.000093558               0.999999984              -0.000567748              -0.000085779               0.999999984              -0.000578231              -0.000083854               0.999999984              -0.000586714              -0.000084986               0.999999984              -0.000595414              -0.000087964               0.999999984              -0.000605037              -0.000091697               0.999999984              -0.000615769              -0.000095805               0.999999984              -0.000627539              -0.000100035               0.999999984              -0.000640194              -0.000103950               0.999999984              -0.000653479              -0.000107325               0.999999984              -0.000667105              -0.000109920               0.999999984              -0.000680828              -0.000111526               0.999999984              -0.000694489              -0.000111979               0.999999984              -0.000707872              -0.000110799               0.999999984              -0.000720619              -0.000107199               0.999999984              -0.000732338              -0.000100266               0.999999984              -0.000499926              -0.000224416               0.999999984              -0.000532271              -0.000186432               0.999999984              -0.000545148              -0.000171903               0.999999984              -0.000552597              -0.000168839               0.999999984              -0.000559276              -0.000171757               0.999999984              -0.000566763              -0.000177925               0.999999984              -0.000575422              -0.000185660               0.999999984              -0.000585150              -0.000194082               0.999999984              -0.000595714              -0.000202429               0.999999984              -0.000606861              -0.000210154               0.999999984              -0.000618227              -0.000216800               0.999999984              -0.000629637              -0.000222089               0.999999984              -0.000640857              -0.000225681               0.999999984              -0.000651667              -0.000227072               0.999999984              -0.000661842              -0.000225583               0.999999984              -0.000671144              -0.000220214               0.999999984              -0.000679594              -0.000210155               0.999999984              -0.000485824              -0.000333807               0.999999984              -0.000504338              -0.000278112               0.999999984              -0.000509709              -0.000258518               0.999999984              -0.000513118              -0.000255709               0.999999984              -0.000517606              -0.000261296               0.999999984              -0.000523727              -0.000271238               0.999999984              -0.000531200              -0.000283181               0.999999984              -0.000539592              -0.000295900               0.999999984              -0.000548521              -0.000308454               0.999999984              -0.000557619              -0.000319905               0.999999984              -0.000566577              -0.000329814               0.999999984              -0.000575024              -0.000337808               0.999999984              -0.000582742              -0.000343597               0.999999984              -0.000589577              -0.000346716               0.999999984              -0.000595521              -0.000346596               0.999999984              -0.000600705              -0.000342480               0.999999984              -0.000605336              -0.000334192               0.999999984              -0.000466429              -0.000439808               0.999999984              -0.000467307              -0.000368303               0.999999984              -0.000464359              -0.000345668               0.999999984              -0.000463867              -0.000344595               0.999999984              -0.000466570              -0.000353774               0.999999984              -0.000471678              -0.000367906               0.999999984              -0.000478207              -0.000384217               0.999999984              -0.000485447              -0.000401094               0.999999984              -0.000492792              -0.000417570               0.999999984              -0.000499682              -0.000432559               0.999999984              -0.000505816              -0.000445650               0.999999984              -0.000510981              -0.000456598               0.999999984              -0.000514996              -0.000465175               0.999999984              -0.000517881              -0.000471057               0.999999984              -0.000519811              -0.000474056               0.999999984              -0.000521046              -0.000474174               0.999999984              -0.000522001              -0.000471500               0.999999984              -0.000442229              -0.000541287               0.999999984              -0.000423256              -0.000456757               0.999999984              -0.000412605              -0.000433133               0.999999984              -0.000409470              -0.000434941               0.999999984              -0.000411372              -0.000448285               0.999999984              -0.000416163              -0.000466842               0.999999984              -0.000422271              -0.000487391               0.999999984              -0.000428542              -0.000508348               0.999999984              -0.000434214              -0.000528485               0.999999984              -0.000438945              -0.000546906               0.999999984              -0.000442418              -0.000563237               0.999999984              -0.000444431              -0.000577337               0.999999984              -0.000444971              -0.000588895               0.999999984              -0.000444184              -0.000598088               0.999999984              -0.000442361              -0.000605259               0.999999984              -0.000439822              -0.000610397               0.999999984              -0.000436637              -0.000613659               0.999999984              -0.000413658              -0.000637203               0.999999984              -0.000374451              -0.000543328               0.999999984              -0.000358178              -0.000520328               0.999999984              -0.000354245              -0.000525609               0.999999984              -0.000356553              -0.000543186               0.999999984              -0.000361753              -0.000566249               0.999999984              -0.000367648              -0.000590991               0.999999984              -0.000372982              -0.000615825               0.999999984              -0.000377163              -0.000639522               0.999999984              -0.000379673              -0.000661345               0.999999984              -0.000380188              -0.000680784               0.999999984              -0.000378790              -0.000697694               0.999999984              -0.000375592              -0.000712154               0.999999984              -0.000370931              -0.000724699               0.999999984              -0.000364939              -0.000735665               0.999999984              -0.000357688              -0.000744986               0.999999984              -0.000349075              -0.000752209               0.999999984              -0.000381418              -0.000726481               0.999999984              -0.000323506              -0.000627672               0.999999984              -0.000304308              -0.000606515               0.999999984              -0.000301547              -0.000615260               0.999999984              -0.000305346              -0.000636853               0.999999984              -0.000311329              -0.000664109               0.999999984              -0.000317108              -0.000692900               0.999999984              -0.000321542              -0.000721614               0.999999984              -0.000323782              -0.000748961               0.999999984              -0.000323514              -0.000773659               0.999999984              -0.000320664              -0.000795438               0.999999984              -0.000315238              -0.000814566               0.999999984              -0.000307560              -0.000831512               0.999999984              -0.000297870              -0.000846983               0.999999984              -0.000286336              -0.000861077               0.999999984              -0.000273085              -0.000873452               0.999999984              -0.000258217              -0.000883506               0.999999984              -0.000346765              -0.000807641               0.999999984              -0.000272251              -0.000709707               0.999999984              -0.000253811              -0.000690634               0.999999984              -0.000253578              -0.000702446               0.999999984              -0.000259399              -0.000727797               0.999999984              -0.000266297              -0.000758913               0.999999984              -0.000271860              -0.000791826               0.999999984              -0.000274831              -0.000824274               0.999999984              -0.000274650              -0.000854372               0.999999984              -0.000270830              -0.000881283               0.999999984              -0.000263340              -0.000904923               0.999999984              -0.000252520              -0.000926025               0.999999984              -0.000238980              -0.000945325               0.999999984              -0.000223279              -0.000963176               0.999999984              -0.000205793              -0.000979586               0.999999984              -0.000186757              -0.000994242               0.999999984              -0.000166962              -0.001007311               0.999999984              -0.000311478              -0.000883798               0.999999984              -0.000230127              -0.000799075               0.999999984              -0.000208665              -0.000775223               0.999999984              -0.000207058              -0.000781169               0.999999984              -0.000212217              -0.000801677               0.999999984              -0.000218966              -0.000829500               0.999999984              -0.000224939              -0.000860865               0.999999984              -0.000228637              -0.000892952               0.999999984              -0.000229477              -0.000924112               0.999999984              -0.000226985              -0.000952935               0.999999984              -0.000220650              -0.000978880               0.999999984              -0.000210460              -0.001002181               0.999999984              -0.000196935              -0.001023380               0.999999984              -0.000180938              -0.001043218               0.999999984              -0.000163181              -0.001061858               0.999999984              -0.000144064              -0.001079517               0.999999984              -0.000124386              -0.001095836               0.999999984              -0.000272812              -0.000952673               0.999999984              -0.000190845              -0.000884833               0.999999984              -0.000166392              -0.000861359               0.999999984              -0.000162698              -0.000863369               0.999999984              -0.000166569              -0.000879936               0.999999984              -0.000172603              -0.000904751               0.999999984              -0.000178410              -0.000934386               0.999999984              -0.000182534              -0.000965937               0.999999984              -0.000184218              -0.000997565               0.999999984              -0.000182798              -0.001028095               0.999999984              -0.000177704              -0.001056534               0.999999984              -0.000168529              -0.001082484               0.999999984              -0.000155488              -0.001105961               0.999999984              -0.000139126              -0.001127602               0.999999984              -0.000120257              -0.001147961               0.999999984              -0.000099621              -0.001167629               0.999999984              -0.000077891              -0.001186626               0.999999984              -0.000231513              -0.001012841               0.999999984              -0.000154224              -0.000964638               0.999999984              -0.000128190              -0.000945237               0.999999984              -0.000122264              -0.000946056               0.999999984              -0.000124299              -0.000960152               0.999999984              -0.000129158              -0.000982791               0.999999984              -0.000134247              -0.001010873               0.999999984              -0.000138236              -0.001041873               0.999999984              -0.000140384              -0.001074020               0.999999984              -0.000139721              -0.001105846               0.999999984              -0.000135782              -0.001136637               0.999999984              -0.000127921              -0.001165599               0.999999984              -0.000115855              -0.001192316               0.999999984              -0.000099741              -0.001216782               0.999999984              -0.000079933              -0.001239496               0.999999984              -0.000056870              -0.001261120               0.999999984              -0.000031253              -0.001282168               0.999999984              -0.000187998              -0.001063284               0.999999984              -0.000120165              -0.001035349               0.999999984              -0.000094703              -0.001022767               0.999999984              -0.000087133              -0.001024873               0.999999984              -0.000087304              -0.001038231               0.999999984              -0.000090559              -0.001059832               0.999999984              -0.000094477              -0.001087188               0.999999984              -0.000097860              -0.001117902               0.999999984              -0.000099950              -0.001150630               0.999999984              -0.000099805              -0.001183978               0.999999984              -0.000096675              -0.001216987               0.999999984              -0.000090044              -0.001249025               0.999999984              -0.000079655              -0.001279467               0.999999984              -0.000064976              -0.001307851               0.999999984              -0.000045459              -0.001334260               0.999999984              -0.000020961              -0.001359004               0.999999984               0.000008347              -0.001382663               0.999999984              -0.000142633              -0.001103341               0.999999984              -0.000088269              -0.001093941               0.999999984              -0.000065968              -0.001089484               0.999999984              -0.000058033              -0.001094660               0.999999984              -0.000056792              -0.001108790               0.999999984              -0.000058418              -0.001130434               0.999999984              -0.000061034              -0.001157698               0.999999984              -0.000063524              -0.001188751               0.999999984              -0.000065207              -0.001222200               0.999999984              -0.000065276              -0.001256968               0.999999984              -0.000062829              -0.001292323               0.999999984              -0.000057573              -0.001327304               0.999999984              -0.000049300              -0.001361388               0.999999984              -0.000037117              -0.001394126               0.999999984              -0.000019875              -0.001425160               0.999999984               0.000003194              -0.001454338               0.999999984               0.000032797              -0.001481810               0.999999984              -0.000095872              -0.001132371               0.999999984              -0.000058007              -0.001137799               0.999999984              -0.000041418              -0.001140952               0.999999984              -0.000034809              -0.001149789               0.999999984              -0.000033043              -0.001165563               0.999999984              -0.000033511              -0.001187944               0.999999984              -0.000034999              -0.001215597               0.999999984              -0.000036592              -0.001247079               0.999999984              -0.000037693              -0.001281378               0.999999984              -0.000037613              -0.001317489               0.999999984              -0.000035964              -0.001354708               0.999999984              -0.000032432              -0.001392273               0.999999984              -0.000026611              -0.001429630               0.999999984              -0.000017770              -0.001466270               0.999999984              -0.000004909              -0.001501737               0.999999984               0.000013196              -0.001535574               0.999999984               0.000037737              -0.001567432               0.999999984              -0.000048191              -0.001149895               0.999999984              -0.000028762              -0.001164899               0.999999984              -0.000019895              -0.001173549               0.999999984              -0.000016139              -0.001185343               0.999999984              -0.000014913              -0.001202643               0.999999984              -0.000014879              -0.001225782               0.999999984              -0.000015525              -0.001253895               0.999999984              -0.000016302              -0.001285875               0.999999984              -0.000016822              -0.001320779               0.999999984              -0.000016728              -0.001357794               0.999999984              -0.000015885              -0.001396327               0.999999984              -0.000014117              -0.001435676               0.999999984              -0.000011143              -0.001475384               0.999999984              -0.000006486              -0.001514856               0.999999984               0.000000483              -0.001553561               0.999999984               0.000010568              -0.001590854               0.999999984               0.000024498              -0.001626116               0.999999984              -0.000000000              -0.001155828               0.999999984              -0.000000000              -0.001174079               0.999999984              -0.000000000              -0.001184598               0.999999984              -0.000000000              -0.001197558               0.999999984               0.000000000              -0.001215549               0.999999984               0.000000000              -0.001239035               0.999999984              -0.000000000              -0.001267358               0.999999984              -0.000000000              -0.001299487               0.999999984              -0.000000000              -0.001334633               0.999999984               0.000000000              -0.001371953               0.999999984               0.000000000              -0.001410930               0.999999984              -0.000000000              -0.001450919               0.999999984               0.000000000              -0.001491469               0.999999984               0.000000000              -0.001532015               0.999999984               0.000000000              -0.001571957               0.999999984              -0.000000000              -0.001610543               0.999999984               0.000000000              -0.001647048               0.999999984               0.000511415               0.000000000               0.999999984               0.000555572               0.000000000               0.999999984               0.000575550               0.000000000               0.999999984               0.000587175               0.000000000               0.999999984               0.000596343               0.000000000               0.999999984               0.000605457               0.000000000               0.999999984               0.000615493               0.000000000               0.999999984               0.000626631               0.000000000               0.999999984               0.000638816               0.000000000               0.999999984               0.000652011              -0.000000000               0.999999984               0.000665994              -0.000000000               0.999999984               0.000680540               0.000000000               0.999999984               0.000695428               0.000000000               0.999999984               0.000710354               0.000000000               0.999999984               0.000725117               0.000000000               0.999999984               0.000739293              -0.000000000               0.999999984               0.000752310              -0.000000000               0.999999984               0.000508478              -0.000112786               0.999999984               0.000549613              -0.000093558               0.999999984               0.000567748              -0.000085779               0.999999984               0.000578231              -0.000083854               0.999999984               0.000586714              -0.000084986               0.999999984               0.000595414              -0.000087964               0.999999984               0.000605037              -0.000091697               0.999999984               0.000615769              -0.000095805               0.999999984               0.000627539              -0.000100035               0.999999984               0.000640194              -0.000103950               0.999999984               0.000653479              -0.000107325               0.999999984               0.000667105              -0.000109920               0.999999984               0.000680828              -0.000111526               0.999999984               0.000694489              -0.000111979               0.999999984               0.000707872              -0.000110799               0.999999984               0.000720619              -0.000107199               0.999999984               0.000732338              -0.000100266               0.999999984               0.000499926              -0.000224416               0.999999984               0.000532271              -0.000186432               0.999999984               0.000545148              -0.000171903               0.999999984               0.000552597              -0.000168839               0.999999984               0.000559276              -0.000171757               0.999999984               0.000566763              -0.000177925               0.999999984               0.000575422              -0.000185660               0.999999984               0.000585150              -0.000194082               0.999999984               0.000595714              -0.000202429               0.999999984               0.000606861              -0.000210154               0.999999984               0.000618227              -0.000216800               0.999999984               0.000629637              -0.000222089               0.999999984               0.000640857              -0.000225681               0.999999984               0.000651667              -0.000227072               0.999999984               0.000661842              -0.000225583               0.999999984               0.000671144              -0.000220214               0.999999984               0.000679594              -0.000210155               0.999999984               0.000485824              -0.000333807               0.999999984               0.000504338              -0.000278112               0.999999984               0.000509709              -0.000258518               0.999999984               0.000513118              -0.000255709               0.999999984               0.000517606              -0.000261296               0.999999984               0.000523727              -0.000271238               0.999999984               0.000531200              -0.000283181               0.999999984               0.000539592              -0.000295900               0.999999984               0.000548521              -0.000308454               0.999999984               0.000557619              -0.000319905               0.999999984               0.000566577              -0.000329814               0.999999984               0.000575024              -0.000337808               0.999999984               0.000582742              -0.000343597               0.999999984               0.000589577              -0.000346716               0.999999984               0.000595521              -0.000346596               0.999999984               0.000600705              -0.000342480               0.999999984               0.000605336              -0.000334192               0.999999984               0.000466429              -0.000439808               0.999999984               0.000467307              -0.000368303               0.999999984               0.000464359              -0.000345668               0.999999984               0.000463867              -0.000344595               0.999999984               0.000466570              -0.000353774               0.999999984               0.000471678              -0.000367906               0.999999984               0.000478207              -0.000384217               0.999999984               0.000485447              -0.000401094               0.999999984               0.000492792              -0.000417570               0.999999984               0.000499682              -0.000432559               0.999999984               0.000505816              -0.000445650               0.999999984               0.000510981              -0.000456598               0.999999984               0.000514996              -0.000465175               0.999999984               0.000517881              -0.000471057               0.999999984               0.000519811              -0.000474056               0.999999984               0.000521046              -0.000474174               0.999999984               0.000522001              -0.000471500               0.999999984               0.000442229              -0.000541287               0.999999984               0.000423256              -0.000456757               0.999999984               0.000412605              -0.000433133               0.999999984               0.000409470              -0.000434941               0.999999984               0.000411372              -0.000448285               0.999999984               0.000416163              -0.000466842               0.999999984               0.000422271              -0.000487391               0.999999984               0.000428542              -0.000508348               0.999999984               0.000434214              -0.000528485               0.999999984               0.000438945              -0.000546906               0.999999984               0.000442418              -0.000563237               0.999999984               0.000444431              -0.000577337               0.999999984               0.000444971              -0.000588895               0.999999984               0.000444184              -0.000598088               0.999999984               0.000442361              -0.000605259               0.999999984               0.000439822              -0.000610397               0.999999984               0.000436637              -0.000613659               0.999999984               0.000413658              -0.000637203               0.999999984               0.000374451              -0.000543328               0.999999984               0.000358178              -0.000520328               0.999999984               0.000354245              -0.000525609               0.999999984               0.000356553              -0.000543186               0.999999984               0.000361753              -0.000566249               0.999999984               0.000367648              -0.000590991               0.999999984               0.000372982              -0.000615825               0.999999984               0.000377163              -0.000639522               0.999999984               0.000379673              -0.000661345               0.999999984               0.000380188              -0.000680784               0.999999984               0.000378790              -0.000697694               0.999999984               0.000375592              -0.000712154               0.999999984               0.000370931              -0.000724699               0.999999984               0.000364939              -0.000735665               0.999999984               0.000357688              -0.000744986               0.999999984               0.000349075              -0.000752209               0.999999984               0.000381418              -0.000726481               0.999999984               0.000323506              -0.000627672               0.999999984               0.000304308              -0.000606515               0.999999984               0.000301547              -0.000615260               0.999999984               0.000305346              -0.000636853               0.999999984               0.000311329              -0.000664109               0.999999984               0.000317108              -0.000692900               0.999999984               0.000321542              -0.000721614               0.999999984               0.000323782              -0.000748961               0.999999984               0.000323514              -0.000773659               0.999999984               0.000320664              -0.000795438               0.999999984               0.000315238              -0.000814566               0.999999984               0.000307560              -0.000831512               0.999999984               0.000297870              -0.000846983               0.999999984               0.000286336              -0.000861077               0.999999984               0.000273085              -0.000873452               0.999999984               0.000258217              -0.000883506               0.999999984               0.000346765              -0.000807641               0.999999984               0.000272251              -0.000709707               0.999999984               0.000253811              -0.000690634               0.999999984               0.000253578              -0.000702446               0.999999984               0.000259399              -0.000727797               0.999999984               0.000266297              -0.000758913               0.999999984               0.000271860              -0.000791826               0.999999984               0.000274831              -0.000824274               0.999999984               0.000274650              -0.000854372               0.999999984               0.000270830              -0.000881283               0.999999984               0.000263340              -0.000904923               0.999999984               0.000252520              -0.000926025               0.999999984               0.000238980              -0.000945325               0.999999984               0.000223279              -0.000963176               0.999999984               0.000205793              -0.000979586               0.999999984               0.000186757              -0.000994242               0.999999984               0.000166962              -0.001007311               0.999999984               0.000311478              -0.000883798               0.999999984               0.000230127              -0.000799075               0.999999984               0.000208665              -0.000775223               0.999999984               0.000207058              -0.000781169               0.999999984               0.000212217              -0.000801677               0.999999984               0.000218966              -0.000829500               0.999999984               0.000224939              -0.000860865               0.999999984               0.000228637              -0.000892952               0.999999984               0.000229477              -0.000924112               0.999999984               0.000226985              -0.000952935               0.999999984               0.000220650              -0.000978880               0.999999984               0.000210460              -0.001002181               0.999999984               0.000196935              -0.001023380               0.999999984               0.000180938              -0.001043218               0.999999984               0.000163181              -0.001061858               0.999999984               0.000144064              -0.001079517               0.999999984               0.000124386              -0.001095836               0.999999984               0.000272812              -0.000952673               0.999999984               0.000190845              -0.000884833               0.999999984               0.000166392              -0.000861359               0.999999984               0.000162698              -0.000863369               0.999999984               0.000166569              -0.000879936               0.999999984               0.000172603              -0.000904751               0.999999984               0.000178410              -0.000934386               0.999999984               0.000182534              -0.000965937               0.999999984               0.000184218              -0.000997565               0.999999984               0.000182798              -0.001028095               0.999999984               0.000177704              -0.001056534               0.999999984               0.000168529              -0.001082484               0.999999984               0.000155488              -0.001105961               0.999999984               0.000139126              -0.001127602               0.999999984               0.000120257              -0.001147961               0.999999984               0.000099621              -0.001167629               0.999999984               0.000077891              -0.001186626               0.999999984               0.000231513              -0.001012841               0.999999984               0.000154224              -0.000964638               0.999999984               0.000128190              -0.000945237               0.999999984               0.000122264              -0.000946056               0.999999984               0.000124299              -0.000960152               0.999999984               0.000129158              -0.000982791               0.999999984               0.000134247              -0.001010873               0.999999984               0.000138236              -0.001041873               0.999999984               0.000140384              -0.001074020               0.999999984               0.000139721              -0.001105846               0.999999984               0.000135782              -0.001136637               0.999999984               0.000127921              -0.001165599               0.999999984               0.000115855              -0.001192316               0.999999984               0.000099741              -0.001216782               0.999999984               0.000079933              -0.001239496               0.999999984               0.000056870              -0.001261120               0.999999984               0.000031253              -0.001282168               0.999999984               0.000187998              -0.001063284               0.999999984               0.000120165              -0.001035349               0.999999984               0.000094703              -0.001022767               0.999999984               0.000087133              -0.001024873               0.999999984               0.000087304              -0.001038231               0.999999984               0.000090559              -0.001059832               0.999999984               0.000094477              -0.001087188               0.999999984               0.000097860              -0.001117902               0.999999984               0.000099950              -0.001150630               0.999999984               0.000099805              -0.001183978               0.999999984               0.000096675              -0.001216987               0.999999984               0.000090044              -0.001249025               0.999999984               0.000079655              -0.001279467               0.999999984               0.000064976              -0.001307851               0.999999984               0.000045459              -0.001334260               0.999999984               0.000020961              -0.001359004               0.999999984              -0.000008347              -0.001382663               0.999999984               0.000142633              -0.001103341               0.999999984               0.000088269              -0.001093941               0.999999984               0.000065968              -0.001089484               0.999999984               0.000058033              -0.001094660               0.999999984               0.000056792              -0.001108790               0.999999984               0.000058418              -0.001130434               0.999999984               0.000061034              -0.001157698               0.999999984               0.000063524              -0.001188751               0.999999984               0.000065207              -0.001222200               0.999999984               0.000065276              -0.001256968               0.999999984               0.000062829              -0.001292323               0.999999984               0.000057573              -0.001327304               0.999999984               0.000049300              -0.001361388               0.999999984               0.000037117              -0.001394126               0.999999984               0.000019875              -0.001425160               0.999999984              -0.000003194              -0.001454338               0.999999984              -0.000032797              -0.001481810               0.999999984               0.000095872              -0.001132371               0.999999984               0.000058007              -0.001137799               0.999999984               0.000041418              -0.001140952               0.999999984               0.000034809              -0.001149789               0.999999984               0.000033043              -0.001165563               0.999999984               0.000033511              -0.001187944               0.999999984               0.000034999              -0.001215597               0.999999984               0.000036592              -0.001247079               0.999999984               0.000037693              -0.001281378               0.999999984               0.000037613              -0.001317489               0.999999984               0.000035964              -0.001354708               0.999999984               0.000032432              -0.001392273               0.999999984               0.000026611              -0.001429630               0.999999984               0.000017770              -0.001466270               0.999999984               0.000004909              -0.001501737               0.999999984              -0.000013196              -0.001535574               0.999999984              -0.000037737              -0.001567432               0.999999984               0.000048191              -0.001149895               0.999999984               0.000028762              -0.001164899               0.999999984               0.000019895              -0.001173549               0.999999984               0.000016139              -0.001185343               0.999999984               0.000014913              -0.001202643               0.999999984               0.000014879              -0.001225782               0.999999984               0.000015525              -0.001253895               0.999999984               0.000016302              -0.001285875               0.999999984               0.000016822              -0.001320779               0.999999984               0.000016728              -0.001357794               0.999999984               0.000015885              -0.001396327               0.999999984               0.000014117              -0.001435676               0.999999984               0.000011143              -0.001475384               0.999999984               0.000006486              -0.001514856               0.999999984              -0.000000483              -0.001553561               0.999999984              -0.000010568              -0.001590854               0.999999984              -0.000024498              -0.001626116               0.999999984              -0.000000000              -0.001155828               0.999999984              -0.000000000              -0.001174079               0.999999984              -0.000000000              -0.001184598               0.999999984              -0.000000000              -0.001197558               0.999999984               0.000000000              -0.001215549               0.999999984               0.000000000              -0.001239035               0.999999984              -0.000000000              -0.001267358               0.999999984              -0.000000000              -0.001299487               0.999999984              -0.000000000              -0.001334633               0.999999984               0.000000000              -0.001371953               0.999999984               0.000000000              -0.001410930               0.999999984              -0.000000000              -0.001450919               0.999999984               0.000000000              -0.001491469               0.999999984               0.000000000              -0.001532015               0.999999984               0.000000000              -0.001571957               0.999999984              -0.000000000              -0.001610543               0.999999984               0.000000000              -0.001647048               0.999999984               0.000511415               0.000000000               0.999999984               0.000555572               0.000000000               0.999999984               0.000575550               0.000000000               0.999999984               0.000587175               0.000000000               0.999999984               0.000596343               0.000000000               0.999999984               0.000605457               0.000000000               0.999999984               0.000615493               0.000000000               0.999999984               0.000626631               0.000000000               0.999999984               0.000638816               0.000000000               0.999999984               0.000652011              -0.000000000               0.999999984               0.000665994              -0.000000000               0.999999984               0.000680540               0.000000000               0.999999984               0.000695428               0.000000000               0.999999984               0.000710354               0.000000000               0.999999984               0.000725117               0.000000000               0.999999984               0.000739293              -0.000000000               0.999999984               0.000752310              -0.000000000               0.999999984               0.000508478               0.000112786               0.999999984               0.000549613               0.000093558               0.999999984               0.000567748               0.000085779               0.999999984               0.000578231               0.000083854               0.999999984               0.000586714               0.000084986               0.999999984               0.000595414               0.000087964               0.999999984               0.000605037               0.000091697               0.999999984               0.000615769               0.000095805               0.999999984               0.000627539               0.000100035               0.999999984               0.000640194               0.000103950               0.999999984               0.000653479               0.000107325               0.999999984               0.000667105               0.000109920               0.999999984               0.000680828               0.000111526               0.999999984               0.000694489               0.000111979               0.999999984               0.000707872               0.000110799               0.999999984               0.000720619               0.000107199               0.999999984               0.000732338               0.000100266               0.999999984               0.000499926               0.000224416               0.999999984               0.000532271               0.000186432               0.999999984               0.000545148               0.000171903               0.999999984               0.000552597               0.000168839               0.999999984               0.000559276               0.000171757               0.999999984               0.000566763               0.000177925               0.999999984               0.000575422               0.000185660               0.999999984               0.000585150               0.000194082               0.999999984               0.000595714               0.000202429               0.999999984               0.000606861               0.000210154               0.999999984               0.000618227               0.000216800               0.999999984               0.000629637               0.000222089               0.999999984               0.000640857               0.000225681               0.999999984               0.000651667               0.000227072               0.999999984               0.000661842               0.000225583               0.999999984               0.000671144               0.000220214               0.999999984               0.000679594               0.000210155               0.999999984               0.000485824               0.000333807               0.999999984               0.000504338               0.000278112               0.999999984               0.000509709               0.000258518               0.999999984               0.000513118               0.000255709               0.999999984               0.000517606               0.000261296               0.999999984               0.000523727               0.000271238               0.999999984               0.000531200               0.000283181               0.999999984               0.000539592               0.000295900               0.999999984               0.000548521               0.000308454               0.999999984               0.000557619               0.000319905               0.999999984               0.000566577               0.000329814               0.999999984               0.000575024               0.000337808               0.999999984               0.000582742               0.000343597               0.999999984               0.000589577               0.000346716               0.999999984               0.000595521               0.000346596               0.999999984               0.000600705               0.000342480               0.999999984               0.000605336               0.000334192               0.999999984               0.000466429               0.000439808               0.999999984               0.000467307               0.000368303               0.999999984               0.000464359               0.000345668               0.999999984               0.000463867               0.000344595               0.999999984               0.000466570               0.000353774               0.999999984               0.000471678               0.000367906               0.999999984               0.000478207               0.000384217               0.999999984               0.000485447               0.000401094               0.999999984               0.000492792               0.000417570               0.999999984               0.000499682               0.000432559               0.999999984               0.000505816               0.000445650               0.999999984               0.000510981               0.000456598               0.999999984               0.000514996               0.000465175               0.999999984               0.000517881               0.000471057               0.999999984               0.000519811               0.000474056               0.999999984               0.000521046               0.000474174               0.999999984               0.000522001               0.000471500               0.999999984               0.000442229               0.000541287               0.999999984               0.000423256               0.000456757               0.999999984               0.000412605               0.000433133               0.999999984               0.000409470               0.000434941               0.999999984               0.000411372               0.000448285               0.999999984               0.000416163               0.000466842               0.999999984               0.000422271               0.000487391               0.999999984               0.000428542               0.000508348               0.999999984               0.000434214               0.000528485               0.999999984               0.000438945               0.000546906               0.999999984               0.000442418               0.000563237               0.999999984               0.000444431               0.000577337               0.999999984               0.000444971               0.000588895               0.999999984               0.000444184               0.000598088               0.999999984               0.000442361               0.000605259               0.999999984               0.000439822               0.000610397               0.999999984               0.000436637               0.000613659               0.999999984               0.000413658               0.000637203               0.999999984               0.000374451               0.000543328               0.999999984               0.000358178               0.000520328               0.999999984               0.000354245               0.000525609               0.999999984               0.000356553               0.000543186               0.999999984               0.000361753               0.000566249               0.999999984               0.000367648               0.000590991               0.999999984               0.000372982               0.000615825               0.999999984               0.000377163               0.000639522               0.999999984               0.000379673               0.000661345               0.999999984               0.000380188               0.000680784               0.999999984               0.000378790               0.000697694               0.999999984               0.000375592               0.000712154               0.999999984               0.000370931               0.000724699               0.999999984               0.000364939               0.000735665               0.999999984               0.000357688               0.000744986               0.999999984               0.000349075               0.000752209               0.999999984               0.000381418               0.000726481               0.999999984               0.000323506               0.000627672               0.999999984               0.000304308               0.000606515               0.999999984               0.000301547               0.000615260               0.999999984               0.000305346               0.000636853               0.999999984               0.000311329               0.000664109               0.999999984               0.000317108               0.000692900               0.999999984               0.000321542               0.000721614               0.999999984               0.000323782               0.000748961               0.999999984               0.000323514               0.000773659               0.999999984               0.000320664               0.000795438               0.999999984               0.000315238               0.000814566               0.999999984               0.000307560               0.000831512               0.999999984               0.000297870               0.000846983               0.999999984               0.000286336               0.000861077               0.999999984               0.000273085               0.000873452               0.999999984               0.000258217               0.000883506               0.999999984               0.000346765               0.000807641               0.999999984               0.000272251               0.000709707               0.999999984               0.000253811               0.000690634               0.999999984               0.000253578               0.000702446               0.999999984               0.000259399               0.000727797               0.999999984               0.000266297               0.000758913               0.999999984               0.000271860               0.000791826               0.999999984               0.000274831               0.000824274               0.999999984               0.000274650               0.000854372               0.999999984               0.000270830               0.000881283               0.999999984               0.000263340               0.000904923               0.999999984               0.000252520               0.000926025               0.999999984               0.000238980               0.000945325               0.999999984               0.000223279               0.000963176               0.999999984               0.000205793               0.000979586               0.999999984               0.000186757               0.000994242               0.999999984               0.000166962               0.001007311               0.999999984               0.000311478               0.000883798               0.999999984               0.000230127               0.000799075               0.999999984               0.000208665               0.000775223               0.999999984               0.000207058               0.000781169               0.999999984               0.000212217               0.000801677               0.999999984               0.000218966               0.000829500               0.999999984               0.000224939               0.000860865               0.999999984               0.000228637               0.000892952               0.999999984               0.000229477               0.000924112               0.999999984               0.000226985               0.000952935               0.999999984               0.000220650               0.000978880               0.999999984               0.000210460               0.001002181               0.999999984               0.000196935               0.001023380               0.999999984               0.000180938               0.001043218               0.999999984               0.000163181               0.001061858               0.999999984               0.000144064               0.001079517               0.999999984               0.000124386               0.001095836               0.999999984               0.000272812               0.000952673               0.999999984               0.000190845               0.000884833               0.999999984               0.000166392               0.000861359               0.999999984               0.000162698               0.000863369               0.999999984               0.000166569               0.000879936               0.999999984               0.000172603               0.000904751               0.999999984               0.000178410               0.000934386               0.999999984               0.000182534               0.000965937               0.999999984               0.000184218               0.000997565               0.999999984               0.000182798               0.001028095               0.999999984               0.000177704               0.001056534               0.999999984               0.000168529               0.001082484               0.999999984               0.000155488               0.001105961               0.999999984               0.000139126               0.001127602               0.999999984               0.000120257               0.001147961               0.999999984               0.000099621               0.001167629               0.999999984               0.000077891               0.001186626               0.999999984               0.000231513               0.001012841               0.999999984               0.000154224               0.000964638               0.999999984               0.000128190               0.000945237               0.999999984               0.000122264               0.000946056               0.999999984               0.000124299               0.000960152               0.999999984               0.000129158               0.000982791               0.999999984               0.000134247               0.001010873               0.999999984               0.000138236               0.001041873               0.999999984               0.000140384               0.001074020               0.999999984               0.000139721               0.001105846               0.999999984               0.000135782               0.001136637               0.999999984               0.000127921               0.001165599               0.999999984               0.000115855               0.001192316               0.999999984               0.000099741               0.001216782               0.999999984               0.000079933               0.001239496               0.999999984               0.000056870               0.001261120               0.999999984               0.000031253               0.001282168               0.999999984               0.000187998               0.001063284               0.999999984               0.000120165               0.001035349               0.999999984               0.000094703               0.001022767               0.999999984               0.000087133               0.001024873               0.999999984               0.000087304               0.001038231               0.999999984               0.000090559               0.001059832               0.999999984               0.000094477               0.001087188               0.999999984               0.000097860               0.001117902               0.999999984               0.000099950               0.001150630               0.999999984               0.000099805               0.001183978               0.999999984               0.000096675               0.001216987               0.999999984               0.000090044               0.001249025               0.999999984               0.000079655               0.001279467               0.999999984               0.000064976               0.001307851               0.999999984               0.000045459               0.001334260               0.999999984               0.000020961               0.001359004               0.999999984              -0.000008347               0.001382663               0.999999984               0.000142633               0.001103341               0.999999984               0.000088269               0.001093941               0.999999984               0.000065968               0.001089484               0.999999984               0.000058033               0.001094660               0.999999984               0.000056792               0.001108790               0.999999984               0.000058418               0.001130434               0.999999984               0.000061034               0.001157698               0.999999984               0.000063524               0.001188751               0.999999984               0.000065207               0.001222200               0.999999984               0.000065276               0.001256968               0.999999984               0.000062829               0.001292323               0.999999984               0.000057573               0.001327304               0.999999984               0.000049300               0.001361388               0.999999984               0.000037117               0.001394126               0.999999984               0.000019875               0.001425160               0.999999984              -0.000003194               0.001454338               0.999999984              -0.000032797               0.001481810               0.999999984               0.000095872               0.001132371               0.999999984               0.000058007               0.001137799               0.999999984               0.000041418               0.001140952               0.999999984               0.000034809               0.001149789               0.999999984               0.000033043               0.001165563               0.999999984               0.000033511               0.001187944               0.999999984               0.000034999               0.001215597               0.999999984               0.000036592               0.001247079               0.999999984               0.000037693               0.001281378               0.999999984               0.000037613               0.001317489               0.999999984               0.000035964               0.001354708               0.999999984               0.000032432               0.001392273               0.999999984               0.000026611               0.001429630               0.999999984               0.000017770               0.001466270               0.999999984               0.000004909               0.001501737               0.999999984              -0.000013196               0.001535574               0.999999984              -0.000037737               0.001567432               0.999999984               0.000048191               0.001149895               0.999999984               0.000028762               0.001164899               0.999999984               0.000019895               0.001173549               0.999999984               0.000016139               0.001185343               0.999999984               0.000014913               0.001202643               0.999999984               0.000014879               0.001225782               0.999999984               0.000015525               0.001253895               0.999999984               0.000016302               0.001285875               0.999999984               0.000016822               0.001320779               0.999999984               0.000016728               0.001357794               0.999999984               0.000015885               0.001396327               0.999999984               0.000014117               0.001435676               0.999999984               0.000011143               0.001475384               0.999999984               0.000006486               0.001514856               0.999999984              -0.000000483               0.001553561               0.999999984              -0.000010568               0.001590854               0.999999984              -0.000024498               0.001626116               0.999999984               0.000000000               0.001155828               0.999999984              -0.000000000               0.001174079               0.999999984              -0.000000000               0.001184598               0.999999984              -0.000000000               0.001197558               0.999999984              -0.000000000               0.001215549               0.999999984              -0.000000000               0.001239035               0.999999984               0.000000000               0.001267358               0.999999984               0.000000000               0.001299487               0.999999984              -0.000000000               0.001334633               0.999999984              -0.000000000               0.001371953               0.999999984               0.000000000               0.001410930               0.999999984               0.000000000               0.001450919               0.999999984               0.000000000               0.001491469               0.999999984              -0.000000000               0.001532015               0.999999984              -0.000000000               0.001571957               0.999999984               0.000000000               0.001610543               0.999999984               0.000000000               0.001647048               0.999999984 </DataArray>
<DataArray type="Float64"                                    Name="defo"                                                      NumberOfComponents=" 3" format="ascii">
             -0.000511415               0.000000000               0.999999984              -0.000555572               0.000000000               0.999999984              -0.000575550               0.000000000               0.999999984              -0.000587175               0.000000000               0.999999984              -0.000596343               0.000000000               0.999999984              -0.000605457               0.000000000               0.999999984              -0.000615493               0.000000000               0.999999984              -0.000626631               0.000000000               0.999999984              -0.000638816               0.000000000               0.999999984              -0.000652011               0.000000000               0.999999984              -0.000665994              -0.000000000               0.999999984              -0.000680540              -0.000000000               0.999999984              -0.000695428              -0.000000000               0.999999984              -0.000710354               0.000000000               0.999999984              -0.000725117              -0.000000000               0.999999984              -0.000739293               0.000000000               0.999999984              -0.000752310               0.000000000               0.999999984              -0.000508478               0.000112786               0.999999984              -0.000549613               0.000093558               0.999999984              -0.000567748               0.000085779               0.999999984              -0.000578231               0.000083854               0.999999984              -0.000586714               0.000084986               0.999999984              -0.000595414               0.000087964               0.999999984              -0.000605037               0.000091697               0.999999984              -0.000615769               0.000095805               0.999999984              -0.000627539               0.000100035               0.999999984              -0.000640194               0.000103950               0.999999984              -0.000653479               0.000107325               0.999999984              -0.000667105               0.000109920               0.999999984              -0.000680828               0.000111526               0.999999984              -0.000694489               0.000111979               0.999999984              -0.000707872               0.000110799               0.999999984              -0.000720619               0.000107199               0.999999984              -0.000732338               0.000100266               0.999999984              -0.000499926               0.000224416               0.999999984              -0.000532271               0.000186432               0.999999984              -0.000545148               0.000171903               0.999999984              -0.000552597               0.000168839               0.999999984              -0.000559276               0.000171757               0.999999984              -0.000566763               0.000177925               0.999999984              -0.000575422               0.000185660               0.999999984              -0.000585150               0.000194082               0.999999984              -0.000595714               0.000202429               0.999999984              -0.000606861               0.000210154               0.999999984              -0.000618227               0.000216800               0.999999984              -0.000629637               0.000222089               0.999999984              -0.000640857               0.000225681               0.999999984              -0.000651667               0.000227072               0.999999984              -0.000661842               0.000225583               0.999999984              -0.000671144               0.000220214               0.999999984              -0.000679594               0.000210155               0.999999984              -0.000485824               0.000333807               0.999999984              -0.000504338               0.000278112               0.999999984              -0.000509709               0.000258518               0.999999984              -0.000513118               0.000255709               0.999999984              -0.000517606               0.000261296               0.999999984              -0.000523727               0.000271238               0.999999984              -0.000531200               0.000283181               0.999999984              -0.000539592               0.000295900               0.999999984              -0.000548521               0.000308454               0.999999984              -0.000557619               0.000319905               0.999999984              -0.000566577               0.000329814               0.999999984              -0.000575024               0.000337808               0.999999984              -0.000582742               0.000343597               0.999999984              -0.000589577               0.000346716               0.999999984              -0.000595521               0.000346596               0.999999984              -0.000600705               0.000342480               0.999999984              -0.000605336               0.000334192               0.999999984              -0.000466429               0.000439808               0.999999984              -0.000467307               0.000368303               0.999999984              -0.000464359               0.000345668               0.999999984              -0.000463867               0.000344595               0.999999984              -0.000466570               0.000353774               0.999999984              -0.000471678               0.000367906               0.999999984              -0.000478207               0.000384217               0.999999984              -0.000485447               0.000401094               0.999999984              -0.000492792               0.000417570               0.999999984              -0.000499682               0.000432559               0.999999984              -0.000505816               0.000445650               0.999999984              -0.000510981               0.000456598               0.999999984              -0.000514996               0.000465175               0.999999984              -0.000517881               0.000471057               0.999999984              -0.000519811               0.000474056               0.999999984              -0.000521046               0.000474174               0.999999984              -0.000522001               0.000471500               0.999999984              -0.000442229               0.000541287               0.999999984              -0.000423256               0.000456757               0.999999984              -0.000412605               0.000433133               0.999999984              -0.000409470               0.000434941               0.999999984              -0.000411372               0.000448285               0.999999984              -0.000416163               0.000466842               0.999999984              -0.000422271               0.000487391               0.999999984              -0.000428542               0.000508348               0.999999984              -0.000434214               0.000528485               0.999999984              -0.000438945               0.000546906               0.999999984              -0.000442418               0.000563237               0.999999984              -0.000444431               0.000577337               0.999999984              -0.000444971               0.000588895               0.999999984              -0.000444184               0.000598088               0.999999984              -0.000442361               0.000605259               0.999999984              -0.000439822               0.000610397               0.999999984              -0.000436637               0.000613659               0.999999984              -0.000413658               0.000637203               0.999999984              -0.000374451               0.000543328               0.999999984              -0.000358178               0.000520328               0.999999984              -0.000354245               0.000525609               0.999999984              -0.000356553               0.000543186               0.999999984              -0.000361753               0.000566249               0.999999984              -0.000367648               0.000590991               0.999999984              -0.000372982               0.000615825               0.999999984              -0.000377163               0.000639522               0.999999984              -0.000379673               0.000661345               0.999999984              -0.000380188               0.000680784               0.999999984              -0.000378790               0.000697694               0.999999984              -0.000375592               0.000712154               0.999999984              -0.000370931               0.000724699               0.999999984              -0.000364939               0.000735665               0.999999984              -0.000357688               0.000744986               0.999999984              -0.000349075               0.000752209               0.999999984              -0.000381418               0.000726481               0.999999984              -0.000323506               0.000627672               0.999999984              -0.000304308               0.000606515               0.999999984              -0.000301547               0.000615260               0.999999984              -0.000305346               0.000636853               0.999999984              -0.000311329               0.000664109               0.999999984              -0.000317108               0.000692900               0.999999984              -0.000321542               0.000721614               0.999999984              -0.000323782               0.000748961               0.999999984              -0.000323514               0.000773659               0.999999984              -0.000320664               0.000795438               0.999999984              -0.000315238               0.000814566               0.999999984              -0.000307560               0.000831512               0.999999984              -0.000297870               0.000846983               0.999999984              -0.000286336               0.000861077               0.999999984              -0.000273085               0.000873452               0.999999984              -0.000258217               0.000883506               0.999999984              -0.000346765               0.000807641               0.999999984              -0.000272251               0.000709707               0.999999984              -0.000253811               0.000690634               0.999999984              -0.000253578               0.000702446               0.999999984              -0.000259399               0.000727797               0.999999984              -0.000266297               0.000758913               0.999999984              -0.000271860               0.000791826               0.999999984              -0.000274831               0.000824274               0.999999984              -0.000274650               0.000854372               0.999999984              -0.000270830               0.000881283               0.999999984              -0.000263340               0.000904923               0.999999984              -0.000252520               0.000926025               0.999999984              -0.000238980               0.000945325               0.999999984              -0.000223279               0.000963176               0.999999984              -0.000205793               0.000979586               0.999999984              -0.000186757               0.000994242               0.999999984              -0.000166962               0.001007311               0.999999984              -0.000311478               0.000883798               0.999999984              -0.000230127               0.000799075               0.999999984              -0.000208665               0.000775223               0.999999984              -0.000207058               0.000781169               0.999999984              -0.000212217               0.000801677               0.999999984              -0.000218966               0.000829500               0.999999984              -0.000224939               0.000860865               0.999999984              -0.000228637               0.000892952               0.999999984              -0.000229477               0.000924112               0.999999984              -0.000226985               0.000952935               0.999999984              -0.000220650               0.000978880               0.999999984              -0.000210460               0.001002181               0.999999984              -0.000196935               0.001023380               0.999999984              -0.000180938               0.001043218               0.999999984              -0.000163181               0.001061858               0.999999984              -0.000144064               0.001079517               0.999999984              -0.000124386               0.001095836               0.999999984              -0.000272812               0.000952673               0.999999984              -0.000190845               0.000884833               0.999999984              -0.000166392               0.000861359               0.999999984              -0.000162698               0.000863369               0.999999984              -0.000166569               0.000879936               0.999999984              -0.000172603               0.000904751               0.999999984              -0.000178410               0.000934386               0.999999984              -0.000182534               0.000965937               0.999999984              -0.000184218               0.000997565               0.999999984              -0.000182798               0.001028095               0.999999984              -0.000177704               0.001056534               0.999999984              -0.000168529               0.001082484               0.999999984              -0.000155488               0.001105961               0.999999984              -0.000139126               0.001127602               0.999999984              -0.000120257               0.001147961               0.999999984              -0.000099621               0.001167629               0.999999984              -0.000077891               0.001186626               0.999999984              -0.000231513               0.001012841               0.999999984              -0.000154224               0.000964638               0.999999984              -0.000128190               0.000945237               0.999999984              -0.000122264               0.000946056               0.999999984              -0.000124299               0.000960152               0.999999984              -0.000129158               0.000982791               0.999999984              -0.000134247               0.001010873               0.999999984              -0.000138236               0.001041873               0.999999984              -0.000140384               0.001074020               0.999999984              -0.000139721               0.001105846               0.999999984              -0.000135782               0.001136637               0.999999984              -0.000127921               0.001165599               0.999999984              -0.000115855               0.001192316               0.999999984              -0.000099741               0.001216782               0.999999984              -0.000079933               0.001239496               0.999999984              -0.000056870               0.001261120               0.999999984              -0.000031253               0.001282168               0.999999984              -0.000187998               0.001063284               0.999999984              -0.000120165               0.001035349               0.999999984              -0.000094703               0.001022767               0.999999984              -0.000087133               0.001024873               0.999999984              -0.000087304               0.001038231               0.999999984              -0.000090559               0.001059832               0.999999984              -0.000094477               0.001087188               0.999999984              -0.000097860               0.001117902               0.999999984              -0.000099950               0.001150630               0.999999984              -0.000099805               0.001183978               0.999999984              -0.000096675               0.001216987               0.999999984              -0.000090044               0.001249025               0.999999984              -0.000079655               0.001279467               0.999999984              -0.000064976               0.001307851               0.999999984              -0.000045459               0.001334260               0.999999984              -0.000020961               0.001359004               0.999999984               0.000008347               0.001382663               0.999999984              -0.000142633               0.001103341               0.999999984              -0.000088269               0.001093941               0.999999984              -0.000065968               0.001089484               0.999999984              -0.000058033               0.001094660               0.999999984              -0.000056792               0.001108790               0.999999984              -0.000058418               0.001130434               0.999999984              -0.000061034               0.001157698               0.999999984              -0.000063524               0.001188751               0.999999984              -0.000065207               0.001222200               0.999999984              -0.000065276               0.001256968               0.999999984              -0.000062829               0.001292323               0.999999984              -0.000057573               0.001327304               0.999999984              -0.000049300               0.001361388               0.999999984              -0.000037117               0.001394126               0.999999984              -0.000019875               0.001425160               0.999999984               0.000003194               0.001454338               0.999999984               0.000032797               0.001481810               0.999999984              -0.000095872               0.001132371               0.999999984              -0.000058007               0.001137799               0.999999984              -0.000041418               0.001140952               0.999999984              -0.000034809               0.001149789               0.999999984              -0.000033043               0.001165563               0.999999984              -0.000033511               0.001187944               0.999999984              -0.000034999               0.001215597               0.999999984              -0.000036592               0.001247079               0.999999984              -0.000037693               0.001281378               0.999999984              -0.000037613               0.001317489               0.999999984              -0.000035964               0.001354708               0.999999984              -0.000032432               0.001392273               0.999999984              -0.000026611               0.001429630               0.999999984              -0.000017770               0.001466270               0.999999984              -0.000004909               0.001501737               0.999999984               0.000013196               0.001535574               0.999999984               0.000037737               0.001567432               0.999999984              -0.000048191               0.001149895               0.999999984              -0.000028762               0.001164899               0.999999984              -0.000019895               0.001173549               0.999999984              -0.000016139               0.001185343               0.999999984              -0.000014913               0.001202643               0.999999984              -0.000014879               0.001225782               0.999999984              -0.000015525               0.001253895               0.999999984              -0.000016302               0.001285875               0.999999984              -0.000016822               0.001320779               0.999999984              -0.000016728               0.001357794               0.999999984              -0.000015885               0.001396327               0.999999984              -0.000014117               0.001435676               0.999999984              -0.000011143               0.001475384               0.999999984              -0.000006486               0.001514856               0.999999984               0.000000483               0.001553561               0.999999984               0.000010568               0.001590854               0.999999984               0.000024498               0.001626116               0.999999984               0.000000000               0.001155828               0.999999984              -0.000000000               0.001174079               0.999999984              -0.000000000               0.001184598               0.999999984              -0.000000000               0.001197558               0.999999984              -0.000000000               0.001215549               0.999999984              -0.000000000               0.001239035               0.999999984               0.000000000               0.001267358               0.999999984               0.000000000               0.001299487               0.999999984              -0.000000000               0.001334633               0.999999984              -0.000000000               0.001371953               0.999999984               0.000000000               0.001410930               0.999999984               0.000000000               0.001450919               0.999999984               0.000000000               0.001491469               0.999999984              -0.000000000               0.001532015               0.999999984              -0.000000000               0.001571957               0.999999984               0.000000000               0.001610543               0.999999984               0.000000000               0.001647048               0.999999984              -0.000511415               0.000000000               0.999999984              -0.000555572               0.000000000               0.999999984              -0.000575550               0.000000000               0.999999984              -0.000587175               0.000000000               0.999999984              -0.000596343               0.000000000               0.999999984              -0.000605457               0.000000000               0.999999984              -0.000615493               0.000000000               0.999999984              -0.000626631               0.000000000               0.999999984              -0.000638816               0.000000000               0.999999984              -0.000652011               0.000000000               0.999999984              -0.000665994              -0.000000000               0.999999984              -0.000680540              -0.000000000               0.999999984              -0.000695428              -0.000000000               0.999999984              -0.000710354               0.000000000               0.999999984              -0.000725117              -0.000000000               0.999999984              -0.000739293               0.000000000               0.999999984              -0.000752310               0.000000000               0.999999984              -0.000508478              -0.000112786               0.999999984              -0.000549613              -0.000093558               0.999999984              -0.000567748              -0.000085779               0.999999984              -0.000578231              -0.000083854               0.999999984              -0.000586714              -0.000084986               0.999999984              -0.000595414              -0.000087964               0.999999984              -0.000605037              -0.000091697               0.999999984              -0.000615769              -0.000095805               0.999999984              -0.000627539              -0.000100035               0.999999984              -0.000640194              -0.000103950               0.999999984              -0.000653479              -0.000107325               0.999999984              -0.000667105              -0.000109920               0.999999984              -0.000680828              -0.000111526               0.999999984              -0.000694489              -0.000111979               0.999999984              -0.000707872              -0.000110799               0.999999984              -0.000720619              -0.000107199               0.999999984              -0.000732338              -0.000100266               0.999999984              -0.000499926              -0.000224416               0.999999984              -0.000532271              -0.000186432               0.999999984              -0.000545148              -0.000171903               0.999999984              -0.000552597              -0.000168839               0.999999984              -0.000559276              -0.000171757               0.999999984              -0.000566763              -0.000177925               0.999999984              -0.000575422              -0.000185660               0.999999984              -0.000585150              -0.000194082               0.999999984              -0.000595714              -0.000202429               0.999999984              -0.000606861              -0.000210154               0.999999984              -0.000618227              -0.000216800               0.999999984              -0.000629637              -0.000222089               0.999999984              -0.000640857              -0.000225681               0.999999984              -0.000651667              -0.000227072               0.999999984              -0.000661842              -0.000225583               0.999999984              -0.000671144              -0.000220214               0.999999984              -0.000679594              -0.000210155               0.999999984              -0.000485824              -0.000333807               0.999999984              -0.000504338              -0.000278112               0.999999984              -0.000509709              -0.000258518               0.999999984              -0.000513118              -0.000255709               0.999999984              -0.000517606              -0.000261296               0.999999984              -0.000523727              -0.000271238               0.999999984              -0.000531200              -0.000283181               0.999999984              -0.000539592              -0.000295900               0.999999984              -0.000548521              -0.000308454               0.999999984              -0.000557619              -0.000319905               0.999999984              -0.000566577              -0.000329814               0.999999984              -0.000575024              -0.000337808               0.999999984              -0.000582742              -0.000343597               0.999999984              -0.000589577              -0.000346716               0.999999984              -0.000595521              -0.000346596               0.999999984              -0.000600705              -0.000342480               0.999999984              -0.000605336              -0.000334192               0.999999984              -0.000466429              -0.000439808               0.999999984              -0.000467307              -0.000368303               0.999999984              -0.000464359              -0.000345668               0.999999984              -0.000463867              -0.000344595               0.999999984              -0.000466570              -0.000353774               0.999999984              -0.000471678              -0.000367906               0.999999984              -0.000478207              -0.000384217               0.999999984              -0.000485447              -0.000401094               0.999999984              -0.000492792              -0.000417570               0.999999984              -0.000499682              -0.000432559               0.999999984              -0.000505816              -0.000445650               0.999999984              -0.000510981              -0.000456598               0.999999984              -0.000514996              -0.000465175               0.999999984              -0.000517881              -0.000471057               0.999999984              -0.000519811              -0.000474056               0.999999984              -0.000521046              -0.000474174               0.999999984              -0.000522001              -0.000471500               0.999999984              -0.000442229              -0.000541287               0.999999984              -0.000423256              -0.000456757               0.999999984              -0.000412605              -0.000433133               0.999999984              -0.000409470              -0.000434941               0.999999984              -0.000411372              -0.000448285               0.999999984              -0.000416163              -0.000466842               0.999999984              -0.000422271              -0.000487391               0.999999984              -0.000428542              -0.000508348               0.999999984              -0.000434214              -0.000528485               0.999999984              -0.000438945              -0.000546906               0.999999984              -0.000442418              -0.000563237               0.999999984              -0.000444431              -0.000577337               0.999999984              -0.000444971              -0.000588895               0.999999984              -0.000444184              -0.000598088               0.999999984              -0.000442361              -0.000605259               0.999999984              -0.000439822              -0.000610397               0.999999984              -0.000436637              -0.000613659               0.999999984              -0.000413658              -0.000637203               0.999999984              -0.000374451              -0.000543328               0.999999984              -0.000358178              -0.000520328               0.999999984              -0.000354245              -0.000525609               0.999999984              -0.000356553              -0.000543186               0.999999984              -0.000361753              -0.000566249               0.999999984              -0.000367648              -0.000590991               0.999999984              -0.000372982              -0.000615825               0.999999984              -0.000377163              -0.000639522               0.999999984              -0.000379673              -0.000661345               0.999999984              -0.000380188              -0.000680784               0.999999984              -0.000378790              -0.000697694               0.999999984              -0.000375592              -0.000712154               0.999999984              -0.000370931              -0.000724699               0.999999984              -0.000364939              -0.000735665               0.999999984              -0.000357688              -0.000744986               0.999999984              -0.000349075              -0.000752209               0.999999984              -0.000381418              -0.000726481               0.999999984              -0.000323506              -0.000627672               0.999999984              -0.000304308              -0.000606515               0.999999984              -0.000301547              -0.000615260               0.999999984              -0.000305346              -0.000636853               0.999999984              -0.000311329              -0.000664109               0.999999984              -0.000317108              -0.000692900               0.999999984              -0.000321542              -0.000721614               0.999999984              -0.000323782              -0.000748961               0.999999984              -0.000323514              -0.000773659               0.999999984              -0.000320664              -0.000795438               0.999999984              -0.000315238              -0.000814566               0.999999984              -0.000307560              -0.000831512               0.999999984              -0.000297870              -0.000846983               0.999999984              -0.000286336              -0.000861077               0.999999984              -0.000273085              -0.000873452               0.999999984              -0.000258217              -0.000883506               0.999999984              -0.000346765              -0.000807641               0.999999984              -0.000272251              -0.000709707               0.999999984              -0.000253811              -0.000690634               0.999999984              -0.000253578              -0.000702446               0.999999984              -0.000259399              -0.000727797               0.999999984              -0.000266297              -0.000758913               0.999999984              -0.000271860              -0.000791826               0.999999984              -0.000274831              -0.000824274               0.999999984              -0.000274650              -0.000854372               0.999999984              -0.000270830              -0.000881283               0.999999984              -0.000263340              -0.000904923               0.999999984              -0.000252520              -0.000926025               0.999999984              -0.000238980              -0.000945325               0.999999984              -0.000223279              -0.000963176               0.999999984              -0.000205793              -0.000979586               0.999999984              -0.000186757              -0.000994242               0.999999984              -0.000166962              -0.001007311               0.999999984              -0.000311478              -0.000883798               0.999999984              -0.000230127              -0.000799075               0.999999984              -0.000208665              -0.000775223               0.999999984              -0.000207058              -0.000781169               0.999999984              -0.000212217              -0.000801677               0.999999984              -0.000218966              -0.000829500               0.999999984              -0.000224939              -0.000860865               0.999999984              -0.000228637              -0.000892952               0.999999984              -0.000229477              -0.000924112               0.999999984              -0.000226985              -0.000952935               0.999999984              -0.000220650              -0.000978880               0.999999984              -0.000210460              -0.001002181               0.999999984              -0.000196935              -0.001023380               0.999999984              -0.000180938              -0.001043218               0.999999984              -0.000163181              -0.001061858               0.999999984              -0.000144064              -0.001079517               0.999999984              -0.000124386              -0.001095836               0.999999984              -0.000272812              -0.000952673               0.999999984              -0.000190845              -0.000884833               0.999999984              -0.000166392              -0.000861359               0.999999984              -0.000162698              -0.000863369               0.999999984              -0.000166569              -0.000879936               0.999999984              -0.000172603              -0.000904751               0.999999984              -0.000178410              -0.000934386               0.999999984              -0.000182534              -0.000965937               0.999999984              -0.000184218              -0.000997565               0.999999984              -0.000182798              -0.001028095               0.999999984              -0.000177704              -0.001056534               0.999999984              -0.000168529              -0.001082484               0.999999984              -0.000155488              -0.001105961               0.999999984              -0.000139126              -0.001127602               0.999999984              -0.000120257              -0.001147961               0.999999984              -0.000099621              -0.001167629               0.999999984              -0.000077891              -0.001186626               0.999999984              -0.000231513              -0.001012841               0.999999984              -0.000154224              -0.000964638               0.999999984              -0.000128190              -0.000945237               0.999999984              -0.000122264              -0.000946056               0.999999984              -0.000124299              -0.000960152               0.999999984              -0.000129158              -0.000982791               0.999999984              -0.000134247              -0.001010873               0.999999984              -0.000138236              -0.001041873               0.999999984              -0.000140384              -0.001074020               0.999999984              -0.000139721              -0.001105846               0.999999984              -0.000135782              -0.001136637               0.999999984              -0.000127921              -0.001165599               0.999999984              -0.000115855              -0.001192316               0.999999984              -0.000099741              -0.001216782               0.999999984              -0.000079933              -0.001239496               0.999999984              -0.000056870              -0.001261120               0.999999984              -0.000031253              -0.001282168               0.999999984              -0.000187998              -0.001063284               0.999999984              -0.000120165              -0.001035349               0.999999984              -0.000094703              -0.001022767               0.999999984              -0.000087133              -0.001024873               0.999999984              -0.000087304              -0.001038231               0.999999984              -0.000090559              -0.001059832               0.999999984              -0.000094477              -0.001087188               0.999999984              -0.000097860              -0.001117902               0.999999984              -0.000099950              -0.001150630               0.999999984              -0.000099805              -0.001183978               0.999999984              -0.000096675              -0.001216987               0.999999984              -0.000090044              -0.001249025               0.999999984              -0.000079655              -0.001279467               0.999999984              -0.000064976              -0.001307851               0.999999984              -0.000045459              -0.001334260               0.999999984              -0.000020961              -0.001359004               0.999999984               0.000008347              -0.001382663               0.999999984              -0.000142633              -0.001103341               0.999999984              -0.000088269              -0.001093941               0.999999984              -0.000065968              -0.001089484               0.999999984              -0.000058033              -0.001094660               0.999999984              -0.000056792              -0.001108790               0.999999984              -0.000058418              -0.001130434               0.999999984              -0.000061034              -0.001157698               0.999999984              -0.000063524              -0.001188751               0.999999984              -0.000065207              -0.001222200               0.999999984              -0.000065276              -0.001256968               0.999999984              -0.000062829              -0.001292323               0.999999984              -0.000057573              -0.001327304               0.999999984              -0.000049300              -0.001361388               0.999999984              -0.000037117              -0.001394126               0.999999984              -0.000019875              -0.001425160               0.999999984               0.000003194              -0.001454338               0.999999984               0.000032797              -0.001481810               0.999999984              -0.000095872              -0.001132371               0.999999984              -0.000058007              -0.001137799               0.999999984              -0.000041418              -0.001140952               0.999999984              -0.000034809              -0.001149789               0.999999984              -0.000033043              -0.001165563               0.999999984              -0.000033511              -0.001187944               0.999999984              -0.000034999              -0.001215597               0.999999984              -0.000036592              -0.001247079               0.999999984              -0.000037693              -0.001281378               0.999999984              -0.000037613              -0.001317489               0.999999984              -0.000035964              -0.001354708               0.999999984              -0.000032432              -0.001392273               0.999999984              -0.000026611              -0.001429630               0.999999984              -0.000017770              -0.001466270               0.999999984              -0.000004909              -0.001501737               0.999999984               0.000013196              -0.001535574               0.999999984               0.000037737              -0.001567432               0.999999984              -0.000048191              -0.001149895               0.999999984              -0.000028762              -0.001164899               0.999999984              -0.000019895              -0.001173549               0.999999984              -0.000016139              -0.001185343               0.999999984              -0.000014913              -0.001202643               0.999999984              -0.000014879              -0.001225782               0.999999984              -0.000015525              -0.001253895               0.999999984              -0.000016302              -0.001285875               0.999999984              -0.000016822              -0.001320779               0.999999984              -0.000016728              -0.001357794               0.999999984              -0.000015885              -0.001396327               0.999999984              -0.000014117              -0.001435676               0.999999984              -0.000011143              -0.001475384               0.999999984              -0.000006486              -0.001514856               0.999999984               0.000000483              -0.001553561               0.999999984               0.000010568              -0.001590854               0.999999984               0.000024498              -0.001626116               0.999999984              -0.000000000              -0.001155828               0.999999984              -0.000000000              -0.001174079               0.999999984              -0.000000000              -0.001184598               0.999999984              -0.000000000              -0.001197558               0.999999984               0.000000000              -0.001215549               0.999999984               0.000000000              -0.001239035               0.999999984              -0.000000000              -0.001267358               0.999999984              -0.000000000              -0.001299487               0.999999984              -0.000000000              -0.001334633               0.999999984               0.000000000              -0.001371953               0.999999984               0.000000000              -0.001410930               0.999999984              -0.000000000              -0.001450919               0.999999984               0.000000000              -0.001491469               0.999999984               0.000000000              -0.001532015               0.999999984               0.000000000              -0.001571957               0.999999984              -0.000000000              -0.001610543               0.999999984               0.000000000              -0.001647048               0.999999984               0.000511415               0.000000000               0.999999984               0.000555572               0.000000000               0.999999984               0.000575550               0.000000000               0.999999984               0.000587175               0.000000000               0.999999984               0.000596343               0.000000000               0.999999984               0.000605457               0.000000000               0.999999984               0.000615493               0.000000000               0.999999984               0.000626631               0.000000000               0.999999984               0.000638816               0.000000000               0.999999984               0.000652011              -0.000000000               0.999999984               0.000665994              -0.000000000               0.999999984               0.000680540               0.000000000               0.999999984               0.000695428               0.000000000               0.999999984               0.000710354               0.000000000               0.999999984               0.000725117               0.000000000               0.999999984               0.000739293              -0.000000000               0.999999984               0.000752310              -0.000000000               0.999999984               0.000508478              -0.000112786               0.999999984               0.000549613              -0.000093558               0.999999984               0.000567748              -0.000085779               0.999999984               0.000578231              -0.000083854               0.999999984               0.000586714              -0.000084986               0.999999984               0.000595414              -0.000087964               0.999999984               0.000605037              -0.000091697               0.999999984               0.000615769              -0.000095805               0.999999984               0.000627539              -0.000100035               0.999999984               0.000640194              -0.000103950               0.999999984               0.000653479              -0.000107325               0.999999984               0.000667105              -0.000109920               0.999999984               0.000680828              -0.000111526               0.999999984               0.000694489              -0.000111979               0.999999984               0.000707872              -0.000110799               0.999999984               0.000720619              -0.000107199               0.999999984               0.000732338              -0.000100266               0.999999984               0.000499926              -0.000224416               0.999999984               0.000532271              -0.000186432               0.999999984               0.000545148              -0.000171903               0.999999984               0.000552597              -0.000168839               0.999999984               0.000559276              -0.000171757               0.999999984               0.000566763              -0.000177925               0.999999984               0.000575422              -0.000185660               0.999999984               0.000585150              -0.000194082               0.999999984               0.000595714              -0.000202429               0.999999984               0.000606861              -0.000210154               0.999999984               0.000618227              -0.000216800               0.999999984               0.000629637              -0.000222089               0.999999984               0.000640857              -0.000225681               0.999999984               0.000651667              -0.000227072               0.999999984               0.000661842              -0.000225583               0.999999984               0.000671144              -0.000220214               0.999999984               0.000679594              -0.000210155               0.999999984               0.000485824              -0.000333807               0.999999984               0.000504338              -0.000278112               0.999999984               0.000509709              -0.000258518               0.999999984               0.000513118              -0.000255709               0.999999984               0.000517606              -0.000261296               0.999999984               0.000523727              -0.000271238               0.999999984               0.000531200              -0.000283181               0.999999984               0.000539592              -0.000295900               0.999999984               0.000548521              -0.000308454               0.999999984               0.000557619              -0.000319905               0.999999984               0.000566577              -0.000329814               0.999999984               0.000575024              -0.000337808               0.999999984               0.000582742              -0.000343597               0.999999984               0.000589577              -0.000346716               0.999999984               0.000595521              -0.000346596               0.999999984               0.000600705              -0.000342480               0.999999984               0.000605336              -0.000334192               0.999999984               0.000466429              -0.000439808               0.999999984               0.000467307              -0.000368303               0.999999984               0.000464359              -0.000345668               0.999999984               0.000463867              -0.000344595               0.999999984               0.000466570              -0.000353774               0.999999984               0.000471678              -0.000367906               0.999999984               0.000478207              -0.000384217               0.999999984               0.000485447              -0.000401094               0.999999984               0.000492792              -0.000417570               0.999999984               0.000499682              -0.000432559               0.999999984               0.000505816              -0.000445650               0.999999984               0.000510981              -0.000456598               0.999999984               0.000514996              -0.000465175               0.999999984               0.000517881              -0.000471057               0.999999984               0.000519811              -0.000474056               0.999999984               0.000521046              -0.000474174               0.999999984               0.000522001              -0.000471500               0.999999984               0.000442229              -0.000541287               0.999999984               0.000423256              -0.000456757               0.999999984               0.000412605              -0.000433133               0.999999984               0.000409470              -0.000434941               0.999999984               0.000411372              -0.000448285               0.999999984               0.000416163              -0.000466842               0.999999984               0.000422271              -0.000487391               0.999999984               0.000428542              -0.000508348               0.999999984               0.000434214              -0.000528485               0.999999984               0.000438945              -0.000546906               0.999999984               0.000442418              -0.000563237               0.999999984               0.000444431              -0.000577337               0.999999984               0.000444971              -0.000588895               0.999999984               0.000444184              -0.000598088               0.999999984               0.000442361              -0.000605259               0.999999984               0.000439822              -0.000610397               0.999999984               0.000436637              -0.000613659               0.999999984               0.000413658              -0.000637203               0.999999984               0.000374451              -0.000543328               0.999999984               0.000358178              -0.000520328               0.999999984               0.000354245              -0.000525609               0.999999984               0.000356553              -0.000543186               0.999999984               0.000361753              -0.000566249               0.999999984               0.000367648              -0.000590991               0.999999984               0.000372982              -0.000615825               0.999999984               0.000377163              -0.000639522               0.999999984               0.000379673              -0.000661345               0.999999984               0.000380188              -0.000680784               0.999999984               0.000378790              -0.000697694               0.999999984               0.000375592              -0.000712154               0.999999984               0.000370931              -0.000724699               0.999999984               0.000364939              -0.000735665               0.999999984               0.000357688              -0.000744986               0.999999984               0.000349075              -0.000752209               0.999999984               0.000381418              -0.000726481               0.999999984               0.000323506              -0.000627672               0.999999984               0.000304308              -0.000606515               0.999999984               0.000301547              -0.000615260               0.999999984               0.000305346              -0.000636853               0.999999984               0.000311329              -0.000664109               0.999999984               0.000317108              -0.000692900               0.999999984               0.000321542              -0.000721614               0.999999984               0.000323782              -0.000748961               0.999999984               0.000323514              -0.000773659               0.999999984               0.000320664              -0.000795438               0.999999984               0.000315238              -0.000814566               0.999999984               0.000307560              -0.000831512               0.999999984               0.000297870              -0.000846983               0.999999984               0.000286336              -0.000861077               0.999999984               0.000273085              -0.000873452               0.999999984               0.000258217              -0.000883506               0.999999984               0.000346765              -0.000807641               0.999999984               0.000272251              -0.000709707               0.999999984               0.000253811              -0.000690634               0.999999984               0.000253578              -0.000702446               0.999999984               0.000259399              -0.000727797               0.999999984               0.000266297              -0.000758913               0.999999984               0.000271860              -0.000791826               0.999999984               0.000274831              -0.000824274               0.999999984               0.000274650              -0.000854372               0.999999984               0.000270830              -0.000881283               0.999999984               0.000263340              -0.000904923               0.999999984               0.000252520              -0.000926025               0.999999984               0.000238980              -0.000945325               0.999999984               0.000223279              -0.000963176               0.999999984               0.000205793              -0.000979586               0.999999984               0.000186757              -0.000994242               0.999999984               0.000166962              -0.001007311               0.999999984               0.000311478              -0.000883798               0.999999984               0.000230127              -0.000799075               0.999999984               0.000208665              -0.000775223               0.999999984               0.000207058              -0.000781169               0.999999984               0.000212217              -0.000801677               0.999999984               0.000218966              -0.000829500               0.999999984               0.000224939              -0.000860865               0.999999984               0.000228637              -0.000892952               0.999999984               0.000229477              -0.000924112               0.999999984               0.000226985              -0.000952935               0.999999984               0.000220650              -0.000978880               0.999999984               0.000210460              -0.001002181               0.999999984               0.000196935              -0.001023380               0.999999984               0.000180938              -0.001043218               0.999999984               0.000163181              -0.001061858               0.999999984               0.000144064              -0.001079517               0.999999984               0.000124386              -0.001095836               0.999999984               0.000272812              -0.000952673               0.999999984               0.000190845              -0.000884833               0.999999984               0.000166392              -0.000861359               0.999999984               0.000162698              -0.000863369               0.999999984               0.000166569              -0.000879936               0.999999984               0.000172603              -0.000904751               0.999999984               0.000178410              -0.000934386               0.999999984               0.000182534              -0.000965937               0.999999984               0.000184218              -0.000997565               0.999999984               0.000182798              -0.001028095               0.999999984               0.000177704              -0.001056534               0.999999984               0.000168529              -0.001082484               0.999999984               0.000155488              -0.001105961               0.999999984               0.000139126              -0.001127602               0.999999984               0.000120257              -0.001147961               0.999999984               0.000099621              -0.001167629               0.999999984               0.000077891              -0.001186626               0.999999984               0.000231513              -0.001012841               0.999999984               0.000154224              -0.000964638               0.999999984               0.000128190              -0.000945237               0.999999984               0.000122264              -0.000946056               0.999999984               0.000124299              -0.000960152               0.999999984               0.000129158              -0.000982791               0.999999984               0.000134247              -0.001010873               0.999999984               0.000138236              -0.001041873               0.999999984               0.000140384              -0.001074020               0.999999984               0.000139721              -0.001105846               0.999999984               0.000135782              -0.001136637               0.999999984               0.000127921              -0.001165599               0.999999984               0.000115855              -0.001192316               0.999999984               0.000099741              -0.001216782               0.999999984               0.000079933              -0.001239496               0.999999984               0.000056870              -0.001261120               0.999999984               0.000031253              -0.001282168               0.999999984               0.000187998              -0.001063284               0.999999984               0.000120165              -0.001035349               0.999999984               0.000094703              -0.001022767               0.999999984               0.000087133              -0.001024873               0.999999984               0.000087304              -0.001038231               0.999999984               0.000090559              -0.001059832               0.999999984               0.000094477              -0.001087188               0.999999984               0.000097860              -0.001117902               0.999999984               0.000099950              -0.001150630               0.999999984               0.000099805              -0.001183978               0.999999984               0.000096675              -0.001216987               0.999999984               0.000090044              -0.001249025               0.999999984               0.000079655              -0.001279467               0.999999984               0.000064976              -0.001307851               0.999999984               0.000045459              -0.001334260               0.999999984               0.000020961              -0.001359004               0.999999984              -0.000008347              -0.001382663               0.999999984               0.000142633              -0.001103341               0.999999984               0.000088269              -0.001093941               0.999999984               0.000065968              -0.001089484               0.999999984               0.000058033              -0.001094660               0.999999984               0.000056792              -0.001108790               0.999999984               0.000058418              -0.001130434               0.999999984               0.000061034              -0.001157698               0.999999984               0.000063524              -0.001188751               0.999999984               0.000065207              -0.001222200               0.999999984               0.000065276              -0.001256968               0.999999984               0.000062829              -0.001292323               0.999999984               0.000057573              -0.001327304               0.999999984               0.000049300              -0.001361388               0.999999984               0.000037117              -0.001394126               0.999999984               0.000019875              -0.001425160               0.999999984              -0.000003194              -0.001454338               0.999999984              -0.000032797              -0.001481810               0.999999984               0.000095872              -0.001132371               0.999999984               0.000058007              -0.001137799               0.999999984               0.000041418              -0.001140952               0.999999984               0.000034809              -0.001149789               0.999999984               0.000033043              -0.001165563               0.999999984               0.000033511              -0.001187944               0.999999984               0.000034999              -0.001215597               0.999999984               0.000036592              -0.001247079               0.999999984               0.000037693              -0.001281378               0.999999984               0.000037613              -0.001317489               0.999999984               0.000035964              -0.001354708               0.999999984               0.000032432              -0.001392273               0.999999984               0.000026611              -0.001429630               0.999999984               0.000017770              -0.001466270               0.999999984               0.000004909              -0.001501737               0.999999984              -0.000013196              -0.001535574               0.999999984              -0.000037737              -0.001567432               0.999999984               0.000048191              -0.001149895               0.999999984               0.000028762              -0.001164899               0.999999984               0.000019895              -0.001173549               0.999999984               0.000016139              -0.001185343               0.999999984               0.000014913              -0.001202643               0.999999984               0.000014879              -0.001225782               0.999999984               0.000015525              -0.001253895               0.999999984               0.000016302              -0.001285875               0.999999984               0.000016822              -0.001320779               0.999999984               0.000016728              -0.001357794               0.999999984               0.000015885              -0.001396327               0.999999984               0.000014117              -0.001435676               0.999999984               0.000011143              -0.001475384               0.999999984               0.000006486              -0.001514856               0.999999984              -0.000000483              -0.001553561               0.999999984              -0.000010568              -0.001590854               0.999999984              -0.000024498              -0.001626116               0.999999984              -0.000000000              -0.001155828               0.999999984              -0.000000000              -0.001174079               0.999999984              -0.000000000              -0.001184598               0.999999984              -0.000000000              -0.001197558               0.999999984               0.000000000              -0.001215549               0.999999984               0.000000000              -0.001239035               0.999999984              -0.000000000              -0.001267358               0.999999984              -0.000000000              -0.001299487               0.999999984              -0.000000000              -0.001334633               0.999999984               0.000000000              -0.001371953               0.999999984               0.000000000              -0.001410930               0.999999984              -0.000000000              -0.001450919               0.999999984               0.000000000              -0.001491469               0.999999984               0.000000000              -0.001532015               0.999999984               0.000000000              -0.001571957               0.999999984              -0.000000000              -0.001610543               0.999999984               0.000000000              -0.001647048               0.999999984               0.000511415               0.000000000               0.999999984               0.000555572               0.000000000               0.999999984               0.000575550               0.000000000               0.999999984               0.000587175               0.000000000               0.999999984               0.000596343               0.000000000               0.999999984               0.000605457               0.000000000               0.999999984               0.000615493               0.000000000               0.999999984               0.000626631               0.000000000               0.999999984               0.000638816               0.000000000               0.999999984               0.000652011              -0.000000000               0.999999984               0.000665994              -0.000000000               0.999999984               0.000680540               0.000000000               0.999999984               0.000695428               0.000000000               0.999999984               0.000710354               0.000000000               0.999999984               0.000725117               0.000000000               0.999999984               0.000739293              -0.000000000               0.999999984               0.000752310              -0.000000000               0.999999984               0.000508478               0.000112786               0.999999984               0.000549613               0.000093558               0.999999984               0.000567748               0.000085779               0.999999984               0.000578231               0.000083854               0.999999984               0.000586714               0.000084986               0.999999984               0.000595414               0.000087964               0.999999984               0.000605037               0.000091697               0.999999984               0.000615769               0.000095805               0.999999984               0.000627539               0.000100035               0.999999984               0.000640194               0.000103950               0.999999984               0.000653479               0.000107325               0.999999984               0.000667105               0.000109920               0.999999984               0.000680828               0.000111526               0.999999984               0.000694489               0.000111979               0.999999984               0.000707872               0.000110799               0.999999984               0.000720619               0.000107199               0.999999984               0.000732338               0.000100266               0.999999984               0.000499926               0.000224416               0.999999984               0.000532271               0.000186432               0.999999984               0.000545148               0.000171903               0.999999984               0.000552597               0.000168839               0.999999984               0.000559276               0.000171757               0.999999984               0.000566763               0.000177925               0.999999984               0.000575422               0.000185660               0.999999984               0.000585150               0.000194082               0.999999984               0.000595714               0.000202429               0.999999984               0.000606861               0.000210154               0.999999984               0.000618227               0.000216800               0.999999984               0.000629637               0.000222089               0.999999984               0.000640857               0.000225681               0.999999984               0.000651667               0.000227072               0.999999984               0.000661842               0.000225583               0.999999984               0.000671144               0.000220214               0.999999984               0.000679594               0.000210155               0.999999984               0.000485824               0.000333807               0.999999984               0.000504338               0.000278112               0.999999984               0.000509709               0.000258518               0.999999984               0.000513118               0.000255709               0.999999984               0.000517606               0.000261296               0.999999984               0.000523727               0.000271238               0.999999984               0.000531200               0.000283181               0.999999984               0.000539592               0.000295900               0.999999984               0.000548521               0.000308454               0.999999984               0.000557619               0.000319905               0.999999984               0.000566577               0.000329814               0.999999984               0.000575024               0.000337808               0.999999984               0.000582742               0.000343597               0.999999984               0.000589577               0.000346716               0.999999984               0.000595521               0.000346596               0.999999984               0.000600705               0.000342480               0.999999984               0.000605336               0.000334192               0.999999984               0.000466429               0.000439808               0.999999984               0.000467307               0.000368303               0.999999984               0.000464359               0.000345668               0.999999984               0.000463867               0.000344595               0.999999984               0.000466570               0.000353774               0.999999984               0.000471678               0.000367906               0.999999984               0.000478207               0.000384217               0.999999984               0.000485447               0.000401094               0.999999984               0.000492792               0.000417570               0.999999984               0.000499682               0.000432559               0.999999984               0.000505816               0.000445650               0.999999984               0.000510981               0.000456598               0.999999984               0.000514996               0.000465175               0.999999984               0.000517881               0.000471057               0.999999984               0.000519811               0.000474056               0.999999984               0.000521046               0.000474174               0.999999984               0.000522001               0.000471500               0.999999984               0.000442229               0.000541287               0.999999984               0.000423256               0.000456757               0.999999984               0.000412605               0.000433133               0.999999984               0.000409470               0.000434941               0.999999984               0.000411372               0.000448285               0.999999984               0.000416163               0.000466842               0.999999984               0.000422271               0.000487391               0.999999984               0.000428542               0.000508348               0.999999984               0.000434214               0.000528485               0.999999984               0.000438945               0.000546906               0.999999984               0.000442418               0.000563237               0.999999984               0.000444431               0.000577337               0.999999984               0.000444971               0.000588895               0.999999984               0.000444184               0.000598088               0.999999984               0.000442361               0.000605259               0.999999984               0.000439822               0.000610397               0.999999984               0.000436637               0.000613659               0.999999984               0.000413658               0.000637203               0.999999984               0.000374451               0.000543328               0.999999984               0.000358178               0.000520328               0.999999984               0.000354245               0.000525609               0.999999984               0.000356553               0.000543186               0.999999984               0.000361753               0.000566249               0.999999984               0.000367648               0.000590991               0.999999984               0.000372982               0.000615825               0.999999984               0.000377163               0.000639522               0.999999984               0.000379673               0.000661345               0.999999984               0.000380188               0.000680784               0.999999984               0.000378790               0.000697694               0.999999984               0.000375592               0.000712154               0.999999984               0.000370931               0.000724699               0.999999984               0.000364939               0.000735665               0.999999984               0.000357688               0.000744986               0.999999984               0.000349075               0.000752209               0.999999984               0.000381418               0.000726481               0.999999984               0.000323506               0.000627672               0.999999984               0.000304308               0.000606515               0.999999984               0.000301547               0.000615260               0.999999984               0.000305346               0.000636853               0.999999984               0.000311329               0.000664109               0.999999984               0.000317108               0.000692900               0.999999984               0.000321542               0.000721614               0.999999984               0.000323782               0.000748961               0.999999984               0.000323514               0.000773659               0.999999984               0.000320664               0.000795438               0.999999984               0.000315238               0.000814566               0.999999984               0.000307560               0.000831512               0.999999984               0.000297870               0.000846983               0.999999984               0.000286336               0.000861077               0.999999984               0.000273085               0.000873452               0.999999984               0.000258217               0.000883506               0.999999984               0.000346765               0.000807641               0.999999984               0.000272251               0.000709707               0.999999984               0.000253811               0.000690634               0.999999984               0.000253578               0.000702446               0.999999984               0.000259399               0.000727797               0.999999984               0.000266297               0.000758913               0.999999984               0.000271860               0.000791826               0.999999984               0.000274831               0.000824274               0.999999984               0.000274650               0.000854372               0.999999984               0.000270830               0.000881283               0.999999984               0.000263340               0.000904923               0.999999984               0.000252520               0.000926025               0.999999984               0.000238980               0.000945325               0.999999984               0.000223279               0.000963176               0.999999984               0.000205793               0.000979586               0.999999984               0.000186757               0.000994242               0.999999984               0.000166962               0.001007311               0.999999984               0.000311478               0.000883798               0.999999984               0.000230127               0.000799075               0.999999984               0.000208665               0.000775223               0.999999984               0.000207058               0.000781169               0.999999984               0.000212217               0.000801677               0.999999984               0.000218966               0.000829500               0.999999984               0.000224939               0.000860865               0.999999984               0.000228637               0.000892952               0.999999984               0.000229477               0.000924112               0.999999984               0.000226985               0.000952935               0.999999984               0.000220650               0.000978880               0.999999984               0.000210460               0.001002181               0.999999984               0.000196935               0.001023380               0.999999984               0.000180938               0.001043218               0.999999984               0.000163181               0.001061858               0.999999984               0.000144064               0.001079517               0.999999984               0.000124386               0.001095836               0.999999984               0.000272812               0.000952673               0.999999984               0.000190845               0.000884833               0.999999984               0.000166392               0.000861359               0.999999984               0.000162698               0.000863369               0.999999984               0.000166569               0.000879936               0.999999984               0.000172603               0.000904751               0.999999984               0.000178410               0.000934386               0.999999984               0.000182534               0.000965937               0.999999984               0.000184218               0.000997565               0.999999984               0.000182798               0.001028095               0.999999984               0.000177704               0.001056534               0.999999984               0.000168529               0.001082484               0.999999984               0.000155488               0.001105961               0.999999984               0.000139126               0.001127602               0.999999984               0.000120257               0.001147961               0.999999984               0.000099621               0.001167629               0.999999984               0.000077891               0.001186626               0.999999984               0.000231513               0.001012841               0.999999984               0.000154224               0.000964638               0.999999984               0.000128190               0.000945237               0.999999984               0.000122264               0.000946056               0.999999984               0.000124299               0.000960152               0.999999984               0.000129158               0.000982791               0.999999984               0.000134247               0.001010873               0.999999984               0.000138236               0.001041873               0.999999984               0.000140384               0.001074020               0.999999984               0.000139721               0.001105846               0.999999984               0.000135782               0.001136637               0.999999984               0.000127921               0.001165599               0.999999984               0.000115855               0.001192316               0.999999984               0.000099741               0.001216782               0.999999984               0.000079933               0.001239496               0.999999984               0.000056870               0.001261120               0.999999984               0.000031253               0.001282168               0.999999984               0.000187998               0.001063284               0.999999984               0.000120165               0.001035349               0.999999984               0.000094703               0.001022767               0.999999984               0.000087133               0.001024873               0.999999984               0.000087304               0.001038231               0.999999984               0.000090559               0.001059832               0.999999984               0.000094477               0.001087188               0.999999984               0.000097860               0.001117902               0.999999984               0.000099950               0.001150630               0.999999984               0.000099805               0.001183978               0.999999984               0.000096675               0.001216987               0.999999984               0.000090044               0.001249025               0.999999984               0.000079655               0.001279467               0.999999984               0.000064976               0.001307851               0.999999984               0.000045459               0.001334260               0.999999984               0.000020961               0.001359004               0.999999984              -0.000008347               0.001382663               0.999999984               0.000142633               0.001103341               0.999999984               0.000088269               0.001093941               0.999999984               0.000065968               0.001089484               0.999999984               0.000058033               0.001094660               0.999999984               0.000056792               0.001108790               0.999999984               0.000058418               0.001130434               0.999999984               0.000061034               0.001157698               0.999999984               0.000063524               0.001188751               0.999999984               0.000065207               0.001222200               0.999999984               0.000065276               0.001256968               0.999999984               0.000062829               0.001292323               0.999999984               0.000057573               0.001327304               0.999999984               0.000049300               0.001361388               0.999999984               0.000037117               0.001394126               0.999999984               0.000019875               0.001425160               0.999999984              -0.000003194               0.001454338               0.999999984              -0.000032797               0.001481810               0.999999984               0.000095872               0.001132371               0.999999984               0.000058007               0.001137799               0.999999984               0.000041418               0.001140952               0.999999984               0.000034809               0.001149789               0.999999984               0.000033043               0.001165563               0.999999984               0.000033511               0.001187944               0.999999984               0.000034999               0.001215597               0.999999984               0.000036592               0.001247079               0.999999984               0.000037693               0.001281378               0.999999984               0.000037613               0.001317489               0.999999984               0.000035964               0.001354708               0.999999984               0.000032432               0.001392273               0.999999984               0.000026611               0.001429630               0.999999984               0.000017770               0.001466270               0.999999984               0.000004909               0.001501737               0.999999984              -0.000013196               0.001535574               0.999999984              -0.000037737               0.001567432               0.999999984               0.000048191               0.001149895               0.999999984               0.000028762               0.001164899               0.999999984               0.000019895               0.001173549               0.999999984               0.000016139               0.001185343               0.999999984               0.000014913               0.001202643               0.999999984               0.000014879               0.001225782               0.999999984               0.000015525               0.001253895               0.999999984               0.000016302               0.001285875               0.999999984               0.000016822               0.001320779               0.999999984               0.000016728               0.001357794               0.999999984               0.000015885               0.001396327               0.999999984               0.000014117               0.001435676               0.999999984               0.000011143               0.001475384               0.999999984               0.000006486               0.001514856               0.999999984              -0.000000483               0.001553561               0.999999984              -0.000010568               0.001590854               0.999999984              -0.000024498               0.001626116               0.999999984               0.000000000               0.001155828               0.999999984              -0.000000000               0.001174079               0.999999984              -0.000000000               0.001184598               0.999999984              -0.000000000               0.001197558               0.999999984              -0.000000000               0.001215549               0.999999984              -0.000000000               0.001239035               0.999999984               0.000000000               0.001267358               0.999999984               0.000000000               0.001299487               0.999999984              -0.000000000               0.001334633               0.999999984              -0.000000000               0.001371953               0.999999984               0.000000000               0.001410930               0.999999984               0.000000000               0.001450919               0.999999984               0.000000000               0.001491469               0.999999984              -0.000000000               0.001532015               0.999999984              -0.000000000               0.001571957               0.999999984               0.000000000               0.001610543               0.999999984               0.000000000               0.001647048               0.999999984 </DataArray>
<DataArray type="Float64"                                    Name="stress"                                                      NumberOfComponents="10" format="ascii">
              0.001868202               0.020715613               0.000000000              -0.001888871               0.007534759               0.005645888               0.000000000               0.000000000               0.000000000               0.000000000               0.001874427               0.016363999               0.000000000              -0.001342586               0.005902141               0.004559554               0.000000000               0.000000000               0.000000000               0.000000000               0.002482794               0.012843611               0.000000000              -0.000674402               0.004505962               0.003831560               0.000000000               0.000000000               0.000000000               0.000000000               0.002412945               0.010876920              -0.000000000              -0.000454759               0.003777190               0.003322431               0.000000000               0.000000000               0.000000000               0.000000000               0.002134636               0.009659442               0.000000000              -0.000406941               0.003355429               0.002948488               0.000000000               0.000000000               0.000000000               0.000000000               0.001807806               0.008843098               0.000000000              -0.000427459               0.003090156               0.002662697               0.000000000               0.000000000               0.000000000               0.000000000               0.001492081               0.008241977               0.000000000              -0.000470715               0.002904203               0.002433488               0.000000000               0.000000000               0.000000000               0.000000000               0.001212835               0.007771628               0.000000000              -0.000516639               0.002762730               0.002246091               0.000000000               0.000000000               0.000000000               0.000000000               0.000967445               0.007380605              -0.000000000              -0.000559782               0.002646771               0.002086989               0.000000000               0.000000000               0.000000000               0.000000000               0.000752461               0.007028101              -0.000000000              -0.000596338               0.002541456               0.001945118               0.000000000               0.000000000               0.000000000               0.000000000               0.000570548               0.006693175              -0.000000000              -0.000622690               0.002438599               0.001815910               0.000000000               0.000000000               0.000000000               0.000000000               0.000415896               0.006359446              -0.000000000              -0.000638968               0.002332784               0.001693815               0.000000000               0.000000000               0.000000000               0.000000000               0.000285844               0.006016552               0.000000000              -0.000644876               0.002220456               0.001575580               0.000000000               0.000000000               0.000000000               0.000000000               0.000176051               0.005654792              -0.000000000              -0.000640828               0.002098521               0.001457693               0.000000000               0.000000000               0.000000000               0.000000000               0.000089505               0.005256763              -0.000000000              -0.000623530               0.001960080               0.001336550               0.000000000               0.000000000               0.000000000               0.000000000               0.000036168               0.004798737               0.000000000              -0.000586278               0.001794989               0.001208711               0.000000000               0.000000000               0.000000000               0.000000000              -0.000019064               0.004443582              -0.000000000              -0.000562595               0.001668711               0.001106116               0.000000000               0.000000000               0.000000000               0.000000000               0.001944210               0.020301121              -0.001428328              -0.001808557               0.007369825               0.005561268               0.000000000               0.000000000               0.000000000               0.000000000               0.001848174               0.016093088              -0.000743183              -0.001318568               0.005803831               0.004485264               0.000000000               0.000000000               0.000000000               0.000000000               0.002349516               0.012729571              -0.000060614              -0.000710126               0.004479856               0.003769730               0.000000000               0.000000000               0.000000000               0.000000000               0.002237783               0.010843435               0.000227654              -0.000516260               0.003786529               0.003270269               0.000000000               0.000000000               0.000000000               0.000000000               0.001948295               0.009667571               0.000348344              -0.000477835               0.003381770               0.002903935               0.000000000               0.000000000               0.000000000               0.000000000               0.001627798               0.008867346               0.000391188              -0.000497993               0.003121750               0.002623757               0.000000000               0.000000000               0.000000000               0.000000000               0.001329204               0.008277732               0.000397760              -0.000536264               0.002937971               0.002401707               0.000000000               0.000000000               0.000000000               0.000000000               0.001066863               0.007812924               0.000391650              -0.000576541               0.002796462               0.002219922               0.000000000               0.000000000               0.000000000               0.000000000               0.000838496               0.007418642               0.000376681              -0.000612893               0.002677154               0.002064261               0.000000000               0.000000000               0.000000000               0.000000000               0.000643609               0.007063203               0.000356417              -0.000641546               0.002568226               0.001926680               0.000000000               0.000000000               0.000000000               0.000000000               0.000482401               0.006727804               0.000334925              -0.000660074               0.002462603               0.001802530               0.000000000               0.000000000               0.000000000               0.000000000               0.000349905               0.006400208               0.000311488              -0.000668810               0.002356318               0.001687508               0.000000000               0.000000000               0.000000000               0.000000000               0.000239107               0.006069047               0.000285374              -0.000668964               0.002245984               0.001577020               0.000000000               0.000000000               0.000000000               0.000000000               0.000145079               0.005721946               0.000250440              -0.000660837               0.002127575               0.001466738               0.000000000               0.000000000               0.000000000               0.000000000               0.000073518               0.005347783               0.000195563              -0.000640902               0.001996211               0.001355309               0.000000000               0.000000000               0.000000000               0.000000000               0.000028743               0.004933142               0.000112231              -0.000605863               0.001846318               0.001240456               0.000000000               0.000000000               0.000000000               0.000000000              -0.000018564               0.004624695               0.000068563              -0.000585047               0.001736565               0.001151518               0.000000000               0.000000000               0.000000000               0.000000000               0.002134594               0.019117726              -0.002667011              -0.001589240               0.006902258               0.005313018               0.000000000               0.000000000               0.000000000               0.000000000               0.001759345               0.015324863              -0.001388827              -0.001255851               0.005526854               0.004271003               0.000000000               0.000000000               0.000000000               0.000000000               0.001964779               0.012400333              -0.000128435              -0.000813247               0.004404485               0.003591238               0.000000000               0.000000000               0.000000000               0.000000000               0.001745181               0.010737094               0.000386590              -0.000687692               0.003808226               0.003120534               0.000000000               0.000000000               0.000000000               0.000000000               0.001438224               0.009673572               0.000594243              -0.000669861               0.003447779               0.002777918               0.000000000               0.000000000               0.000000000               0.000000000               0.001141781               0.008923992               0.000666218              -0.000687330               0.003203744               0.002516414               0.000000000               0.000000000               0.000000000               0.000000000               0.000887583               0.008358134               0.000677740              -0.000711921               0.003023324               0.002311403               0.000000000               0.000000000               0.000000000               0.000000000               0.000676909               0.007902407               0.000663486              -0.000733958               0.002878762               0.002144804               0.000000000               0.000000000               0.000000000               0.000000000               0.000501908               0.007508809               0.000633787              -0.000750384               0.002753039               0.002002655               0.000000000               0.000000000               0.000000000               0.000000000               0.000361258               0.007151343               0.000596091              -0.000758444               0.002636572               0.001878127               0.000000000               0.000000000               0.000000000               0.000000000               0.000250716               0.006817019               0.000555480              -0.000758107               0.002525019               0.001766912               0.000000000               0.000000000               0.000000000               0.000000000               0.000163172               0.006497554               0.000512567              -0.000751003               0.002416164               0.001665161               0.000000000               0.000000000               0.000000000               0.000000000               0.000096791               0.006187860               0.000462155              -0.000737184               0.002308328               0.001571143               0.000000000               0.000000000               0.000000000               0.000000000               0.000048418               0.005880989               0.000395733              -0.000716965               0.002199298               0.001482333               0.000000000               0.000000000               0.000000000               0.000000000               0.000020165               0.005576079               0.000299708              -0.000689446               0.002088490               0.001399043               0.000000000               0.000000000               0.000000000               0.000000000               0.000006113               0.005275459               0.000167127              -0.000657138               0.001977515               0.001320376               0.000000000               0.000000000               0.000000000               0.000000000              -0.000017045               0.005077152               0.000098526              -0.000641034               0.001906045               0.001265011               0.000000000               0.000000000               0.000000000               0.000000000               0.002338657               0.017315184              -0.003560967              -0.001287401               0.006200803               0.004913403               0.000000000               0.000000000               0.000000000               0.000000000               0.001574642               0.014172035              -0.001863970              -0.001181011               0.005117635               0.003936623               0.000000000               0.000000000               0.000000000               0.000000000               0.001369838               0.011898937              -0.000212011              -0.000973675               0.004290831               0.003317156               0.000000000               0.000000000               0.000000000               0.000000000               0.001025870               0.010550436               0.000429981              -0.000934101               0.003828144               0.002894043               0.000000000               0.000000000               0.000000000               0.000000000               0.000717110               0.009639619               0.000675530              -0.000936034               0.003525185               0.002589152               0.000000000               0.000000000               0.000000000               0.000000000               0.000475990               0.008963304               0.000755589              -0.000941915               0.003301709               0.002359795               0.000000000               0.000000000               0.000000000               0.000000000               0.000297609               0.008427336               0.000765969              -0.000941812               0.003123021               0.002181210               0.000000000               0.000000000               0.000000000               0.000000000               0.000165866               0.007977951               0.000746683              -0.000935042               0.002970971               0.002035929               0.000000000               0.000000000               0.000000000               0.000000000               0.000070324               0.007586024               0.000706923              -0.000921879               0.002835942               0.001914063               0.000000000               0.000000000               0.000000000               0.000000000               0.000001887               0.007228928               0.000657223              -0.000902906               0.002710587               0.001807681               0.000000000               0.000000000               0.000000000               0.000000000              -0.000039709               0.006901993               0.000605346              -0.000877638               0.002593187               0.001715549               0.000000000               0.000000000               0.000000000               0.000000000              -0.000057092               0.006602528               0.000551062              -0.000846724               0.002483062               0.001636338               0.000000000               0.000000000               0.000000000               0.000000000              -0.000057397               0.006328003               0.000488454              -0.000812522               0.002380154               0.001567632               0.000000000               0.000000000               0.000000000               0.000000000              -0.000047496               0.006078715               0.000407959              -0.000777649               0.002285434               0.001507786               0.000000000               0.000000000               0.000000000               0.000000000              -0.000033059               0.005862273               0.000298686              -0.000745180               0.002202465               0.001457285               0.000000000               0.000000000               0.000000000               0.000000000              -0.000017649               0.005693699               0.000160303              -0.000718329               0.002137324               0.001418995               0.000000000               0.000000000               0.000000000               0.000000000              -0.000014923               0.005608434               0.000088039              -0.000706649               0.002105009               0.001398360               0.000000000               0.000000000               0.000000000               0.000000000               0.002437861               0.015097384              -0.004041143              -0.000972976               0.005356735               0.004383760               0.000000000               0.000000000               0.000000000               0.000000000               0.001271922               0.012778649              -0.002151821              -0.001120359               0.004632960               0.003512601               0.000000000               0.000000000               0.000000000               0.000000000               0.000638582               0.011282988              -0.000333718              -0.001170902               0.004151259               0.002980357               0.000000000               0.000000000               0.000000000               0.000000000               0.000208721               0.010279025               0.000332735              -0.001206605               0.003828509               0.002621904               0.000000000               0.000000000               0.000000000               0.000000000              -0.000061725               0.009529267               0.000574460              -0.001214302               0.003581158               0.002366856               0.000000000               0.000000000               0.000000000               0.000000000              -0.000216361               0.008928725               0.000649791              -0.001197223               0.003375286               0.002178063               0.000000000               0.000000000               0.000000000               0.000000000              -0.000296151               0.008425366               0.000657729              -0.001164225               0.003196502               0.002032277               0.000000000               0.000000000               0.000000000               0.000000000              -0.000331136               0.007989441               0.000638540              -0.001122854               0.003037405               0.001914551               0.000000000               0.000000000               0.000000000               0.000000000              -0.000334497               0.007601428               0.000600877              -0.001075612               0.002892321               0.001816709               0.000000000               0.000000000               0.000000000               0.000000000              -0.000314281               0.007254619               0.000551186              -0.001024680               0.002759742               0.001735062               0.000000000               0.000000000               0.000000000               0.000000000              -0.000277195               0.006946356               0.000499910              -0.000972240               0.002639509               0.001667269               0.000000000               0.000000000               0.000000000               0.000000000              -0.000224333               0.006675644               0.000445050              -0.000918578               0.002531385               0.001612807               0.000000000               0.000000000               0.000000000               0.000000000              -0.000164626               0.006437770               0.000381856              -0.000866454               0.002434720               0.001568266               0.000000000               0.000000000               0.000000000               0.000000000              -0.000108036               0.006239278               0.000305916              -0.000820421               0.002353212               0.001532791               0.000000000               0.000000000               0.000000000               0.000000000              -0.000059420               0.006092386               0.000214244              -0.000783829               0.002292051               0.001508223               0.000000000               0.000000000               0.000000000               0.000000000              -0.000023979               0.006003226               0.000108814              -0.000759393               0.002254186               0.001494793               0.000000000               0.000000000               0.000000000               0.000000000              -0.000011388               0.005971280               0.000054721              -0.000750679               0.002240633               0.001489954               0.000000000               0.000000000               0.000000000               0.000000000               0.002329153               0.012692056              -0.004110553              -0.000713077               0.004468334               0.003755258               0.000000000               0.000000000               0.000000000               0.000000000               0.000847984               0.011289613              -0.002271422              -0.001093206               0.004127568               0.003034362               0.000000000               0.000000000               0.000000000               0.000000000              -0.000137028               0.010597682              -0.000514393              -0.001376092               0.003991223               0.002615130               0.000000000               0.000000000               0.000000000               0.000000000              -0.000575430               0.009917403               0.000099580              -0.001455458               0.003790921               0.002335463               0.000000000               0.000000000               0.000000000               0.000000000              -0.000756066               0.009314128               0.000319952              -0.001447787               0.003587274               0.002139487               0.000000000               0.000000000               0.000000000               0.000000000              -0.000799786               0.008790526               0.000390275              -0.001398732               0.003396390               0.001997658               0.000000000               0.000000000               0.000000000               0.000000000              -0.000769869               0.008327660               0.000405959              -0.001329655               0.003219077               0.001889422               0.000000000               0.000000000               0.000000000               0.000000000              -0.000700854               0.007917810               0.000399110              -0.001252543               0.003056758               0.001804215               0.000000000               0.000000000               0.000000000               0.000000000              -0.000614697               0.007548414               0.000373655              -0.001174060               0.002907466               0.001733406               0.000000000               0.000000000               0.000000000               0.000000000              -0.000517710               0.007221503               0.000336545              -0.001096826               0.002772752               0.001675926               0.000000000               0.000000000               0.000000000               0.000000000              -0.000415172               0.006931977               0.000297993              -0.001022184               0.002651364               0.001629180               0.000000000               0.000000000               0.000000000               0.000000000              -0.000313478               0.006675185               0.000255503              -0.000951950               0.002542356               0.001590406               0.000000000               0.000000000               0.000000000               0.000000000              -0.000220050               0.006453460               0.000209195              -0.000889199               0.002447532               0.001558332               0.000000000               0.000000000               0.000000000               0.000000000              -0.000139739               0.006277372               0.000162562              -0.000837072               0.002371460               0.001534389               0.000000000               0.000000000               0.000000000               0.000000000              -0.000078051               0.006148002               0.000110992              -0.000797768               0.002315236               0.001517468               0.000000000               0.000000000               0.000000000               0.000000000              -0.000032532               0.006056831               0.000054222              -0.000769301               0.002275357               0.001506056               0.000000000               0.000000000               0.000000000               0.000000000              -0.000022736               0.006005049               0.000031828              -0.000759155               0.002254715               0.001495560               0.000000000               0.000000000               0.000000000               0.000000000               0.001959835               0.010301300              -0.003834552              -0.000552727               0.003617974               0.003065247               0.000000000               0.000000000               0.000000000               0.000000000               0.000324285               0.009821882              -0.002268932              -0.001106127               0.003642636               0.002536509               0.000000000               0.000000000               0.000000000               0.000000000              -0.000867624               0.009878929              -0.000761534              -0.001560221               0.003813017               0.002252796               0.000000000               0.000000000               0.000000000               0.000000000              -0.001223166               0.009476421              -0.000235903              -0.001643236               0.003706521               0.002063285               0.000000000               0.000000000               0.000000000               0.000000000              -0.001270709               0.009000472              -0.000029102              -0.001601571               0.003533984               0.001932413               0.000000000               0.000000000               0.000000000               0.000000000              -0.001191178               0.008549000               0.000053809              -0.001515313               0.003354743               0.001839430               0.000000000               0.000000000               0.000000000               0.000000000              -0.001054454               0.008135412               0.000088986              -0.001412343               0.003182558               0.001770215               0.000000000               0.000000000               0.000000000               0.000000000              -0.000897830               0.007763007               0.000102680              -0.001307059               0.003023330               0.001716271               0.000000000               0.000000000               0.000000000               0.000000000              -0.000740206               0.007423175               0.000098407              -0.001205471               0.002876191               0.001670720               0.000000000               0.000000000               0.000000000               0.000000000              -0.000586934               0.007106556               0.000085968              -0.001108417               0.002738301               0.001629884               0.000000000               0.000000000               0.000000000               0.000000000              -0.000447705               0.006812134               0.000072436              -0.001019403               0.002610490               0.001591086               0.000000000               0.000000000               0.000000000               0.000000000              -0.000329995               0.006546500               0.000059600              -0.000942058               0.002496164               0.001554106               0.000000000               0.000000000               0.000000000               0.000000000              -0.000234823               0.006322012               0.000051132              -0.000878308               0.002400086               0.001521778               0.000000000               0.000000000               0.000000000               0.000000000              -0.000159303               0.006142280               0.000048827              -0.000827522               0.002323247               0.001495725               0.000000000               0.000000000               0.000000000               0.000000000              -0.000098719               0.005996439               0.000044248              -0.000786572               0.002260984               0.001474411               0.000000000               0.000000000               0.000000000               0.000000000              -0.000046996               0.005871646               0.000028583              -0.000751577               0.002207722               0.001456144               0.000000000               0.000000000               0.000000000               0.000000000              -0.000041790               0.005784518               0.000028886              -0.000738734               0.002174398               0.001435664               0.000000000               0.000000000               0.000000000               0.000000000               0.001358313               0.008082121              -0.003306521              -0.000500900               0.002860979               0.002360079               0.000000000               0.000000000               0.000000000               0.000000000              -0.000257582               0.008468942              -0.002188783              -0.001155210               0.003208022               0.002052812               0.000000000               0.000000000               0.000000000               0.000000000              -0.001475586               0.009151446              -0.001063948              -0.001697272               0.003616209               0.001918937               0.000000000               0.000000000               0.000000000               0.000000000              -0.001677129               0.008974443              -0.000621729              -0.001750725               0.003575026               0.001824301               0.000000000               0.000000000               0.000000000               0.000000000              -0.001573864               0.008615346              -0.000406999              -0.001667113               0.003427458               0.001760344               0.000000000               0.000000000               0.000000000               0.000000000              -0.001377343               0.008232330              -0.000291892              -0.001545541               0.003259263               0.001713722               0.000000000               0.000000000               0.000000000               0.000000000              -0.001151367               0.007875013              -0.000226290              -0.001416136               0.003097023               0.001680888               0.000000000               0.000000000               0.000000000               0.000000000              -0.000928130               0.007539198              -0.000182492              -0.001290445               0.002943189               0.001652744               0.000000000               0.000000000               0.000000000               0.000000000              -0.000724264               0.007205526              -0.000157385              -0.001172287               0.002792580               0.001620294               0.000000000               0.000000000               0.000000000               0.000000000              -0.000551763               0.006874959              -0.000140076              -0.001066278               0.002647056               0.001580778               0.000000000               0.000000000               0.000000000               0.000000000              -0.000409687               0.006565109              -0.000116681              -0.000974269               0.002513104               0.001538835               0.000000000               0.000000000               0.000000000               0.000000000              -0.000300493               0.006293015              -0.000085168              -0.000899310               0.002397421               0.001498111               0.000000000               0.000000000               0.000000000               0.000000000              -0.000220671               0.006065754              -0.000046144              -0.000840969               0.002302221               0.001461252               0.000000000               0.000000000               0.000000000               0.000000000              -0.000158840               0.005874789              -0.000004906              -0.000793912               0.002222880               0.001428969               0.000000000               0.000000000               0.000000000               0.000000000              -0.000105086               0.005708368               0.000023389              -0.000752951               0.002153754               0.001400803               0.000000000               0.000000000               0.000000000               0.000000000              -0.000054852               0.005561587               0.000027068              -0.000715766               0.002092433               0.001376667               0.000000000               0.000000000               0.000000000               0.000000000              -0.000043383               0.005470446               0.000030363              -0.000700073               0.002056821               0.001356749               0.000000000               0.000000000               0.000000000               0.000000000               0.000623222               0.006202764              -0.002630869              -0.000541638               0.002248112               0.001706474               0.000000000               0.000000000               0.000000000               0.000000000              -0.000813706               0.007267409              -0.002077980              -0.001213564               0.002826966               0.001613402               0.000000000               0.000000000               0.000000000               0.000000000              -0.001922986               0.008447903              -0.001415643              -0.001777104               0.003408307               0.001631204               0.000000000               0.000000000               0.000000000               0.000000000              -0.001961458               0.008502618              -0.001026956              -0.001798370               0.003433634               0.001635264               0.000000000               0.000000000               0.000000000               0.000000000              -0.001739422               0.008273194              -0.000785188              -0.001686428               0.003319846               0.001633418               0.000000000               0.000000000               0.000000000               0.000000000              -0.001453442               0.007976020              -0.000626968              -0.001542040               0.003172660               0.001630620               0.000000000               0.000000000               0.000000000               0.000000000              -0.001157678               0.007679852              -0.000522009              -0.001394107               0.003024627               0.001630520               0.000000000               0.000000000               0.000000000               0.000000000              -0.000893904               0.007361888              -0.000445995              -0.001255447               0.002872420               0.001616973               0.000000000               0.000000000               0.000000000               0.000000000              -0.000665321               0.007021266              -0.000389280              -0.001127151               0.002716116               0.001588965               0.000000000               0.000000000               0.000000000               0.000000000              -0.000473117               0.006681297              -0.000335961              -0.001012579               0.002564603               0.001552024               0.000000000               0.000000000               0.000000000               0.000000000              -0.000327148               0.006366969              -0.000271864              -0.000918549               0.002428485               0.001509936               0.000000000               0.000000000               0.000000000               0.000000000              -0.000230612               0.006094080              -0.000196632              -0.000848237               0.002314085               0.001465848               0.000000000               0.000000000               0.000000000               0.000000000              -0.000177657               0.005859445              -0.000119407              -0.000799050               0.002219479               0.001420429               0.000000000               0.000000000               0.000000000               0.000000000              -0.000149127               0.005650623              -0.000051274              -0.000762249               0.002137605               0.001375356               0.000000000               0.000000000               0.000000000               0.000000000              -0.000127646               0.005457331              -0.000001795              -0.000730032               0.002062436               0.001332404               0.000000000               0.000000000               0.000000000               0.000000000              -0.000109518               0.005285680               0.000019025              -0.000701777               0.001995802               0.001294024               0.000000000               0.000000000               0.000000000               0.000000000              -0.000098056               0.005199720               0.000021959              -0.000686734               0.001962134               0.001275400               0.000000000               0.000000000               0.000000000               0.000000000              -0.000263163               0.004453595              -0.001902796              -0.000655385               0.001702978               0.001047593               0.000000000               0.000000000               0.000000000               0.000000000              -0.001263947               0.005888362              -0.001947676              -0.001210023               0.002366108               0.001156085               0.000000000               0.000000000               0.000000000               0.000000000              -0.002154602               0.007426839              -0.001791885              -0.001736327               0.003054363               0.001318036               0.000000000               0.000000000               0.000000000               0.000000000              -0.002110173               0.007804927              -0.001469771              -0.001766927               0.003190592               0.001423665               0.000000000               0.000000000               0.000000000               0.000000000              -0.001841009               0.007792982              -0.001201175              -0.001664497               0.003152467               0.001487970               0.000000000               0.000000000               0.000000000               0.000000000              -0.001523455               0.007659364              -0.000997527              -0.001528712               0.003062667               0.001533954               0.000000000               0.000000000               0.000000000               0.000000000              -0.001209336               0.007471417              -0.000845487              -0.001387425               0.002952922               0.001565497               0.000000000               0.000000000               0.000000000               0.000000000              -0.000929916               0.007224483              -0.000727437              -0.001251776               0.002825395               0.001573620               0.000000000               0.000000000               0.000000000               0.000000000              -0.000693003               0.006933907              -0.000632516              -0.001126612               0.002686816               0.001560205               0.000000000               0.000000000               0.000000000               0.000000000              -0.000497825               0.006616823              -0.000543108              -0.001013785               0.002543514               0.001529729               0.000000000               0.000000000               0.000000000               0.000000000              -0.000345548               0.006306929              -0.000445723              -0.000917944               0.002408270               0.001490326               0.000000000               0.000000000               0.000000000               0.000000000              -0.000243976               0.006021357              -0.000339759              -0.000844159               0.002288485               0.001444327               0.000000000               0.000000000               0.000000000               0.000000000              -0.000191082               0.005770222              -0.000234197              -0.000792931               0.002187699               0.001394767               0.000000000               0.000000000               0.000000000               0.000000000              -0.000177567               0.005548291              -0.000139587              -0.000760122               0.002102786               0.001342664               0.000000000               0.000000000               0.000000000               0.000000000              -0.000186753               0.005350243              -0.000061303              -0.000738811               0.002029667               0.001290856               0.000000000               0.000000000               0.000000000               0.000000000              -0.000205959               0.005170215              -0.000011707              -0.000723510               0.001964558               0.001241048               0.000000000               0.000000000               0.000000000               0.000000000              -0.000215975               0.005078132               0.000003869              -0.000715755               0.001931279               0.001215523               0.000000000               0.000000000               0.000000000               0.000000000              -0.001443086               0.002868408              -0.001168025              -0.000899707               0.001256028               0.000356321               0.000000000               0.000000000               0.000000000               0.000000000              -0.001780311               0.004513124              -0.001748407              -0.001231755               0.001914944               0.000683189               0.000000000               0.000000000               0.000000000               0.000000000              -0.002302510               0.006252245              -0.002083683              -0.001644969               0.002632383               0.000987414               0.000000000               0.000000000               0.000000000               0.000000000              -0.002184976               0.006932546              -0.001890120              -0.001685931               0.002872802               0.001186871               0.000000000               0.000000000               0.000000000               0.000000000              -0.001895350               0.007171358              -0.001626510              -0.001607173               0.002926153               0.001318980               0.000000000               0.000000000               0.000000000               0.000000000              -0.001568870               0.007229978              -0.001392520              -0.001492070               0.002907325               0.001415255               0.000000000               0.000000000               0.000000000               0.000000000              -0.001257771               0.007178065              -0.001199679              -0.001368919               0.002848971               0.001480052               0.000000000               0.000000000               0.000000000               0.000000000              -0.000977230               0.007034774              -0.001044834              -0.001245805               0.002760169               0.001514364               0.000000000               0.000000000               0.000000000               0.000000000              -0.000729989               0.006832297              -0.000914376              -0.001127780               0.002653336               0.001525556               0.000000000               0.000000000               0.000000000               0.000000000              -0.000522511               0.006585503              -0.000792667              -0.001019127               0.002534855               0.001515728               0.000000000               0.000000000               0.000000000               0.000000000              -0.000350178               0.006316921              -0.000671456              -0.000920930               0.002412596               0.001491666               0.000000000               0.000000000               0.000000000               0.000000000              -0.000221867               0.006040279              -0.000546199              -0.000838233               0.002292817               0.001454584               0.000000000               0.000000000               0.000000000               0.000000000              -0.000145007               0.005778031              -0.000419316              -0.000776630               0.002184867               0.001408238               0.000000000               0.000000000               0.000000000               0.000000000              -0.000122730               0.005542161              -0.000294264              -0.000738792               0.002093632               0.001354840               0.000000000               0.000000000               0.000000000               0.000000000              -0.000149301               0.005340828              -0.000176955              -0.000723589               0.002021455               0.001297865               0.000000000               0.000000000               0.000000000               0.000000000              -0.000219353               0.005161836              -0.000074979              -0.000727485               0.001963090               0.001235605               0.000000000               0.000000000               0.000000000               0.000000000              -0.000281926               0.005061438              -0.000022899              -0.000738400               0.001933263               0.001194862               0.000000000               0.000000000               0.000000000               0.000000000              -0.002834466               0.001556806              -0.000483724              -0.001257523               0.000938103              -0.000319420               0.000000000               0.000000000               0.000000000               0.000000000              -0.002414128               0.003218941              -0.001460172              -0.001307663               0.001508857               0.000201193               0.000000000               0.000000000               0.000000000               0.000000000              -0.002404395               0.004939094              -0.002191703              -0.001519032               0.002152691               0.000633659               0.000000000               0.000000000               0.000000000               0.000000000              -0.002151140               0.005832463              -0.002162060              -0.001535732               0.002456045               0.000920313               0.000000000               0.000000000               0.000000000               0.000000000              -0.001831187               0.006306528              -0.001949149              -0.001475008               0.002593824               0.001118816               0.000000000               0.000000000               0.000000000               0.000000000              -0.001504007               0.006565999              -0.001718326              -0.001384750               0.002650227               0.001265478               0.000000000               0.000000000               0.000000000               0.000000000              -0.001203398               0.006673292              -0.001509391              -0.001285433               0.002652886               0.001367453               0.000000000               0.000000000               0.000000000               0.000000000              -0.000933938               0.006663472              -0.001333237              -0.001183158               0.002615521               0.001432363               0.000000000               0.000000000               0.000000000               0.000000000              -0.000691141               0.006572142              -0.001179748              -0.001080693               0.002550923               0.001470230               0.000000000               0.000000000               0.000000000               0.000000000              -0.000477755               0.006421523              -0.001035448              -0.000981847               0.002467768               0.001485922               0.000000000               0.000000000               0.000000000               0.000000000              -0.000293737               0.006231692              -0.000894727              -0.000889111               0.002373580               0.001484469               0.000000000               0.000000000               0.000000000               0.000000000              -0.000141355               0.006008693              -0.000754095              -0.000804093               0.002270909               0.001466816               0.000000000               0.000000000               0.000000000               0.000000000              -0.000026404               0.005771420              -0.000613766              -0.000731327               0.002167563               0.001436236               0.000000000               0.000000000               0.000000000               0.000000000               0.000037825               0.005542207              -0.000467877              -0.000678590               0.002073580               0.001394990               0.000000000               0.000000000               0.000000000               0.000000000               0.000037126               0.005339792              -0.000312858              -0.000653550               0.001997763               0.001344213               0.000000000               0.000000000               0.000000000               0.000000000              -0.000038142               0.005160792              -0.000153355              -0.000659401               0.001940047               0.001280646               0.000000000               0.000000000               0.000000000               0.000000000              -0.000123162               0.005058026              -0.000064362              -0.000678437               0.001912137               0.001233700               0.000000000               0.000000000               0.000000000               0.000000000              -0.004325044               0.000586378               0.000059942              -0.001695187               0.000760517              -0.000934670               0.000000000               0.000000000               0.000000000               0.000000000              -0.003121603               0.002073493              -0.001120040              -0.001429785               0.001167751              -0.000262034               0.000000000               0.000000000               0.000000000               0.000000000              -0.002484027               0.003597496              -0.002092745              -0.001381195               0.001659551               0.000278356               0.000000000               0.000000000               0.000000000               0.000000000              -0.002030683               0.004595604              -0.002214317              -0.001335955               0.001977170               0.000641216               0.000000000               0.000000000               0.000000000               0.000000000              -0.001654449               0.005255754              -0.002078310              -0.001277385               0.002177695               0.000900309               0.000000000               0.000000000               0.000000000               0.000000000              -0.001324474               0.005702180              -0.001880064              -0.001209448               0.002303856               0.001094408               0.000000000               0.000000000               0.000000000               0.000000000              -0.001036359               0.005969110              -0.001684609              -0.001134771               0.002367940               0.001233169               0.000000000               0.000000000               0.000000000               0.000000000              -0.000782114               0.006101562              -0.001511257              -0.001055986               0.002385828               0.001329843               0.000000000               0.000000000               0.000000000               0.000000000              -0.000551171               0.006139621              -0.001353147              -0.000974140               0.002371233               0.001397093               0.000000000               0.000000000               0.000000000               0.000000000              -0.000339358               0.006103235              -0.001201600              -0.000890162               0.002331112               0.001440950               0.000000000               0.000000000               0.000000000               0.000000000              -0.000150021               0.006013145              -0.001054040              -0.000807900               0.002273661               0.001465762               0.000000000               0.000000000               0.000000000               0.000000000               0.000023133               0.005877522              -0.000913138              -0.000726014               0.002201159               0.001475145               0.000000000               0.000000000               0.000000000               0.000000000               0.000180771               0.005705930              -0.000772198              -0.000645451               0.002117108               0.001471657               0.000000000               0.000000000               0.000000000               0.000000000               0.000306485               0.005518920              -0.000613838              -0.000574932               0.002031265               0.001456333               0.000000000               0.000000000               0.000000000               0.000000000               0.000376959               0.005334556              -0.000430693              -0.000525459               0.001953320               0.001427862               0.000000000               0.000000000               0.000000000               0.000000000               0.000374058               0.005161872              -0.000225321              -0.000504961               0.001888927               0.001383966               0.000000000               0.000000000               0.000000000               0.000000000               0.000334034               0.005068833              -0.000112003              -0.000508340               0.001859041               0.001350701               0.000000000               0.000000000               0.000000000               0.000000000              -0.005764711              -0.000053136               0.000381380              -0.002155123               0.000700657              -0.001454465               0.000000000               0.000000000               0.000000000               0.000000000              -0.003834425               0.001142488              -0.000776926              -0.001580718               0.000907729              -0.000672989               0.000000000               0.000000000               0.000000000               0.000000000              -0.002557420               0.002357812              -0.001785464              -0.001253757               0.001203847              -0.000049910               0.000000000               0.000000000               0.000000000               0.000000000              -0.001860172               0.003362030              -0.002001215              -0.001117816               0.001493270               0.000375453               0.000000000               0.000000000               0.000000000               0.000000000              -0.001400198               0.004141540              -0.001941883              -0.001042765               0.001728087               0.000685322               0.000000000               0.000000000               0.000000000               0.000000000              -0.001051593               0.004732764              -0.001796955              -0.000985941               0.001906218               0.000920277               0.000000000               0.000000000               0.000000000               0.000000000              -0.000768068               0.005141393              -0.001637572              -0.000930698               0.002024013               0.001093314               0.000000000               0.000000000               0.000000000               0.000000000              -0.000527781               0.005405544              -0.001487450              -0.000873609               0.002093033               0.001219423               0.000000000               0.000000000               0.000000000               0.000000000              -0.000314932               0.005563743              -0.001345469              -0.000813566               0.002125751               0.001312185               0.000000000               0.000000000               0.000000000               0.000000000              -0.000113861               0.005647043              -0.001204430              -0.000748577               0.002131854               0.001383278               0.000000000               0.000000000               0.000000000               0.000000000               0.000083334               0.005665753              -0.001069982              -0.000676968               0.002114221               0.001437253               0.000000000               0.000000000               0.000000000               0.000000000               0.000278413               0.005626261              -0.000947179              -0.000598877               0.002075027               0.001476150               0.000000000               0.000000000               0.000000000               0.000000000               0.000471861               0.005547367              -0.000820488              -0.000516472               0.002021261               0.001504789               0.000000000               0.000000000               0.000000000               0.000000000               0.000658226               0.005436649              -0.000667756              -0.000432745               0.001956446               0.001523701               0.000000000               0.000000000               0.000000000               0.000000000               0.000826037               0.005301947              -0.000481558              -0.000352979               0.001884958               0.001531979               0.000000000               0.000000000               0.000000000               0.000000000               0.000956303               0.005154137              -0.000259125              -0.000285653               0.001813246               0.001527593               0.000000000               0.000000000               0.000000000               0.000000000               0.001025955               0.005084268              -0.000140907              -0.000250800               0.001778339               0.001527539               0.000000000               0.000000000               0.000000000               0.000000000              -0.006973210              -0.000419514               0.000450066              -0.002562513               0.000714328              -0.001848185               0.000000000               0.000000000               0.000000000               0.000000000              -0.004457330               0.000466912              -0.000469736              -0.001729861               0.000732253              -0.000997609               0.000000000               0.000000000               0.000000000               0.000000000              -0.002630612               0.001353883              -0.001299308              -0.001155713               0.000836526              -0.000319187               0.000000000               0.000000000               0.000000000               0.000000000              -0.001693494               0.002301333              -0.001521398              -0.000922726               0.001074678               0.000151952               0.000000000               0.000000000               0.000000000               0.000000000              -0.001133969               0.003136838              -0.001513761              -0.000817342               0.001318049               0.000500707               0.000000000               0.000000000               0.000000000               0.000000000              -0.000752202               0.003821087              -0.001426426              -0.000759710               0.001526919               0.000767209               0.000000000               0.000000000               0.000000000               0.000000000              -0.000468047               0.004332216              -0.001317725              -0.000717044               0.001683072               0.000966028               0.000000000               0.000000000               0.000000000               0.000000000              -0.000238324               0.004703327              -0.001206442              -0.000677286               0.001793522               0.001116236               0.000000000               0.000000000               0.000000000               0.000000000              -0.000039031               0.004967146              -0.001096502              -0.000635529               0.001867542               0.001232013               0.000000000               0.000000000               0.000000000               0.000000000               0.000151845               0.005149878              -0.000988875              -0.000586792               0.001912206               0.001325414               0.000000000               0.000000000               0.000000000               0.000000000               0.000352269               0.005265695              -0.000889408              -0.000526110               0.001930584               0.001404474               0.000000000               0.000000000               0.000000000               0.000000000               0.000563745               0.005323091              -0.000797347              -0.000453981               0.001925673               0.001471692               0.000000000               0.000000000               0.000000000               0.000000000               0.000786030               0.005335041              -0.000699676              -0.000372118               0.001902368               0.001530250               0.000000000               0.000000000               0.000000000               0.000000000               0.001024353               0.005304959              -0.000579698              -0.000278987               0.001861298               0.001582311               0.000000000               0.000000000               0.000000000               0.000000000               0.001283844               0.005235992              -0.000425979              -0.000173057               0.001802999               0.001629942               0.000000000               0.000000000               0.000000000               0.000000000               0.001560568               0.005131183              -0.000230932              -0.000056185               0.001729105               0.001672921               0.000000000               0.000000000               0.000000000               0.000000000               0.001766510               0.005094722              -0.000130952               0.000025600               0.001689690               0.001715291               0.000000000               0.000000000               0.000000000               0.000000000              -0.007783679              -0.000589924               0.000291580              -0.002845137               0.000751733              -0.002093405               0.000000000               0.000000000               0.000000000               0.000000000              -0.004886700               0.000065465              -0.000215083              -0.001840694               0.000635382              -0.001205312               0.000000000               0.000000000               0.000000000               0.000000000              -0.002687650               0.000703594              -0.000681574              -0.001095817               0.000599799              -0.000496017               0.000000000               0.000000000               0.000000000               0.000000000              -0.001576308               0.001581090              -0.000821945              -0.000788750               0.000789941               0.000001190               0.000000000               0.000000000               0.000000000               0.000000000              -0.000934907               0.002428544              -0.000831603              -0.000654157               0.001027559               0.000373402               0.000000000               0.000000000               0.000000000               0.000000000              -0.000519058               0.003160646              -0.000793038              -0.000589726               0.001250113               0.000660387               0.000000000               0.000000000               0.000000000               0.000000000              -0.000231655               0.003735658              -0.000739362              -0.000553827               0.001429816               0.000875989               0.000000000               0.000000000               0.000000000               0.000000000              -0.000011117               0.004174824              -0.000680027              -0.000526021               0.001566934               0.001040913               0.000000000               0.000000000               0.000000000               0.000000000               0.000180379               0.004507246              -0.000619127              -0.000495763               0.001667654               0.001171892               0.000000000               0.000000000               0.000000000               0.000000000               0.000370580               0.004760989              -0.000560833              -0.000456155               0.001739032               0.001282877               0.000000000               0.000000000               0.000000000               0.000000000               0.000570583               0.004947264              -0.000508565              -0.000404439               0.001783884               0.001379446               0.000000000               0.000000000               0.000000000               0.000000000               0.000786797               0.005075573              -0.000459199              -0.000339397               0.001804973               0.001465576               0.000000000               0.000000000               0.000000000               0.000000000               0.001027529               0.005155058              -0.000405738              -0.000259058               0.001804688               0.001545630               0.000000000               0.000000000               0.000000000               0.000000000               0.001303424               0.005185071              -0.000339383              -0.000159350               0.001781456               0.001622107               0.000000000               0.000000000               0.000000000               0.000000000               0.001629459               0.005166209              -0.000251661              -0.000034729               0.001733629               0.001698900               0.000000000               0.000000000               0.000000000               0.000000000               0.002021661               0.005099124              -0.000138046               0.000120731               0.001659447               0.001780178               0.000000000               0.000000000               0.000000000               0.000000000               0.002338736               0.005091398              -0.000081529               0.000240599               0.001616916               0.001857515               0.000000000               0.000000000               0.000000000               0.000000000              -0.008072137              -0.000640278              -0.000000000              -0.002947014               0.000768907              -0.002178108               0.000000000               0.000000000               0.000000000               0.000000000              -0.005041677              -0.000071467              -0.000000000              -0.001881694               0.000603405              -0.001278289               0.000000000               0.000000000               0.000000000               0.000000000              -0.002708650               0.000477016              -0.000000000              -0.001075370               0.000517458              -0.000557911               0.000000000               0.000000000               0.000000000               0.000000000              -0.001532181               0.001328583              -0.000000000              -0.000740639               0.000689736              -0.000050903               0.000000000               0.000000000               0.000000000               0.000000000              -0.000859723               0.002174656               0.000000000              -0.000594227               0.000922954               0.000328727               0.000000000               0.000000000               0.000000000               0.000000000              -0.000429091               0.002919766               0.000000000              -0.000525879               0.001148538               0.000622660               0.000000000               0.000000000               0.000000000               0.000000000              -0.000140738               0.003514352               0.000000000              -0.000492069               0.001335462               0.000843392               0.000000000               0.000000000               0.000000000               0.000000000               0.000075449               0.003976356              -0.000000000              -0.000468750               0.001481689               0.001012939               0.000000000               0.000000000               0.000000000               0.000000000               0.000264287               0.004333245              -0.000000000              -0.000442547               0.001591916               0.001149369               0.000000000               0.000000000               0.000000000               0.000000000               0.000454167               0.004611958               0.000000000              -0.000406181               0.001672698               0.001266517               0.000000000               0.000000000               0.000000000               0.000000000               0.000654269               0.004824699               0.000000000              -0.000357736               0.001727462               0.001369726               0.000000000               0.000000000               0.000000000               0.000000000               0.000871453               0.004979345               0.000000000              -0.000295623               0.001758306               0.001462683               0.000000000               0.000000000               0.000000000               0.000000000               0.001117582               0.005084489              -0.000000000              -0.000216467               0.001766969               0.001550501               0.000000000               0.000000000               0.000000000               0.000000000               0.001407509               0.005137902              -0.000000000              -0.000114422               0.001750757               0.001636336               0.000000000               0.000000000               0.000000000               0.000000000               0.001760372               0.005137336              -0.000000000               0.000017972               0.001706438               0.001724410               0.000000000               0.000000000               0.000000000               0.000000000               0.002197920               0.005083461               0.000000000               0.000188786               0.001631542               0.001820327               0.000000000               0.000000000               0.000000000               0.000000000               0.002556655               0.005085573               0.000000000               0.000323046               0.001587492               0.001910538               0.000000000               0.000000000               0.000000000               0.000000000               0.000000000               0.000000000               0.000000000               0.000000000               0.000000000               0.000000000               0.000000000               0.000000000               0.000000000               0.000000000               0.000000000               0.000000000               0.000000000               0.000000000               0.000000000               0.000000000               0.000000000               0.000000000               0.000000000               0.000000000               0.000000000               0.000000000               0.000000000               0.000000000               0.000000000               0.000000000               0.000000000               0.000000000               0.000000000               0.000000000               0.000000000               0.000000000               0.000000000               0.000000000               0.000000000               0.000000000               0.000000000               0.000000000               0.000000000               0.000000000               0.000000000               0.000000000               0.000000000               0.000000000               0.000000000               0.000000000               0.000000000               0.000000000               0.000000000               0.000000000               0.000000000               0.000000000               0.000000000               0.000000000               0.000000000               0.000000000               0.000000000               0.000000000               0.000000000               0.000000000               0.000000000               0.000000000               0.000000000               0.000000000               0.000000000               0.000000000               0.000000000               0.000000000               0.000000000               0.000000000               0.000000000               0.000000000               0.000000000               0.000000000               0.000000000               0.000000000               0.000000000               0.000000000               0.000000000               0.000000000               0.000000000               0.000000000               0.000000000               0.000000000               0.000000000               0.000000000               0.000000000               0.000000000               0.000000000               0.000000000               0.000000000               0.000000000               0.000000000               0.000000000               0.000000000               0.000000000               0.000000000               0.000000000               0.000000000               0.000000000               0.000000000               0.000000000               0.000000000               0.000000000               0.000000000               0.000000000               0.000000000               0.000000000               0.000000000               0.000000000               0.000000000               0.000000000               0.000000000               0.000000000               0.000000000               0.000000000               0.000000000               0.000000000               0.000000000               0.000000000               0.000000000               0.000000000               0.000000000               0.000000000               0.000000000               0.000000000               0.000000000               0.000000000               0.000000000               0.000000000               0.000000000               0.000000000               0.000000000               0.000000000               0.000000000               0.000000000               0.000000000               0.000000000               0.000000000               0.000000000               0.000000000               0.000000000               0.000000000               0.000000000               0.000000000               0.000000000               0.000000000               0.000000000               0.000000000               0.000000000               0.000000000               0.000000000               0.000000000               0.000000000               0.000000000               0.000000000               0.000000000               0.000000000               0.000000000               0.000000000               0.000000000               0.000000000               0.000000000               0.000000000               0.000000000               0.000000000               0.000000000               0.000000000               0.000000000               0.000000000               0.001944210               0.020301121               0.001428328              -0.001808557               0.007369825               0.005561268               0.000000000               0.000000000               0.000000000               0.000000000               0.001848174               0.016093088               0.000743183              -0.001318568               0.005803831               0.004485264               0.000000000               0.000000000               0.000000000               0.000000000               0.002349516               0.012729571               0.000060614              -0.000710126               0.004479856               0.003769730               0.000000000               0.000000000               0.000000000               0.000000000               0.002237783               0.010843435              -0.000227654              -0.000516260               0.003786529               0.003270269               0.000000000               0.000000000               0.000000000               0.000000000               0.001948295               0.009667571              -0.000348344              -0.000477835               0.003381770               0.002903935               0.000000000               0.000000000               0.000000000               0.000000000               0.001627798               0.008867346              -0.000391188              -0.000497993               0.003121750               0.002623757               0.000000000               0.000000000               0.000000000               0.000000000               0.001329204               0.008277732              -0.000397760              -0.000536264               0.002937971               0.002401707               0.000000000               0.000000000               0.000000000               0.000000000               0.001066863               0.007812924              -0.000391650              -0.000576541               0.002796462               0.002219922               0.000000000               0.000000000               0.000000000               0.000000000               0.000838496               0.007418642              -0.000376681              -0.000612893               0.002677154               0.002064261               0.000000000               0.000000000               0.000000000               0.000000000               0.000643609               0.007063203              -0.000356417              -0.000641546               0.002568226               0.001926680               0.000000000               0.000000000               0.000000000               0.000000000               0.000482401               0.006727804              -0.000334925              -0.000660074               0.002462603               0.001802530               0.000000000               0.000000000               0.000000000               0.000000000               0.000349905               0.006400208              -0.000311488              -0.000668810               0.002356318               0.001687508               0.000000000               0.000000000               0.000000000               0.000000000               0.000239107               0.006069047              -0.000285374              -0.000668964               0.002245984               0.001577020               0.000000000               0.000000000               0.000000000               0.000000000               0.000145079               0.005721946              -0.000250440              -0.000660837               0.002127575               0.001466738               0.000000000               0.000000000               0.000000000               0.000000000               0.000073518               0.005347783              -0.000195563              -0.000640902               0.001996211               0.001355309               0.000000000               0.000000000               0.000000000               0.000000000               0.000028743               0.004933142              -0.000112231              -0.000605863               0.001846318               0.001240456               0.000000000               0.000000000               0.000000000               0.000000000              -0.000018564               0.004624695              -0.000068563              -0.000585047               0.001736565               0.001151518               0.000000000               0.000000000               0.000000000               0.000000000               0.002134594               0.019117726               0.002667011              -0.001589240               0.006902258               0.005313018               0.000000000               0.000000000               0.000000000               0.000000000               0.001759345               0.015324863               0.001388827              -0.001255851               0.005526854               0.004271003               0.000000000               0.000000000               0.000000000               0.000000000               0.001964779               0.012400333               0.000128435              -0.000813247               0.004404485               0.003591238               0.000000000               0.000000000               0.000000000               0.000000000               0.001745181               0.010737094              -0.000386590              -0.000687692               0.003808226               0.003120534               0.000000000               0.000000000               0.000000000               0.000000000               0.001438224               0.009673572              -0.000594243              -0.000669861               0.003447779               0.002777918               0.000000000               0.000000000               0.000000000               0.000000000               0.001141781               0.008923992              -0.000666218              -0.000687330               0.003203744               0.002516414               0.000000000               0.000000000               0.000000000               0.000000000               0.000887583               0.008358134              -0.000677740              -0.000711921               0.003023324               0.002311403               0.000000000               0.000000000               0.000000000               0.000000000               0.000676909               0.007902407              -0.000663486              -0.000733958               0.002878762               0.002144804               0.000000000               0.000000000               0.000000000               0.000000000               0.000501908               0.007508809              -0.000633787              -0.000750384               0.002753039               0.002002655               0.000000000               0.000000000               0.000000000               0.000000000               0.000361258               0.007151343              -0.000596091              -0.000758444               0.002636572               0.001878127               0.000000000               0.000000000               0.000000000               0.000000000               0.000250716               0.006817019              -0.000555480              -0.000758107               0.002525019               0.001766912               0.000000000               0.000000000               0.000000000               0.000000000               0.000163172               0.006497554              -0.000512567              -0.000751003               0.002416164               0.001665161               0.000000000               0.000000000               0.000000000               0.000000000               0.000096791               0.006187860              -0.000462155              -0.000737184               0.002308328               0.001571143               0.000000000               0.000000000               0.000000000               0.000000000               0.000048418               0.005880989              -0.000395733              -0.000716965               0.002199298               0.001482333               0.000000000               0.000000000               0.000000000               0.000000000               0.000020165               0.005576079              -0.000299708              -0.000689446               0.002088490               0.001399043               0.000000000               0.000000000               0.000000000               0.000000000               0.000006113               0.005275459              -0.000167127              -0.000657138               0.001977515               0.001320376               0.000000000               0.000000000               0.000000000               0.000000000              -0.000017045               0.005077152              -0.000098526              -0.000641034               0.001906045               0.001265011               0.000000000               0.000000000               0.000000000               0.000000000               0.002338657               0.017315184               0.003560967              -0.001287401               0.006200803               0.004913403               0.000000000               0.000000000               0.000000000               0.000000000               0.001574642               0.014172035               0.001863970              -0.001181011               0.005117635               0.003936623               0.000000000               0.000000000               0.000000000               0.000000000               0.001369838               0.011898937               0.000212011              -0.000973675               0.004290831               0.003317156               0.000000000               0.000000000               0.000000000               0.000000000               0.001025870               0.010550436              -0.000429981              -0.000934101               0.003828144               0.002894043               0.000000000               0.000000000               0.000000000               0.000000000               0.000717110               0.009639619              -0.000675530              -0.000936034               0.003525185               0.002589152               0.000000000               0.000000000               0.000000000               0.000000000               0.000475990               0.008963304              -0.000755589              -0.000941915               0.003301709               0.002359795               0.000000000               0.000000000               0.000000000               0.000000000               0.000297609               0.008427336              -0.000765969              -0.000941812               0.003123021               0.002181210               0.000000000               0.000000000               0.000000000               0.000000000               0.000165866               0.007977951              -0.000746683              -0.000935042               0.002970971               0.002035929               0.000000000               0.000000000               0.000000000               0.000000000               0.000070324               0.007586024              -0.000706923              -0.000921879               0.002835942               0.001914063               0.000000000               0.000000000               0.000000000               0.000000000               0.000001887               0.007228928              -0.000657223              -0.000902906               0.002710587               0.001807681               0.000000000               0.000000000               0.000000000               0.000000000              -0.000039709               0.006901993              -0.000605346              -0.000877638               0.002593187               0.001715549               0.000000000               0.000000000               0.000000000               0.000000000              -0.000057092               0.006602528              -0.000551062              -0.000846724               0.002483062               0.001636338               0.000000000               0.000000000               0.000000000               0.000000000              -0.000057397               0.006328003              -0.000488454              -0.000812522               0.002380154               0.001567632               0.000000000               0.000000000               0.000000000               0.000000000              -0.000047496               0.006078715              -0.000407959              -0.000777649               0.002285434               0.001507786               0.000000000               0.000000000               0.000000000               0.000000000              -0.000033059               0.005862273              -0.000298686              -0.000745180               0.002202465               0.001457285               0.000000000               0.000000000               0.000000000               0.000000000              -0.000017649               0.005693699              -0.000160303              -0.000718329               0.002137324               0.001418995               0.000000000               0.000000000               0.000000000               0.000000000              -0.000014923               0.005608434              -0.000088039              -0.000706649               0.002105009               0.001398360               0.000000000               0.000000000               0.000000000               0.000000000               0.002437861               0.015097384               0.004041143              -0.000972976               0.005356735               0.004383760               0.000000000               0.000000000               0.000000000               0.000000000               0.001271922               0.012778649               0.002151821              -0.001120359               0.004632960               0.003512601               0.000000000               0.000000000               0.000000000               0.000000000               0.000638582               0.011282988               0.000333718              -0.001170902               0.004151259               0.002980357               0.000000000               0.000000000               0.000000000               0.000000000               0.000208721               0.010279025              -0.000332735              -0.001206605               0.003828509               0.002621904               0.000000000               0.000000000               0.000000000               0.000000000              -0.000061725               0.009529267              -0.000574460              -0.001214302               0.003581158               0.002366856               0.000000000               0.000000000               0.000000000               0.000000000              -0.000216361               0.008928725              -0.000649791              -0.001197223               0.003375286               0.002178063               0.000000000               0.000000000               0.000000000               0.000000000              -0.000296151               0.008425366              -0.000657729              -0.001164225               0.003196502               0.002032277               0.000000000               0.000000000               0.000000000               0.000000000              -0.000331136               0.007989441              -0.000638540              -0.001122854               0.003037405               0.001914551               0.000000000               0.000000000               0.000000000               0.000000000              -0.000334497               0.007601428              -0.000600877              -0.001075612               0.002892321               0.001816709               0.000000000               0.000000000               0.000000000               0.000000000              -0.000314281               0.007254619              -0.000551186              -0.001024680               0.002759742               0.001735062               0.000000000               0.000000000               0.000000000               0.000000000              -0.000277195               0.006946356              -0.000499910              -0.000972240               0.002639509               0.001667269               0.000000000               0.000000000               0.000000000               0.000000000              -0.000224333               0.006675644              -0.000445050              -0.000918578               0.002531385               0.001612807               0.000000000               0.000000000               0.000000000               0.000000000              -0.000164626               0.006437770              -0.000381856              -0.000866454               0.002434720               0.001568266               0.000000000               0.000000000               0.000000000               0.000000000              -0.000108036               0.006239278              -0.000305916              -0.000820421               0.002353212               0.001532791               0.000000000               0.000000000               0.000000000               0.000000000              -0.000059420               0.006092386              -0.000214244              -0.000783829               0.002292051               0.001508223               0.000000000               0.000000000               0.000000000               0.000000000              -0.000023979               0.006003226              -0.000108814              -0.000759393               0.002254186               0.001494793               0.000000000               0.000000000               0.000000000               0.000000000              -0.000011388               0.005971280              -0.000054721              -0.000750679               0.002240633               0.001489954               0.000000000               0.000000000               0.000000000               0.000000000               0.002329153               0.012692056               0.004110553              -0.000713077               0.004468334               0.003755258               0.000000000               0.000000000               0.000000000               0.000000000               0.000847984               0.011289613               0.002271422              -0.001093206               0.004127568               0.003034362               0.000000000               0.000000000               0.000000000               0.000000000              -0.000137028               0.010597682               0.000514393              -0.001376092               0.003991223               0.002615130               0.000000000               0.000000000               0.000000000               0.000000000              -0.000575430               0.009917403              -0.000099580              -0.001455458               0.003790921               0.002335463               0.000000000               0.000000000               0.000000000               0.000000000              -0.000756066               0.009314128              -0.000319952              -0.001447787               0.003587274               0.002139487               0.000000000               0.000000000               0.000000000               0.000000000              -0.000799786               0.008790526              -0.000390275              -0.001398732               0.003396390               0.001997658               0.000000000               0.000000000               0.000000000               0.000000000              -0.000769869               0.008327660              -0.000405959              -0.001329655               0.003219077               0.001889422               0.000000000               0.000000000               0.000000000               0.000000000              -0.000700854               0.007917810              -0.000399110              -0.001252543               0.003056758               0.001804215               0.000000000               0.000000000               0.000000000               0.000000000              -0.000614697               0.007548414              -0.000373655              -0.001174060               0.002907466               0.001733406               0.000000000               0.000000000               0.000000000               0.000000000              -0.000517710               0.007221503              -0.000336545              -0.001096826               0.002772752               0.001675926               0.000000000               0.000000000               0.000000000               0.000000000              -0.000415172               0.006931977              -0.000297993              -0.001022184               0.002651364               0.001629180               0.000000000               0.000000000               0.000000000               0.000000000              -0.000313478               0.006675185              -0.000255503              -0.000951950               0.002542356               0.001590406               0.000000000               0.000000000               0.000000000               0.000000000              -0.000220050               0.006453460              -0.000209195              -0.000889199               0.002447532               0.001558332               0.000000000               0.000000000               0.000000000               0.000000000              -0.000139739               0.006277372              -0.000162562              -0.000837072               0.002371460               0.001534389               0.000000000               0.000000000               0.000000000               0.000000000              -0.000078051               0.006148002              -0.000110992              -0.000797768               0.002315236               0.001517468               0.000000000               0.000000000               0.000000000               0.000000000              -0.000032532               0.006056831              -0.000054222              -0.000769301               0.002275357               0.001506056               0.000000000               0.000000000               0.000000000               0.000000000              -0.000022736               0.006005049              -0.000031828              -0.000759155               0.002254715               0.001495560               0.000000000               0.000000000               0.000000000               0.000000000               0.001959835               0.010301300               0.003834552              -0.000552727               0.003617974               0.003065247               0.000000000               0.000000000               0.000000000               0.000000000               0.000324285               0.009821882               0.002268932              -0.001106127               0.003642636               0.002536509               0.000000000               0.000000000               0.000000000               0.000000000              -0.000867624               0.009878929               0.000761534              -0.001560221               0.003813017               0.002252796               0.000000000               0.000000000               0.000000000               0.000000000              -0.001223166               0.009476421               0.000235903              -0.001643236               0.003706521               0.002063285               0.000000000               0.000000000               0.000000000               0.000000000              -0.001270709               0.009000472               0.000029102              -0.001601571               0.003533984               0.001932413               0.000000000               0.000000000               0.000000000               0.000000000              -0.001191178               0.008549000              -0.000053809              -0.001515313               0.003354743               0.001839430               0.000000000               0.000000000               0.000000000               0.000000000              -0.001054454               0.008135412              -0.000088986              -0.001412343               0.003182558               0.001770215               0.000000000               0.000000000               0.000000000               0.000000000              -0.000897830               0.007763007              -0.000102680              -0.001307059               0.003023330               0.001716271               0.000000000               0.000000000               0.000000000               0.000000000              -0.000740206               0.007423175              -0.000098407              -0.001205471               0.002876191               0.001670720               0.000000000               0.000000000               0.000000000               0.000000000              -0.000586934               0.007106556              -0.000085968              -0.001108417               0.002738301               0.001629884               0.000000000               0.000000000               0.000000000               0.000000000              -0.000447705               0.006812134              -0.000072436              -0.001019403               0.002610490               0.001591086               0.000000000               0.000000000               0.000000000               0.000000000              -0.000329995               0.006546500              -0.000059600              -0.000942058               0.002496164               0.001554106               0.000000000               0.000000000               0.000000000               0.000000000              -0.000234823               0.006322012              -0.000051132              -0.000878308               0.002400086               0.001521778               0.000000000               0.000000000               0.000000000               0.000000000              -0.000159303               0.006142280              -0.000048827              -0.000827522               0.002323247               0.001495725               0.000000000               0.000000000               0.000000000               0.000000000              -0.000098719               0.005996439              -0.000044248              -0.000786572               0.002260984               0.001474411               0.000000000               0.000000000               0.000000000               0.000000000              -0.000046996               0.005871646              -0.000028583              -0.000751577               0.002207722               0.001456144               0.000000000               0.000000000               0.000000000               0.000000000              -0.000041790               0.005784518              -0.000028886              -0.000738734               0.002174398               0.001435664               0.000000000               0.000000000               0.000000000               0.000000000               0.001358313               0.008082121               0.003306521              -0.000500900               0.002860979               0.002360079               0.000000000               0.000000000               0.000000000               0.000000000              -0.000257582               0.008468942               0.002188783              -0.001155210               0.003208022               0.002052812               0.000000000               0.000000000               0.000000000               0.000000000              -0.001475586               0.009151446               0.001063948              -0.001697272               0.003616209               0.001918937               0.000000000               0.000000000               0.000000000               0.000000000              -0.001677129               0.008974443               0.000621729              -0.001750725               0.003575026               0.001824301               0.000000000               0.000000000               0.000000000               0.000000000              -0.001573864               0.008615346               0.000406999              -0.001667113               0.003427458               0.001760344               0.000000000               0.000000000               0.000000000               0.000000000              -0.001377343               0.008232330               0.000291892              -0.001545541               0.003259263               0.001713722               0.000000000               0.000000000               0.000000000               0.000000000              -0.001151367               0.007875013               0.000226290              -0.001416136               0.003097023               0.001680888               0.000000000               0.000000000               0.000000000               0.000000000              -0.000928130               0.007539198               0.000182492              -0.001290445               0.002943189               0.001652744               0.000000000               0.000000000               0.000000000               0.000000000              -0.000724264               0.007205526               0.000157385              -0.001172287               0.002792580               0.001620294               0.000000000               0.000000000               0.000000000               0.000000000              -0.000551763               0.006874959               0.000140076              -0.001066278               0.002647056               0.001580778               0.000000000               0.000000000               0.000000000               0.000000000              -0.000409687               0.006565109               0.000116681              -0.000974269               0.002513104               0.001538835               0.000000000               0.000000000               0.000000000               0.000000000              -0.000300493               0.006293015               0.000085168              -0.000899310               0.002397421               0.001498111               0.000000000               0.000000000               0.000000000               0.000000000              -0.000220671               0.006065754               0.000046144              -0.000840969               0.002302221               0.001461252               0.000000000               0.000000000               0.000000000               0.000000000              -0.000158840               0.005874789               0.000004906              -0.000793912               0.002222880               0.001428969               0.000000000               0.000000000               0.000000000               0.000000000              -0.000105086               0.005708368              -0.000023389              -0.000752951               0.002153754               0.001400803               0.000000000               0.000000000               0.000000000               0.000000000              -0.000054852               0.005561587              -0.000027068              -0.000715766               0.002092433               0.001376667               0.000000000               0.000000000               0.000000000               0.000000000              -0.000043383               0.005470446              -0.000030363              -0.000700073               0.002056821               0.001356749               0.000000000               0.000000000               0.000000000               0.000000000               0.000623222               0.006202764               0.002630869              -0.000541638               0.002248112               0.001706474               0.000000000               0.000000000               0.000000000               0.000000000              -0.000813706               0.007267409               0.002077980              -0.001213564               0.002826966               0.001613402               0.000000000               0.000000000               0.000000000               0.000000000              -0.001922986               0.008447903               0.001415643              -0.001777104               0.003408307               0.001631204               0.000000000               0.000000000               0.000000000               0.000000000              -0.001961458               0.008502618               0.001026956              -0.001798370               0.003433634               0.001635264               0.000000000               0.000000000               0.000000000               0.000000000              -0.001739422               0.008273194               0.000785188              -0.001686428               0.003319846               0.001633418               0.000000000               0.000000000               0.000000000               0.000000000              -0.001453442               0.007976020               0.000626968              -0.001542040               0.003172660               0.001630620               0.000000000               0.000000000               0.000000000               0.000000000              -0.001157678               0.007679852               0.000522009              -0.001394107               0.003024627               0.001630520               0.000000000               0.000000000               0.000000000               0.000000000              -0.000893904               0.007361888               0.000445995              -0.001255447               0.002872420               0.001616973               0.000000000               0.000000000               0.000000000               0.000000000              -0.000665321               0.007021266               0.000389280              -0.001127151               0.002716116               0.001588965               0.000000000               0.000000000               0.000000000               0.000000000              -0.000473117               0.006681297               0.000335961              -0.001012579               0.002564603               0.001552024               0.000000000               0.000000000               0.000000000               0.000000000              -0.000327148               0.006366969               0.000271864              -0.000918549               0.002428485               0.001509936               0.000000000               0.000000000               0.000000000               0.000000000              -0.000230612               0.006094080               0.000196632              -0.000848237               0.002314085               0.001465848               0.000000000               0.000000000               0.000000000               0.000000000              -0.000177657               0.005859445               0.000119407              -0.000799050               0.002219479               0.001420429               0.000000000               0.000000000               0.000000000               0.000000000              -0.000149127               0.005650623               0.000051274              -0.000762249               0.002137605               0.001375356               0.000000000               0.000000000               0.000000000               0.000000000              -0.000127646               0.005457331               0.000001795              -0.000730032               0.002062436               0.001332404               0.000000000               0.000000000               0.000000000               0.000000000              -0.000109518               0.005285680              -0.000019025              -0.000701777               0.001995802               0.001294024               0.000000000               0.000000000               0.000000000               0.000000000              -0.000098056               0.005199720              -0.000021959              -0.000686734               0.001962134               0.001275400               0.000000000               0.000000000               0.000000000               0.000000000              -0.000263163               0.004453595               0.001902796              -0.000655385               0.001702978               0.001047593               0.000000000               0.000000000               0.000000000               0.000000000              -0.001263947               0.005888362               0.001947676              -0.001210023               0.002366108               0.001156085               0.000000000               0.000000000               0.000000000               0.000000000              -0.002154602               0.007426839               0.001791885              -0.001736327               0.003054363               0.001318036               0.000000000               0.000000000               0.000000000               0.000000000              -0.002110173               0.007804927               0.001469771              -0.001766927               0.003190592               0.001423665               0.000000000               0.000000000               0.000000000               0.000000000              -0.001841009               0.007792982               0.001201175              -0.001664497               0.003152467               0.001487970               0.000000000               0.000000000               0.000000000               0.000000000              -0.001523455               0.007659364               0.000997527              -0.001528712               0.003062667               0.001533954               0.000000000               0.000000000               0.000000000               0.000000000              -0.001209336               0.007471417               0.000845487              -0.001387425               0.002952922               0.001565497               0.000000000               0.000000000               0.000000000               0.000000000              -0.000929916               0.007224483               0.000727437              -0.001251776               0.002825395               0.001573620               0.000000000               0.000000000               0.000000000               0.000000000              -0.000693003               0.006933907               0.000632516              -0.001126612               0.002686816               0.001560205               0.000000000               0.000000000               0.000000000               0.000000000              -0.000497825               0.006616823               0.000543108              -0.001013785               0.002543514               0.001529729               0.000000000               0.000000000               0.000000000               0.000000000              -0.000345548               0.006306929               0.000445723              -0.000917944               0.002408270               0.001490326               0.000000000               0.000000000               0.000000000               0.000000000              -0.000243976               0.006021357               0.000339759              -0.000844159               0.002288485               0.001444327               0.000000000               0.000000000               0.000000000               0.000000000              -0.000191082               0.005770222               0.000234197              -0.000792931               0.002187699               0.001394767               0.000000000               0.000000000               0.000000000               0.000000000              -0.000177567               0.005548291               0.000139587              -0.000760122               0.002102786               0.001342664               0.000000000               0.000000000               0.000000000               0.000000000              -0.000186753               0.005350243               0.000061303              -0.000738811               0.002029667               0.001290856               0.000000000               0.000000000               0.000000000               0.000000000              -0.000205959               0.005170215               0.000011707              -0.000723510               0.001964558               0.001241048               0.000000000               0.000000000               0.000000000               0.000000000              -0.000215975               0.005078132              -0.000003869              -0.000715755               0.001931279               0.001215523               0.000000000               0.000000000               0.000000000               0.000000000              -0.001443086               0.002868408               0.001168025              -0.000899707               0.001256028               0.000356321               0.000000000               0.000000000               0.000000000               0.000000000              -0.001780311               0.004513124               0.001748407              -0.001231755               0.001914944               0.000683189               0.000000000               0.000000000               0.000000000               0.000000000              -0.002302510               0.006252245               0.002083683              -0.001644969               0.002632383               0.000987414               0.000000000               0.000000000               0.000000000               0.000000000              -0.002184976               0.006932546               0.001890120              -0.001685931               0.002872802               0.001186871               0.000000000               0.000000000               0.000000000               0.000000000              -0.001895350               0.007171358               0.001626510              -0.001607173               0.002926153               0.001318980               0.000000000               0.000000000               0.000000000               0.000000000              -0.001568870               0.007229978               0.001392520              -0.001492070               0.002907325               0.001415255               0.000000000               0.000000000               0.000000000               0.000000000              -0.001257771               0.007178065               0.001199679              -0.001368919               0.002848971               0.001480052               0.000000000               0.000000000               0.000000000               0.000000000              -0.000977230               0.007034774               0.001044834              -0.001245805               0.002760169               0.001514364               0.000000000               0.000000000               0.000000000               0.000000000              -0.000729989               0.006832297               0.000914376              -0.001127780               0.002653336               0.001525556               0.000000000               0.000000000               0.000000000               0.000000000              -0.000522511               0.006585503               0.000792667              -0.001019127               0.002534855               0.001515728               0.000000000               0.000000000               0.000000000               0.000000000              -0.000350178               0.006316921               0.000671456              -0.000920930               0.002412596               0.001491666               0.000000000               0.000000000               0.000000000               0.000000000              -0.000221867               0.006040279               0.000546199              -0.000838233               0.002292817               0.001454584               0.000000000               0.000000000               0.000000000               0.000000000              -0.000145007               0.005778031               0.000419316              -0.000776630               0.002184867               0.001408238               0.000000000               0.000000000               0.000000000               0.000000000              -0.000122730               0.005542161               0.000294264              -0.000738792               0.002093632               0.001354840               0.000000000               0.000000000               0.000000000               0.000000000              -0.000149301               0.005340828               0.000176955              -0.000723589               0.002021455               0.001297865               0.000000000               0.000000000               0.000000000               0.000000000              -0.000219353               0.005161836               0.000074979              -0.000727485               0.001963090               0.001235605               0.000000000               0.000000000               0.000000000               0.000000000              -0.000281926               0.005061438               0.000022899              -0.000738400               0.001933263               0.001194862               0.000000000               0.000000000               0.000000000               0.000000000              -0.002834466               0.001556806               0.000483724              -0.001257523               0.000938103              -0.000319420               0.000000000               0.000000000               0.000000000               0.000000000              -0.002414128               0.003218941               0.001460172              -0.001307663               0.001508857               0.000201193               0.000000000               0.000000000               0.000000000               0.000000000              -0.002404395               0.004939094               0.002191703              -0.001519032               0.002152691               0.000633659               0.000000000               0.000000000               0.000000000               0.000000000              -0.002151140               0.005832463               0.002162060              -0.001535732               0.002456045               0.000920313               0.000000000               0.000000000               0.000000000               0.000000000              -0.001831187               0.006306528               0.001949149              -0.001475008               0.002593824               0.001118816               0.000000000               0.000000000               0.000000000               0.000000000              -0.001504007               0.006565999               0.001718326              -0.001384750               0.002650227               0.001265478               0.000000000               0.000000000               0.000000000               0.000000000              -0.001203398               0.006673292               0.001509391              -0.001285433               0.002652886               0.001367453               0.000000000               0.000000000               0.000000000               0.000000000              -0.000933938               0.006663472               0.001333237              -0.001183158               0.002615521               0.001432363               0.000000000               0.000000000               0.000000000               0.000000000              -0.000691141               0.006572142               0.001179748              -0.001080693               0.002550923               0.001470230               0.000000000               0.000000000               0.000000000               0.000000000              -0.000477755               0.006421523               0.001035448              -0.000981847               0.002467768               0.001485922               0.000000000               0.000000000               0.000000000               0.000000000              -0.000293737               0.006231692               0.000894727              -0.000889111               0.002373580               0.001484469               0.000000000               0.000000000               0.000000000               0.000000000              -0.000141355               0.006008693               0.000754095              -0.000804093               0.002270909               0.001466816               0.000000000               0.000000000               0.000000000               0.000000000              -0.000026404               0.005771420               0.000613766              -0.000731327               0.002167563               0.001436236               0.000000000               0.000000000               0.000000000               0.000000000               0.000037825               0.005542207               0.000467877              -0.000678590               0.002073580               0.001394990               0.000000000               0.000000000               0.000000000               0.000000000               0.000037126               0.005339792               0.000312858              -0.000653550               0.001997763               0.001344213               0.000000000               0.000000000               0.000000000               0.000000000              -0.000038142               0.005160792               0.000153355              -0.000659401               0.001940047               0.001280646               0.000000000               0.000000000               0.000000000               0.000000000              -0.000123162               0.005058026               0.000064362              -0.000678437               0.001912137               0.001233700               0.000000000               0.000000000               0.000000000               0.000000000              -0.004325044               0.000586378              -0.000059942              -0.001695187               0.000760517              -0.000934670               0.000000000               0.000000000               0.000000000               0.000000000              -0.003121603               0.002073493               0.001120040              -0.001429785               0.001167751              -0.000262034               0.000000000               0.000000000               0.000000000               0.000000000              -0.002484027               0.003597496               0.002092745              -0.001381195               0.001659551               0.000278356               0.000000000               0.000000000               0.000000000               0.000000000              -0.002030683               0.004595604               0.002214317              -0.001335955               0.001977170               0.000641216               0.000000000               0.000000000               0.000000000               0.000000000              -0.001654449               0.005255754               0.002078310              -0.001277385               0.002177695               0.000900309               0.000000000               0.000000000               0.000000000               0.000000000              -0.001324474               0.005702180               0.001880064              -0.001209448               0.002303856               0.001094408               0.000000000               0.000000000               0.000000000               0.000000000              -0.001036359               0.005969110               0.001684609              -0.001134771               0.002367940               0.001233169               0.000000000               0.000000000               0.000000000               0.000000000              -0.000782114               0.006101562               0.001511257              -0.001055986               0.002385828               0.001329843               0.000000000               0.000000000               0.000000000               0.000000000              -0.000551171               0.006139621               0.001353147              -0.000974140               0.002371233               0.001397093               0.000000000               0.000000000               0.000000000               0.000000000              -0.000339358               0.006103235               0.001201600              -0.000890162               0.002331112               0.001440950               0.000000000               0.000000000               0.000000000               0.000000000              -0.000150021               0.006013145               0.001054040              -0.000807900               0.002273661               0.001465762               0.000000000               0.000000000               0.000000000               0.000000000               0.000023133               0.005877522               0.000913138              -0.000726014               0.002201159               0.001475145               0.000000000               0.000000000               0.000000000               0.000000000               0.000180771               0.005705930               0.000772198              -0.000645451               0.002117108               0.001471657               0.000000000               0.000000000               0.000000000               0.000000000               0.000306485               0.005518920               0.000613838              -0.000574932               0.002031265               0.001456333               0.000000000               0.000000000               0.000000000               0.000000000               0.000376959               0.005334556               0.000430693              -0.000525459               0.001953320               0.001427862               0.000000000               0.000000000               0.000000000               0.000000000               0.000374058               0.005161872               0.000225321              -0.000504961               0.001888927               0.001383966               0.000000000               0.000000000               0.000000000               0.000000000               0.000334034               0.005068833               0.000112003              -0.000508340               0.001859041               0.001350701               0.000000000               0.000000000               0.000000000               0.000000000              -0.005764711              -0.000053136              -0.000381380              -0.002155123               0.000700657              -0.001454465               0.000000000               0.000000000               0.000000000               0.000000000              -0.003834425               0.001142488               0.000776926              -0.001580718               0.000907729              -0.000672989               0.000000000               0.000000000               0.000000000               0.000000000              -0.002557420               0.002357812               0.001785464              -0.001253757               0.001203847              -0.000049910               0.000000000               0.000000000               0.000000000               0.000000000              -0.001860172               0.003362030               0.002001215              -0.001117816               0.001493270               0.000375453               0.000000000               0.000000000               0.000000000               0.000000000              -0.001400198               0.004141540               0.001941883              -0.001042765               0.001728087               0.000685322               0.000000000               0.000000000               0.000000000               0.000000000              -0.001051593               0.004732764               0.001796955              -0.000985941               0.001906218               0.000920277               0.000000000               0.000000000               0.000000000               0.000000000              -0.000768068               0.005141393               0.001637572              -0.000930698               0.002024013               0.001093314               0.000000000               0.000000000               0.000000000               0.000000000              -0.000527781               0.005405544               0.001487450              -0.000873609               0.002093033               0.001219423               0.000000000               0.000000000               0.000000000               0.000000000              -0.000314932               0.005563743               0.001345469              -0.000813566               0.002125751               0.001312185               0.000000000               0.000000000               0.000000000               0.000000000              -0.000113861               0.005647043               0.001204430              -0.000748577               0.002131854               0.001383278               0.000000000               0.000000000               0.000000000               0.000000000               0.000083334               0.005665753               0.001069982              -0.000676968               0.002114221               0.001437253               0.000000000               0.000000000               0.000000000               0.000000000               0.000278413               0.005626261               0.000947179              -0.000598877               0.002075027               0.001476150               0.000000000               0.000000000               0.000000000               0.000000000               0.000471861               0.005547367               0.000820488              -0.000516472               0.002021261               0.001504789               0.000000000               0.000000000               0.000000000               0.000000000               0.000658226               0.005436649               0.000667756              -0.000432745               0.001956446               0.001523701               0.000000000               0.000000000               0.000000000               0.000000000               0.000826037               0.005301947               0.000481558              -0.000352979               0.001884958               0.001531979               0.000000000               0.000000000               0.000000000               0.000000000               0.000956303               0.005154137               0.000259125              -0.000285653               0.001813246               0.001527593               0.000000000               0.000000000               0.000000000               0.000000000               0.001025955               0.005084268               0.000140907              -0.000250800               0.001778339               0.001527539               0.000000000               0.000000000               0.000000000               0.000000000              -0.006973210              -0.000419514              -0.000450066              -0.002562513               0.000714328              -0.001848185               0.000000000               0.000000000               0.000000000               0.000000000              -0.004457330               0.000466912               0.000469736              -0.001729861               0.000732253              -0.000997609               0.000000000               0.000000000               0.000000000               0.000000000              -0.002630612               0.001353883               0.001299308              -0.001155713               0.000836526              -0.000319187               0.000000000               0.000000000               0.000000000               0.000000000              -0.001693494               0.002301333               0.001521398              -0.000922726               0.001074678               0.000151952               0.000000000               0.000000000               0.000000000               0.000000000              -0.001133969               0.003136838               0.001513761              -0.000817342               0.001318049               0.000500707               0.000000000               0.000000000               0.000000000               0.000000000              -0.000752202               0.003821087               0.001426426              -0.000759710               0.001526919               0.000767209               0.000000000               0.000000000               0.000000000               0.000000000              -0.000468047               0.004332216               0.001317725              -0.000717044               0.001683072               0.000966028               0.000000000               0.000000000               0.000000000               0.000000000              -0.000238324               0.004703327               0.001206442              -0.000677286               0.001793522               0.001116236               0.000000000               0.000000000               0.000000000               0.000000000              -0.000039031               0.004967146               0.001096502              -0.000635529               0.001867542               0.001232013               0.000000000               0.000000000               0.000000000               0.000000000               0.000151845               0.005149878               0.000988875              -0.000586792               0.001912206               0.001325414               0.000000000               0.000000000               0.000000000               0.000000000               0.000352269               0.005265695               0.000889408              -0.000526110               0.001930584               0.001404474               0.000000000               0.000000000               0.000000000               0.000000000               0.000563745               0.005323091               0.000797347              -0.000453981               0.001925673               0.001471692               0.000000000               0.000000000               0.000000000               0.000000000               0.000786030               0.005335041               0.000699676              -0.000372118               0.001902368               0.001530250               0.000000000               0.000000000               0.000000000               0.000000000               0.001024353               0.005304959               0.000579698              -0.000278987               0.001861298               0.001582311               0.000000000               0.000000000               0.000000000               0.000000000               0.001283844               0.005235992               0.000425979              -0.000173057               0.001802999               0.001629942               0.000000000               0.000000000               0.000000000               0.000000000               0.001560568               0.005131183               0.000230932              -0.000056185               0.001729105               0.001672921               0.000000000               0.000000000               0.000000000               0.000000000               0.001766510               0.005094722               0.000130952               0.000025600               0.001689690               0.001715291               0.000000000               0.000000000               0.000000000               0.000000000              -0.007783679              -0.000589924              -0.000291580              -0.002845137               0.000751733              -0.002093405               0.000000000               0.000000000               0.000000000               0.000000000              -0.004886700               0.000065465               0.000215083              -0.001840694               0.000635382              -0.001205312               0.000000000               0.000000000               0.000000000               0.000000000              -0.002687650               0.000703594               0.000681574              -0.001095817               0.000599799              -0.000496017               0.000000000               0.000000000               0.000000000               0.000000000              -0.001576308               0.001581090               0.000821945              -0.000788750               0.000789941               0.000001190               0.000000000               0.000000000               0.000000000               0.000000000              -0.000934907               0.002428544               0.000831603              -0.000654157               0.001027559               0.000373402               0.000000000               0.000000000               0.000000000               0.000000000              -0.000519058               0.003160646               0.000793038              -0.000589726               0.001250113               0.000660387               0.000000000               0.000000000               0.000000000               0.000000000              -0.000231655               0.003735658               0.000739362              -0.000553827               0.001429816               0.000875989               0.000000000               0.000000000               0.000000000               0.000000000              -0.000011117               0.004174824               0.000680027              -0.000526021               0.001566934               0.001040913               0.000000000               0.000000000               0.000000000               0.000000000               0.000180379               0.004507246               0.000619127              -0.000495763               0.001667654               0.001171892               0.000000000               0.000000000               0.000000000               0.000000000               0.000370580               0.004760989               0.000560833              -0.000456155               0.001739032               0.001282877               0.000000000               0.000000000               0.000000000               0.000000000               0.000570583               0.004947264               0.000508565              -0.000404439               0.001783884               0.001379446               0.000000000               0.000000000               0.000000000               0.000000000               0.000786797               0.005075573               0.000459199              -0.000339397               0.001804973               0.001465576               0.000000000               0.000000000               0.000000000               0.000000000               0.001027529               0.005155058               0.000405738              -0.000259058               0.001804688               0.001545630               0.000000000               0.000000000               0.000000000               0.000000000               0.001303424               0.005185071               0.000339383              -0.000159350               0.001781456               0.001622107               0.000000000               0.000000000               0.000000000               0.000000000               0.001629459               0.005166209               0.000251661              -0.000034729               0.001733629               0.001698900               0.000000000               0.000000000               0.000000000               0.000000000               0.002021661               0.005099124               0.000138046               0.000120731               0.001659447               0.001780178               0.000000000               0.000000000               0.000000000               0.000000000               0.002338736               0.005091398               0.000081529               0.000240599               0.001616916               0.001857515               0.000000000               0.000000000               0.000000000               0.000000000              -0.008072137              -0.000640278              -0.000000000              -0.002947014               0.000768907              -0.002178108               0.000000000               0.000000000               0.000000000               0.000000000              -0.005041677              -0.000071467              -0.000000000              -0.001881694               0.000603405              -0.001278289               0.000000000               0.000000000               0.000000000               0.000000000              -0.002708650               0.000477016               0.000000000              -0.001075370               0.000517458              -0.000557911               0.000000000               0.000000000               0.000000000               0.000000000              -0.001532181               0.001328583               0.000000000              -0.000740639               0.000689736              -0.000050903               0.000000000               0.000000000               0.000000000               0.000000000              -0.000859723               0.002174656               0.000000000              -0.000594227               0.000922954               0.000328727               0.000000000               0.000000000               0.000000000               0.000000000              -0.000429091               0.002919766               0.000000000              -0.000525879               0.001148538               0.000622660               0.000000000               0.000000000               0.000000000               0.000000000              -0.000140738               0.003514352               0.000000000              -0.000492069               0.001335462               0.000843392               0.000000000               0.000000000               0.000000000               0.000000000               0.000075449               0.003976356               0.000000000              -0.000468750               0.001481689               0.001012939               0.000000000               0.000000000               0.000000000               0.000000000               0.000264287               0.004333245              -0.000000000              -0.000442547               0.001591916               0.001149369               0.000000000               0.000000000               0.000000000               0.000000000               0.000454167               0.004611958              -0.000000000              -0.000406181               0.001672698               0.001266517               0.000000000               0.000000000               0.000000000               0.000000000               0.000654269               0.004824699               0.000000000              -0.000357736               0.001727462               0.001369726               0.000000000               0.000000000               0.000000000               0.000000000               0.000871453               0.004979345               0.000000000              -0.000295623               0.001758306               0.001462683               0.000000000               0.000000000               0.000000000               0.000000000               0.001117582               0.005084489               0.000000000              -0.000216467               0.001766969               0.001550501               0.000000000               0.000000000               0.000000000               0.000000000               0.001407509               0.005137902               0.000000000              -0.000114422               0.001750757               0.001636336               0.000000000               0.000000000               0.000000000               0.000000000               0.001760372               0.005137336               0.000000000               0.000017972               0.001706438               0.001724410               0.000000000               0.000000000               0.000000000               0.000000000               0.002197920               0.005083461               0.000000000               0.000188786               0.001631542               0.001820327               0.000000000               0.000000000               0.000000000               0.000000000               0.002556655               0.005085573               0.000000000               0.000323046               0.001587492               0.001910538               0.000000000               0.000000000               0.000000000               0.000000000               0.001868202               0.020715613               0.000000000              -0.001888871               0.007534759               0.005645888               0.000000000               0.000000000               0.000000000               0.000000000               0.001874427               0.016363999               0.000000000              -0.001342586               0.005902141               0.004559554               0.000000000               0.000000000               0.000000000               0.000000000               0.002482794               0.012843611               0.000000000              -0.000674402               0.004505962               0.003831560               0.000000000               0.000000000               0.000000000               0.000000000               0.002412945               0.010876920               0.000000000              -0.000454759               0.003777190               0.003322431               0.000000000               0.000000000               0.000000000               0.000000000               0.002134636               0.009659442               0.000000000              -0.000406941               0.003355429               0.002948488               0.000000000               0.000000000               0.000000000               0.000000000               0.001807806               0.008843098               0.000000000              -0.000427459               0.003090156               0.002662697               0.000000000               0.000000000               0.000000000               0.000000000               0.001492081               0.008241977               0.000000000              -0.000470715               0.002904203               0.002433488               0.000000000               0.000000000               0.000000000               0.000000000               0.001212835               0.007771628               0.000000000              -0.000516639               0.002762730               0.002246091               0.000000000               0.000000000               0.000000000               0.000000000               0.000967445               0.007380605               0.000000000              -0.000559782               0.002646771               0.002086989               0.000000000               0.000000000               0.000000000               0.000000000               0.000752461               0.007028101               0.000000000              -0.000596338               0.002541456               0.001945118               0.000000000               0.000000000               0.000000000               0.000000000               0.000570548               0.006693175              -0.000000000              -0.000622690               0.002438599               0.001815910               0.000000000               0.000000000               0.000000000               0.000000000               0.000415896               0.006359446              -0.000000000              -0.000638968               0.002332784               0.001693815               0.000000000               0.000000000               0.000000000               0.000000000               0.000285844               0.006016552               0.000000000              -0.000644876               0.002220456               0.001575580               0.000000000               0.000000000               0.000000000               0.000000000               0.000176051               0.005654792              -0.000000000              -0.000640828               0.002098521               0.001457693               0.000000000               0.000000000               0.000000000               0.000000000               0.000089505               0.005256763               0.000000000              -0.000623530               0.001960080               0.001336550               0.000000000               0.000000000               0.000000000               0.000000000               0.000036168               0.004798737               0.000000000              -0.000586278               0.001794989               0.001208711               0.000000000               0.000000000               0.000000000               0.000000000              -0.000019064               0.004443582               0.000000000              -0.000562595               0.001668711               0.001106116               0.000000000               0.000000000               0.000000000               0.000000000               0.001944210               0.020301121              -0.001428328              -0.001808557               0.007369825               0.005561268               0.000000000               0.000000000               0.000000000               0.000000000               0.001848174               0.016093088              -0.000743183              -0.001318568               0.005803831               0.004485264               0.000000000               0.000000000               0.000000000               0.000000000               0.002349516               0.012729571              -0.000060614              -0.000710126               0.004479856               0.003769730               0.000000000               0.000000000               0.000000000               0.000000000               0.002237783               0.010843435               0.000227654              -0.000516260               0.003786529               0.003270269               0.000000000               0.000000000               0.000000000               0.000000000               0.001948295               0.009667571               0.000348344              -0.000477835               0.003381770               0.002903935               0.000000000               0.000000000               0.000000000               0.000000000               0.001627798               0.008867346               0.000391188              -0.000497993               0.003121750               0.002623757               0.000000000               0.000000000               0.000000000               0.000000000               0.001329204               0.008277732               0.000397760              -0.000536264               0.002937971               0.002401707               0.000000000               0.000000000               0.000000000               0.000000000               0.001066863               0.007812924               0.000391650              -0.000576541               0.002796462               0.002219922               0.000000000               0.000000000               0.000000000               0.000000000               0.000838496               0.007418642               0.000376681              -0.000612893               0.002677154               0.002064261               0.000000000               0.000000000               0.000000000               0.000000000               0.000643609               0.007063203               0.000356417              -0.000641546               0.002568226               0.001926680               0.000000000               0.000000000               0.000000000               0.000000000               0.000482401               0.006727804               0.000334925              -0.000660074               0.002462603               0.001802530               0.000000000               0.000000000               0.000000000               0.000000000               0.000349905               0.006400208               0.000311488              -0.000668810               0.002356318               0.001687508               0.000000000               0.000000000               0.000000000               0.000000000               0.000239107               0.006069047               0.000285374              -0.000668964               0.002245984               0.001577020               0.000000000               0.000000000               0.000000000               0.000000000               0.000145079               0.005721946               0.000250440              -0.000660837               0.002127575               0.001466738               0.000000000               0.000000000               0.000000000               0.000000000               0.000073518               0.005347783               0.000195563              -0.000640902               0.001996211               0.001355309               0.000000000               0.000000000               0.000000000               0.000000000               0.000028743               0.004933142               0.000112231              -0.000605863               0.001846318               0.001240456               0.000000000               0.000000000               0.000000000               0.000000000              -0.000018564               0.004624695               0.000068563              -0.000585047               0.001736565               0.001151518               0.000000000               0.000000000               0.000000000               0.000000000               0.002134594               0.019117726              -0.002667011              -0.001589240               0.006902258               0.005313018               0.000000000               0.000000000               0.000000000               0.000000000               0.001759345               0.015324863              -0.001388827              -0.001255851               0.005526854               0.004271003               0.000000000               0.000000000               0.000000000               0.000000000               0.001964779               0.012400333              -0.000128435              -0.000813247               0.004404485               0.003591238               0.000000000               0.000000000               0.000000000               0.000000000               0.001745181               0.010737094               0.000386590              -0.000687692               0.003808226               0.003120534               0.000000000               0.000000000               0.000000000               0.000000000               0.001438224               0.009673572               0.000594243              -0.000669861               0.003447779               0.002777918               0.000000000               0.000000000               0.000000000               0.000000000               0.001141781               0.008923992               0.000666218              -0.000687330               0.003203744               0.002516414               0.000000000               0.000000000               0.000000000               0.000000000               0.000887583               0.008358134               0.000677740              -0.000711921               0.003023324               0.002311403               0.000000000               0.000000000               0.000000000               0.000000000               0.000676909               0.007902407               0.000663486              -0.000733958               0.002878762               0.002144804               0.000000000               0.000000000               0.000000000               0.000000000               0.000501908               0.007508809               0.000633787              -0.000750384               0.002753039               0.002002655               0.000000000               0.000000000               0.000000000               0.000000000               0.000361258               0.007151343               0.000596091              -0.000758444               0.002636572               0.001878127               0.000000000               0.000000000               0.000000000               0.000000000               0.000250716               0.006817019               0.000555480              -0.000758107               0.002525019               0.001766912               0.000000000               0.000000000               0.000000000               0.000000000               0.000163172               0.006497554               0.000512567              -0.000751003               0.002416164               0.001665161               0.000000000               0.000000000               0.000000000               0.000000000               0.000096791               0.006187860               0.000462155              -0.000737184               0.002308328               0.001571143               0.000000000               0.000000000               0.000000000               0.000000000               0.000048418               0.005880989               0.000395733              -0.000716965               0.002199298               0.001482333               0.000000000               0.000000000               0.000000000               0.000000000               0.000020165               0.005576079               0.000299708              -0.000689446               0.002088490               0.001399043               0.000000000               0.000000000               0.000000000               0.000000000               0.000006113               0.005275459               0.000167127              -0.000657138               0.001977515               0.001320376               0.000000000               0.000000000               0.000000000               0.000000000              -0.000017045               0.005077152               0.000098526              -0.000641034               0.001906045               0.001265011               0.000000000               0.000000000               0.000000000               0.000000000               0.002338657               0.017315184              -0.003560967              -0.001287401               0.006200803               0.004913403               0.000000000               0.000000000               0.000000000               0.000000000               0.001574642               0.014172035              -0.001863970              -0.001181011               0.005117635               0.003936623               0.000000000               0.000000000               0.000000000               0.000000000               0.001369838               0.011898937              -0.000212011              -0.000973675               0.004290831               0.003317156               0.000000000               0.000000000               0.000000000               0.000000000               0.001025870               0.010550436               0.000429981              -0.000934101               0.003828144               0.002894043               0.000000000               0.000000000               0.000000000               0.000000000               0.000717110               0.009639619               0.000675530              -0.000936034               0.003525185               0.002589152               0.000000000               0.000000000               0.000000000               0.000000000               0.000475990               0.008963304               0.000755589              -0.000941915               0.003301709               0.002359795               0.000000000               0.000000000               0.000000000               0.000000000               0.000297609               0.008427336               0.000765969              -0.000941812               0.003123021               0.002181210               0.000000000               0.000000000               0.000000000               0.000000000               0.000165866               0.007977951               0.000746683              -0.000935042               0.002970971               0.002035929               0.000000000               0.000000000               0.000000000               0.000000000               0.000070324               0.007586024               0.000706923              -0.000921879               0.002835942               0.001914063               0.000000000               0.000000000               0.000000000               0.000000000               0.000001887               0.007228928               0.000657223              -0.000902906               0.002710587               0.001807681               0.000000000               0.000000000               0.000000000               0.000000000              -0.000039709               0.006901993               0.000605346              -0.000877638               0.002593187               0.001715549               0.000000000               0.000000000               0.000000000               0.000000000              -0.000057092               0.006602528               0.000551062              -0.000846724               0.002483062               0.001636338               0.000000000               0.000000000               0.000000000               0.000000000              -0.000057397               0.006328003               0.000488454              -0.000812522               0.002380154               0.001567632               0.000000000               0.000000000               0.000000000               0.000000000              -0.000047496               0.006078715               0.000407959              -0.000777649               0.002285434               0.001507786               0.000000000               0.000000000               0.000000000               0.000000000              -0.000033059               0.005862273               0.000298686              -0.000745180               0.002202465               0.001457285               0.000000000               0.000000000               0.000000000               0.000000000              -0.000017649               0.005693699               0.000160303              -0.000718329               0.002137324               0.001418995               0.000000000               0.000000000               0.000000000               0.000000000              -0.000014923               0.005608434               0.000088039              -0.000706649               0.002105009               0.001398360               0.000000000               0.000000000               0.000000000               0.000000000               0.002437861               0.015097384              -0.004041143              -0.000972976               0.005356735               0.004383760               0.000000000               0.000000000               0.000000000               0.000000000               0.001271922               0.012778649              -0.002151821              -0.001120359               0.004632960               0.003512601               0.000000000               0.000000000               0.000000000               0.000000000               0.000638582               0.011282988              -0.000333718              -0.001170902               0.004151259               0.002980357               0.000000000               0.000000000               0.000000000               0.000000000               0.000208721               0.010279025               0.000332735              -0.001206605               0.003828509               0.002621904               0.000000000               0.000000000               0.000000000               0.000000000              -0.000061725               0.009529267               0.000574460              -0.001214302               0.003581158               0.002366856               0.000000000               0.000000000               0.000000000               0.000000000              -0.000216361               0.008928725               0.000649791              -0.001197223               0.003375286               0.002178063               0.000000000               0.000000000               0.000000000               0.000000000              -0.000296151               0.008425366               0.000657729              -0.001164225               0.003196502               0.002032277               0.000000000               0.000000000               0.000000000               0.000000000              -0.000331136               0.007989441               0.000638540              -0.001122854               0.003037405               0.001914551               0.000000000               0.000000000               0.000000000               0.000000000              -0.000334497               0.007601428               0.000600877              -0.001075612               0.002892321               0.001816709               0.000000000               0.000000000               0.000000000               0.000000000              -0.000314281               0.007254619               0.000551186              -0.001024680               0.002759742               0.001735062               0.000000000               0.000000000               0.000000000               0.000000000              -0.000277195               0.006946356               0.000499910              -0.000972240               0.002639509               0.001667269               0.000000000               0.000000000               0.000000000               0.000000000              -0.000224333               0.006675644               0.000445050              -0.000918578               0.002531385               0.001612807               0.000000000               0.000000000               0.000000000               0.000000000              -0.000164626               0.006437770               0.000381856              -0.000866454               0.002434720               0.001568266               0.000000000               0.000000000               0.000000000               0.000000000              -0.000108036               0.006239278               0.000305916              -0.000820421               0.002353212               0.001532791               0.000000000               0.000000000               0.000000000               0.000000000              -0.000059420               0.006092386               0.000214244              -0.000783829               0.002292051               0.001508223               0.000000000               0.000000000               0.000000000               0.000000000              -0.000023979               0.006003226               0.000108814              -0.000759393               0.002254186               0.001494793               0.000000000               0.000000000               0.000000000               0.000000000              -0.000011388               0.005971280               0.000054721              -0.000750679               0.002240633               0.001489954               0.000000000               0.000000000               0.000000000               0.000000000               0.002329153               0.012692056              -0.004110553              -0.000713077               0.004468334               0.003755258               0.000000000               0.000000000               0.000000000               0.000000000               0.000847984               0.011289613              -0.002271422              -0.001093206               0.004127568               0.003034362               0.000000000               0.000000000               0.000000000               0.000000000              -0.000137028               0.010597682              -0.000514393              -0.001376092               0.003991223               0.002615130               0.000000000               0.000000000               0.000000000               0.000000000              -0.000575430               0.009917403               0.000099580              -0.001455458               0.003790921               0.002335463               0.000000000               0.000000000               0.000000000               0.000000000              -0.000756066               0.009314128               0.000319952              -0.001447787               0.003587274               0.002139487               0.000000000               0.000000000               0.000000000               0.000000000              -0.000799786               0.008790526               0.000390275              -0.001398732               0.003396390               0.001997658               0.000000000               0.000000000               0.000000000               0.000000000              -0.000769869               0.008327660               0.000405959              -0.001329655               0.003219077               0.001889422               0.000000000               0.000000000               0.000000000               0.000000000              -0.000700854               0.007917810               0.000399110              -0.001252543               0.003056758               0.001804215               0.000000000               0.000000000               0.000000000               0.000000000              -0.000614697               0.007548414               0.000373655              -0.001174060               0.002907466               0.001733406               0.000000000               0.000000000               0.000000000               0.000000000              -0.000517710               0.007221503               0.000336545              -0.001096826               0.002772752               0.001675926               0.000000000               0.000000000               0.000000000               0.000000000              -0.000415172               0.006931977               0.000297993              -0.001022184               0.002651364               0.001629180               0.000000000               0.000000000               0.000000000               0.000000000              -0.000313478               0.006675185               0.000255503              -0.000951950               0.002542356               0.001590406               0.000000000               0.000000000               0.000000000               0.000000000              -0.000220050               0.006453460               0.000209195              -0.000889199               0.002447532               0.001558332               0.000000000               0.000000000               0.000000000               0.000000000              -0.000139739               0.006277372               0.000162562              -0.000837072               0.002371460               0.001534389               0.000000000               0.000000000               0.000000000               0.000000000              -0.000078051               0.006148002               0.000110992              -0.000797768               0.002315236               0.001517468               0.000000000               0.000000000               0.000000000               0.000000000              -0.000032532               0.006056831               0.000054222              -0.000769301               0.002275357               0.001506056               0.000000000               0.000000000               0.000000000               0.000000000              -0.000022736               0.006005049               0.000031828              -0.000759155               0.002254715               0.001495560               0.000000000               0.000000000               0.000000000               0.000000000               0.001959835               0.010301300              -0.003834552              -0.000552727               0.003617974               0.003065247               0.000000000               0.000000000               0.000000000               0.000000000               0.000324285               0.009821882              -0.002268932              -0.001106127               0.003642636               0.002536509               0.000000000               0.000000000               0.000000000               0.000000000              -0.000867624               0.009878929              -0.000761534              -0.001560221               0.003813017               0.002252796               0.000000000               0.000000000               0.000000000               0.000000000              -0.001223166               0.009476421              -0.000235903              -0.001643236               0.003706521               0.002063285               0.000000000               0.000000000               0.000000000               0.000000000              -0.001270709               0.009000472              -0.000029102              -0.001601571               0.003533984               0.001932413               0.000000000               0.000000000               0.000000000               0.000000000              -0.001191178               0.008549000               0.000053809              -0.001515313               0.003354743               0.001839430               0.000000000               0.000000000               0.000000000               0.000000000              -0.001054454               0.008135412               0.000088986              -0.001412343               0.003182558               0.001770215               0.000000000               0.000000000               0.000000000               0.000000000              -0.000897830               0.007763007               0.000102680              -0.001307059               0.003023330               0.001716271               0.000000000               0.000000000               0.000000000               0.000000000              -0.000740206               0.007423175               0.000098407              -0.001205471               0.002876191               0.001670720               0.000000000               0.000000000               0.000000000               0.000000000              -0.000586934               0.007106556               0.000085968              -0.001108417               0.002738301               0.001629884               0.000000000               0.000000000               0.000000000               0.000000000              -0.000447705               0.006812134               0.000072436              -0.001019403               0.002610490               0.001591086               0.000000000               0.000000000               0.000000000               0.000000000              -0.000329995               0.006546500               0.000059600              -0.000942058               0.002496164               0.001554106               0.000000000               0.000000000               0.000000000               0.000000000              -0.000234823               0.006322012               0.000051132              -0.000878308               0.002400086               0.001521778               0.000000000               0.000000000               0.000000000               0.000000000              -0.000159303               0.006142280               0.000048827              -0.000827522               0.002323247               0.001495725               0.000000000               0.000000000               0.000000000               0.000000000              -0.000098719               0.005996439               0.000044248              -0.000786572               0.002260984               0.001474411               0.000000000               0.000000000               0.000000000               0.000000000              -0.000046996               0.005871646               0.000028583              -0.000751577               0.002207722               0.001456144               0.000000000               0.000000000               0.000000000               0.000000000              -0.000041790               0.005784518               0.000028886              -0.000738734               0.002174398               0.001435664               0.000000000               0.000000000               0.000000000               0.000000000               0.001358313               0.008082121              -0.003306521              -0.000500900               0.002860979               0.002360079               0.000000000               0.000000000               0.000000000               0.000000000              -0.000257582               0.008468942              -0.002188783              -0.001155210               0.003208022               0.002052812               0.000000000               0.000000000               0.000000000               0.000000000              -0.001475586               0.009151446              -0.001063948              -0.001697272               0.003616209               0.001918937               0.000000000               0.000000000               0.000000000               0.000000000              -0.001677129               0.008974443              -0.000621729              -0.001750725               0.003575026               0.001824301               0.000000000               0.000000000               0.000000000               0.000000000              -0.001573864               0.008615346              -0.000406999              -0.001667113               0.003427458               0.001760344               0.000000000               0.000000000               0.000000000               0.000000000              -0.001377343               0.008232330              -0.000291892              -0.001545541               0.003259263               0.001713722               0.000000000               0.000000000               0.000000000               0.000000000              -0.001151367               0.007875013              -0.000226290              -0.001416136               0.003097023               0.001680888               0.000000000               0.000000000               0.000000000               0.000000000              -0.000928130               0.007539198              -0.000182492              -0.001290445               0.002943189               0.001652744               0.000000000               0.000000000               0.000000000               0.000000000              -0.000724264               0.007205526              -0.000157385              -0.001172287               0.002792580               0.001620294               0.000000000               0.000000000               0.000000000               0.000000000              -0.000551763               0.006874959              -0.000140076              -0.001066278               0.002647056               0.001580778               0.000000000               0.000000000               0.000000000               0.000000000              -0.000409687               0.006565109              -0.000116681              -0.000974269               0.002513104               0.001538835               0.000000000               0.000000000               0.000000000               0.000000000              -0.000300493               0.006293015              -0.000085168              -0.000899310               0.002397421               0.001498111               0.000000000               0.000000000               0.000000000               0.000000000              -0.000220671               0.006065754              -0.000046144              -0.000840969               0.002302221               0.001461252               0.000000000               0.000000000               0.000000000               0.000000000              -0.000158840               0.005874789              -0.000004906              -0.000793912               0.002222880               0.001428969               0.000000000               0.000000000               0.000000000               0.000000000              -0.000105086               0.005708368               0.000023389              -0.000752951               0.002153754               0.001400803               0.000000000               0.000000000               0.000000000               0.000000000              -0.000054852               0.005561587               0.000027068              -0.000715766               0.002092433               0.001376667               0.000000000               0.000000000               0.000000000               0.000000000              -0.000043383               0.005470446               0.000030363              -0.000700073               0.002056821               0.001356749               0.000000000               0.000000000               0.000000000               0.000000000               0.000623222               0.006202764              -0.002630869              -0.000541638               0.002248112               0.001706474               0.000000000               0.000000000               0.000000000               0.000000000              -0.000813706               0.007267409              -0.002077980              -0.001213564               0.002826966               0.001613402               0.000000000               0.000000000               0.000000000               0.000000000              -0.001922986               0.008447903              -0.001415643              -0.001777104               0.003408307               0.001631204               0.000000000               0.000000000               0.000000000               0.000000000              -0.001961458               0.008502618              -0.001026956              -0.001798370               0.003433634               0.001635264               0.000000000               0.000000000               0.000000000               0.000000000              -0.001739422               0.008273194              -0.000785188              -0.001686428               0.003319846               0.001633418               0.000000000               0.000000000               0.000000000               0.000000000              -0.001453442               0.007976020              -0.000626968              -0.001542040               0.003172660               0.001630620               0.000000000               0.000000000               0.000000000               0.000000000              -0.001157678               0.007679852              -0.000522009              -0.001394107               0.003024627               0.001630520               0.000000000               0.000000000               0.000000000               0.000000000              -0.000893904               0.007361888              -0.000445995              -0.001255447               0.002872420               0.001616973               0.000000000               0.000000000               0.000000000               0.000000000              -0.000665321               0.007021266              -0.000389280              -0.001127151               0.002716116               0.001588965               0.000000000               0.000000000               0.000000000               0.000000000              -0.000473117               0.006681297              -0.000335961              -0.001012579               0.002564603               0.001552024               0.000000000               0.000000000               0.000000000               0.000000000              -0.000327148               0.006366969              -0.000271864              -0.000918549               0.002428485               0.001509936               0.000000000               0.000000000               0.000000000               0.000000000              -0.000230612               0.006094080              -0.000196632              -0.000848237               0.002314085               0.001465848               0.000000000               0.000000000               0.000000000               0.000000000              -0.000177657               0.005859445              -0.000119407              -0.000799050               0.002219479               0.001420429               0.000000000               0.000000000               0.000000000               0.000000000              -0.000149127               0.005650623              -0.000051274              -0.000762249               0.002137605               0.001375356               0.000000000               0.000000000               0.000000000               0.000000000              -0.000127646               0.005457331              -0.000001795              -0.000730032               0.002062436               0.001332404               0.000000000               0.000000000               0.000000000               0.000000000              -0.000109518               0.005285680               0.000019025              -0.000701777               0.001995802               0.001294024               0.000000000               0.000000000               0.000000000               0.000000000              -0.000098056               0.005199720               0.000021959              -0.000686734               0.001962134               0.001275400               0.000000000               0.000000000               0.000000000               0.000000000              -0.000263163               0.004453595              -0.001902796              -0.000655385               0.001702978               0.001047593               0.000000000               0.000000000               0.000000000               0.000000000              -0.001263947               0.005888362              -0.001947676              -0.001210023               0.002366108               0.001156085               0.000000000               0.000000000               0.000000000               0.000000000              -0.002154602               0.007426839              -0.001791885              -0.001736327               0.003054363               0.001318036               0.000000000               0.000000000               0.000000000               0.000000000              -0.002110173               0.007804927              -0.001469771              -0.001766927               0.003190592               0.001423665               0.000000000               0.000000000               0.000000000               0.000000000              -0.001841009               0.007792982              -0.001201175              -0.001664497               0.003152467               0.001487970               0.000000000               0.000000000               0.000000000               0.000000000              -0.001523455               0.007659364              -0.000997527              -0.001528712               0.003062667               0.001533954               0.000000000               0.000000000               0.000000000               0.000000000              -0.001209336               0.007471417              -0.000845487              -0.001387425               0.002952922               0.001565497               0.000000000               0.000000000               0.000000000               0.000000000              -0.000929916               0.007224483              -0.000727437              -0.001251776               0.002825395               0.001573620               0.000000000               0.000000000               0.000000000               0.000000000              -0.000693003               0.006933907              -0.000632516              -0.001126612               0.002686816               0.001560205               0.000000000               0.000000000               0.000000000               0.000000000              -0.000497825               0.006616823              -0.000543108              -0.001013785               0.002543514               0.001529729               0.000000000               0.000000000               0.000000000               0.000000000              -0.000345548               0.006306929              -0.000445723              -0.000917944               0.002408270               0.001490326               0.000000000               0.000000000               0.000000000               0.000000000              -0.000243976               0.006021357              -0.000339759              -0.000844159               0.002288485               0.001444327               0.000000000               0.000000000               0.000000000               0.000000000              -0.000191082               0.005770222              -0.000234197              -0.000792931               0.002187699               0.001394767               0.000000000               0.000000000               0.000000000               0.000000000              -0.000177567               0.005548291              -0.000139587              -0.000760122               0.002102786               0.001342664               0.000000000               0.000000000               0.000000000               0.000000000              -0.000186753               0.005350243              -0.000061303              -0.000738811               0.002029667               0.001290856               0.000000000               0.000000000               0.000000000               0.000000000              -0.000205959               0.005170215              -0.000011707              -0.000723510               0.001964558               0.001241048               0.000000000               0.000000000               0.000000000               0.000000000              -0.000215975               0.005078132               0.000003869              -0.000715755               0.001931279               0.001215523               0.000000000               0.000000000               0.000000000               0.000000000              -0.001443086               0.002868408              -0.001168025              -0.000899707               0.001256028               0.000356321               0.000000000               0.000000000               0.000000000               0.000000000              -0.001780311               0.004513124              -0.001748407              -0.001231755               0.001914944               0.000683189               0.000000000               0.000000000               0.000000000               0.000000000              -0.002302510               0.006252245              -0.002083683              -0.001644969               0.002632383               0.000987414               0.000000000               0.000000000               0.000000000               0.000000000              -0.002184976               0.006932546              -0.001890120              -0.001685931               0.002872802               0.001186871               0.000000000               0.000000000               0.000000000               0.000000000              -0.001895350               0.007171358              -0.001626510              -0.001607173               0.002926153               0.001318980               0.000000000               0.000000000               0.000000000               0.000000000              -0.001568870               0.007229978              -0.001392520              -0.001492070               0.002907325               0.001415255               0.000000000               0.000000000               0.000000000               0.000000000              -0.001257771               0.007178065              -0.001199679              -0.001368919               0.002848971               0.001480052               0.000000000               0.000000000               0.000000000               0.000000000              -0.000977230               0.007034774              -0.001044834              -0.001245805               0.002760169               0.001514364               0.000000000               0.000000000               0.000000000               0.000000000              -0.000729989               0.006832297              -0.000914376              -0.001127780               0.002653336               0.001525556               0.000000000               0.000000000               0.000000000               0.000000000              -0.000522511               0.006585503              -0.000792667              -0.001019127               0.002534855               0.001515728               0.000000000               0.000000000               0.000000000               0.000000000              -0.000350178               0.006316921              -0.000671456              -0.000920930               0.002412596               0.001491666               0.000000000               0.000000000               0.000000000               0.000000000              -0.000221867               0.006040279              -0.000546199              -0.000838233               0.002292817               0.001454584               0.000000000               0.000000000               0.000000000               0.000000000              -0.000145007               0.005778031              -0.000419316              -0.000776630               0.002184867               0.001408238               0.000000000               0.000000000               0.000000000               0.000000000              -0.000122730               0.005542161              -0.000294264              -0.000738792               0.002093632               0.001354840               0.000000000               0.000000000               0.000000000               0.000000000              -0.000149301               0.005340828              -0.000176955              -0.000723589               0.002021455               0.001297865               0.000000000               0.000000000               0.000000000               0.000000000              -0.000219353               0.005161836              -0.000074979              -0.000727485               0.001963090               0.001235605               0.000000000               0.000000000               0.000000000               0.000000000              -0.000281926               0.005061438              -0.000022899              -0.000738400               0.001933263               0.001194862               0.000000000               0.000000000               0.000000000               0.000000000              -0.002834466               0.001556806              -0.000483724              -0.001257523               0.000938103              -0.000319420               0.000000000               0.000000000               0.000000000               0.000000000              -0.002414128               0.003218941              -0.001460172              -0.001307663               0.001508857               0.000201193               0.000000000               0.000000000               0.000000000               0.000000000              -0.002404395               0.004939094              -0.002191703              -0.001519032               0.002152691               0.000633659               0.000000000               0.000000000               0.000000000               0.000000000              -0.002151140               0.005832463              -0.002162060              -0.001535732               0.002456045               0.000920313               0.000000000               0.000000000               0.000000000               0.000000000              -0.001831187               0.006306528              -0.001949149              -0.001475008               0.002593824               0.001118816               0.000000000               0.000000000               0.000000000               0.000000000              -0.001504007               0.006565999              -0.001718326              -0.001384750               0.002650227               0.001265478               0.000000000               0.000000000               0.000000000               0.000000000              -0.001203398               0.006673292              -0.001509391              -0.001285433               0.002652886               0.001367453               0.000000000               0.000000000               0.000000000               0.000000000              -0.000933938               0.006663472              -0.001333237              -0.001183158               0.002615521               0.001432363               0.000000000               0.000000000               0.000000000               0.000000000              -0.000691141               0.006572142              -0.001179748              -0.001080693               0.002550923               0.001470230               0.000000000               0.000000000               0.000000000               0.000000000              -0.000477755               0.006421523              -0.001035448              -0.000981847               0.002467768               0.001485922               0.000000000               0.000000000               0.000000000               0.000000000              -0.000293737               0.006231692              -0.000894727              -0.000889111               0.002373580               0.001484469               0.000000000               0.000000000               0.000000000               0.000000000              -0.000141355               0.006008693              -0.000754095              -0.000804093               0.002270909               0.001466816               0.000000000               0.000000000               0.000000000               0.000000000              -0.000026404               0.005771420              -0.000613766              -0.000731327               0.002167563               0.001436236               0.000000000               0.000000000               0.000000000               0.000000000               0.000037825               0.005542207              -0.000467877              -0.000678590               0.002073580               0.001394990               0.000000000               0.000000000               0.000000000               0.000000000               0.000037126               0.005339792              -0.000312858              -0.000653550               0.001997763               0.001344213               0.000000000               0.000000000               0.000000000               0.000000000              -0.000038142               0.005160792              -0.000153355              -0.000659401               0.001940047               0.001280646               0.000000000               0.000000000               0.000000000               0.000000000              -0.000123162               0.005058026              -0.000064362              -0.000678437               0.001912137               0.001233700               0.000000000               0.000000000               0.000000000               0.000000000              -0.004325044               0.000586378               0.000059942              -0.001695187               0.000760517              -0.000934670               0.000000000               0.000000000               0.000000000               0.000000000              -0.003121603               0.002073493              -0.001120040              -0.001429785               0.001167751              -0.000262034               0.000000000               0.000000000               0.000000000               0.000000000              -0.002484027               0.003597496              -0.002092745              -0.001381195               0.001659551               0.000278356               0.000000000               0.000000000               0.000000000               0.000000000              -0.002030683               0.004595604              -0.002214317              -0.001335955               0.001977170               0.000641216               0.000000000               0.000000000               0.000000000               0.000000000              -0.001654449               0.005255754              -0.002078310              -0.001277385               0.002177695               0.000900309               0.000000000               0.000000000               0.000000000               0.000000000              -0.001324474               0.005702180              -0.001880064              -0.001209448               0.002303856               0.001094408               0.000000000               0.000000000               0.000000000               0.000000000              -0.001036359               0.005969110              -0.001684609              -0.001134771               0.002367940               0.001233169               0.000000000               0.000000000               0.000000000               0.000000000              -0.000782114               0.006101562              -0.001511257              -0.001055986               0.002385828               0.001329843               0.000000000               0.000000000               0.000000000               0.000000000              -0.000551171               0.006139621              -0.001353147              -0.000974140               0.002371233               0.001397093               0.000000000               0.000000000               0.000000000               0.000000000              -0.000339358               0.006103235              -0.001201600              -0.000890162               0.002331112               0.001440950               0.000000000               0.000000000               0.000000000               0.000000000              -0.000150021               0.006013145              -0.001054040              -0.000807900               0.002273661               0.001465762               0.000000000               0.000000000               0.000000000               0.000000000               0.000023133               0.005877522              -0.000913138              -0.000726014               0.002201159               0.001475145               0.000000000               0.000000000               0.000000000               0.000000000               0.000180771               0.005705930              -0.000772198              -0.000645451               0.002117108               0.001471657               0.000000000               0.000000000               0.000000000               0.000000000               0.000306485               0.005518920              -0.000613838              -0.000574932               0.002031265               0.001456333               0.000000000               0.000000000               0.000000000               0.000000000               0.000376959               0.005334556              -0.000430693              -0.000525459               0.001953320               0.001427862               0.000000000               0.000000000               0.000000000               0.000000000               0.000374058               0.005161872              -0.000225321              -0.000504961               0.001888927               0.001383966               0.000000000               0.000000000               0.000000000               0.000000000               0.000334034               0.005068833              -0.000112003              -0.000508340               0.001859041               0.001350701               0.000000000               0.000000000               0.000000000               0.000000000              -0.005764711              -0.000053136               0.000381380              -0.002155123               0.000700657              -0.001454465               0.000000000               0.000000000               0.000000000               0.000000000              -0.003834425               0.001142488              -0.000776926              -0.001580718               0.000907729              -0.000672989               0.000000000               0.000000000               0.000000000               0.000000000              -0.002557420               0.002357812              -0.001785464              -0.001253757               0.001203847              -0.000049910               0.000000000               0.000000000               0.000000000               0.000000000              -0.001860172               0.003362030              -0.002001215              -0.001117816               0.001493270               0.000375453               0.000000000               0.000000000               0.000000000               0.000000000              -0.001400198               0.004141540              -0.001941883              -0.001042765               0.001728087               0.000685322               0.000000000               0.000000000               0.000000000               0.000000000              -0.001051593               0.004732764              -0.001796955              -0.000985941               0.001906218               0.000920277               0.000000000               0.000000000               0.000000000               0.000000000              -0.000768068               0.005141393              -0.001637572              -0.000930698               0.002024013               0.001093314               0.000000000               0.000000000               0.000000000               0.000000000              -0.000527781               0.005405544              -0.001487450              -0.000873609               0.002093033               0.001219423               0.000000000               0.000000000               0.000000000               0.000000000              -0.000314932               0.005563743              -0.001345469              -0.000813566               0.002125751               0.001312185               0.000000000               0.000000000               0.000000000               0.000000000              -0.000113861               0.005647043              -0.001204430              -0.000748577               0.002131854               0.001383278               0.000000000               0.000000000               0.000000000               0.000000000               0.000083334               0.005665753              -0.001069982              -0.000676968               0.002114221               0.001437253               0.000000000               0.000000000               0.000000000               0.000000000               0.000278413               0.005626261              -0.000947179              -0.000598877               0.002075027               0.001476150               0.000000000               0.000000000               0.000000000               0.000000000               0.000471861               0.005547367              -0.000820488              -0.000516472               0.002021261               0.001504789               0.000000000               0.000000000               0.000000000               0.000000000               0.000658226               0.005436649              -0.000667756              -0.000432745               0.001956446               0.001523701               0.000000000               0.000000000               0.000000000               0.000000000               0.000826037               0.005301947              -0.000481558              -0.000352979               0.001884958               0.001531979               0.000000000               0.000000000               0.000000000               0.000000000               0.000956303               0.005154137              -0.000259125              -0.000285653               0.001813246               0.001527593               0.000000000               0.000000000               0.000000000               0.000000000               0.001025955               0.005084268              -0.000140907              -0.000250800               0.001778339               0.001527539               0.000000000               0.000000000               0.000000000               0.000000000              -0.006973210              -0.000419514               0.000450066              -0.002562513               0.000714328              -0.001848185               0.000000000               0.000000000               0.000000000               0.000000000              -0.004457330               0.000466912              -0.000469736              -0.001729861               0.000732253              -0.000997609               0.000000000               0.000000000               0.000000000               0.000000000              -0.002630612               0.001353883              -0.001299308              -0.001155713               0.000836526              -0.000319187               0.000000000               0.000000000               0.000000000               0.000000000              -0.001693494               0.002301333              -0.001521398              -0.000922726               0.001074678               0.000151952               0.000000000               0.000000000               0.000000000               0.000000000              -0.001133969               0.003136838              -0.001513761              -0.000817342               0.001318049               0.000500707               0.000000000               0.000000000               0.000000000               0.000000000              -0.000752202               0.003821087              -0.001426426              -0.000759710               0.001526919               0.000767209               0.000000000               0.000000000               0.000000000               0.000000000              -0.000468047               0.004332216              -0.001317725              -0.000717044               0.001683072               0.000966028               0.000000000               0.000000000               0.000000000               0.000000000              -0.000238324               0.004703327              -0.001206442              -0.000677286               0.001793522               0.001116236               0.000000000               0.000000000               0.000000000               0.000000000              -0.000039031               0.004967146              -0.001096502              -0.000635529               0.001867542               0.001232013               0.000000000               0.000000000               0.000000000               0.000000000               0.000151845               0.005149878              -0.000988875              -0.000586792               0.001912206               0.001325414               0.000000000               0.000000000               0.000000000               0.000000000               0.000352269               0.005265695              -0.000889408              -0.000526110               0.001930584               0.001404474               0.000000000               0.000000000               0.000000000               0.000000000               0.000563745               0.005323091              -0.000797347              -0.000453981               0.001925673               0.001471692               0.000000000               0.000000000               0.000000000               0.000000000               0.000786030               0.005335041              -0.000699676              -0.000372118               0.001902368               0.001530250               0.000000000               0.000000000               0.000000000               0.000000000               0.001024353               0.005304959              -0.000579698              -0.000278987               0.001861298               0.001582311               0.000000000               0.000000000               0.000000000               0.000000000               0.001283844               0.005235992              -0.000425979              -0.000173057               0.001802999               0.001629942               0.000000000               0.000000000               0.000000000               0.000000000               0.001560568               0.005131183              -0.000230932              -0.000056185               0.001729105               0.001672921               0.000000000               0.000000000               0.000000000               0.000000000               0.001766510               0.005094722              -0.000130952               0.000025600               0.001689690               0.001715291               0.000000000               0.000000000               0.000000000               0.000000000              -0.007783679              -0.000589924               0.000291580              -0.002845137               0.000751733              -0.002093405               0.000000000               0.000000000               0.000000000               0.000000000              -0.004886700               0.000065465              -0.000215083              -0.001840694               0.000635382              -0.001205312               0.000000000               0.000000000               0.000000000               0.000000000              -0.002687650               0.000703594              -0.000681574              -0.001095817               0.000599799              -0.000496017               0.000000000               0.000000000               0.000000000               0.000000000              -0.001576308               0.001581090              -0.000821945              -0.000788750               0.000789941               0.000001190               0.000000000               0.000000000               0.000000000               0.000000000              -0.000934907               0.002428544              -0.000831603              -0.000654157               0.001027559               0.000373402               0.000000000               0.000000000               0.000000000               0.000000000              -0.000519058               0.003160646              -0.000793038              -0.000589726               0.001250113               0.000660387               0.000000000               0.000000000               0.000000000               0.000000000              -0.000231655               0.003735658              -0.000739362              -0.000553827               0.001429816               0.000875989               0.000000000               0.000000000               0.000000000               0.000000000              -0.000011117               0.004174824              -0.000680027              -0.000526021               0.001566934               0.001040913               0.000000000               0.000000000               0.000000000               0.000000000               0.000180379               0.004507246              -0.000619127              -0.000495763               0.001667654               0.001171892               0.000000000               0.000000000               0.000000000               0.000000000               0.000370580               0.004760989              -0.000560833              -0.000456155               0.001739032               0.001282877               0.000000000               0.000000000               0.000000000               0.000000000               0.000570583               0.004947264              -0.000508565              -0.000404439               0.001783884               0.001379446               0.000000000               0.000000000               0.000000000               0.000000000               0.000786797               0.005075573              -0.000459199              -0.000339397               0.001804973               0.001465576               0.000000000               0.000000000               0.000000000               0.000000000               0.001027529               0.005155058              -0.000405738              -0.000259058               0.001804688               0.001545630               0.000000000               0.000000000               0.000000000               0.000000000               0.001303424               0.005185071              -0.000339383              -0.000159350               0.001781456               0.001622107               0.000000000               0.000000000               0.000000000               0.000000000               0.001629459               0.005166209              -0.000251661              -0.000034729               0.001733629               0.001698900               0.000000000               0.000000000               0.000000000               0.000000000               0.002021661               0.005099124              -0.000138046               0.000120731               0.001659447               0.001780178               0.000000000               0.000000000               0.000000000               0.000000000               0.002338736               0.005091398              -0.000081529               0.000240599               0.001616916               0.001857515               0.000000000               0.000000000               0.000000000               0.000000000               0.000000000               0.000000000               0.000000000               0.000000000               0.000000000               0.000000000               0.000000000               0.000000000               0.000000000               0.000000000               0.000000000               0.000000000               0.000000000               0.000000000               0.000000000               0.000000000               0.000000000               0.000000000               0.000000000               0.000000000               0.000000000               0.000000000               0.000000000               0.000000000               0.000000000               0.000000000               0.000000000               0.000000000               0.000000000               0.000000000               0.000000000               0.000000000               0.000000000               0.000000000               0.000000000               0.000000000               0.000000000               0.000000000               0.000000000               0.000000000               0.000000000               0.000000000               0.000000000               0.000000000               0.000000000               0.000000000               0.000000000               0.000000000               0.000000000               0.000000000               0.000000000               0.000000000               0.000000000               0.000000000               0.000000000               0.000000000               0.000000000               0.000000000               0.000000000               0.000000000               0.000000000               0.000000000               0.000000000               0.000000000               0.000000000               0.000000000               0.000000000               0.000000000               0.000000000               0.000000000               0.000000000               0.000000000               0.000000000               0.000000000               0.000000000               0.000000000               0.000000000               0.000000000               0.000000000               0.000000000               0.000000000               0.000000000               0.000000000               0.000000000               0.000000000               0.000000000               0.000000000               0.000000000               0.000000000               0.000000000               0.000000000               0.000000000               0.000000000               0.000000000               0.000000000               0.000000000               0.000000000               0.000000000               0.000000000               0.000000000               0.000000000               0.000000000               0.000000000               0.000000000               0.000000000               0.000000000               0.000000000               0.000000000               0.000000000               0.000000000               0.000000000               0.000000000               0.000000000               0.000000000               0.000000000               0.000000000               0.000000000               0.000000000               0.000000000               0.000000000               0.000000000               0.000000000               0.000000000               0.000000000               0.000000000               0.000000000               0.000000000               0.000000000               0.000000000               0.000000000               0.000000000               0.000000000               0.000000000               0.000000000               0.000000000               0.000000000               0.000000000               0.000000000               0.000000000               0.000000000               0.000000000               0.000000000               0.000000000               0.000000000               0.000000000               0.000000000               0.000000000               0.000000000               0.000000000               0.000000000               0.000000000               0.000000000               0.000000000               0.000000000               0.000000000               0.000000000               0.000000000               0.000000000               0.000000000               0.000000000               0.000000000               0.000000000               0.000000000               0.000000000               0.000000000               0.000000000               0.000000000               0.000000000               0.000000000               0.000000000               0.000000000               0.000000000               0.000000000               0.000000000               0.000000000               0.000000000               0.000000000               0.000000000               0.000000000               0.000000000               0.000000000               0.000000000               0.000000000               0.000000000               0.000000000               0.000000000               0.000000000               0.000000000               0.000000000               0.000000000               0.000000000               0.000000000               0.000000000               0.000000000               0.000000000               0.000000000               0.000000000               0.000000000               0.000000000               0.000000000               0.000000000               0.000000000               0.000000000               0.000000000               0.000000000               0.000000000               0.000000000               0.000000000               0.000000000               0.000000000               0.000000000               0.000000000               0.000000000               0.000000000               0.000000000               0.000000000               0.000000000               0.000000000               0.000000000               0.000000000               0.000000000               0.000000000               0.000000000               0.000000000               0.000000000               0.000000000               0.000000000               0.000000000               0.000000000               0.000000000               0.000000000               0.000000000               0.000000000               0.000000000               0.000000000               0.000000000               0.000000000               0.000000000               0.000000000               0.000000000               0.000000000               0.000000000               0.000000000               0.000000000               0.000000000               0.000000000               0.000000000               0.000000000               0.000000000               0.000000000               0.000000000               0.000000000               0.000000000               0.000000000               0.000000000               0.000000000               0.000000000               0.000000000               0.000000000               0.000000000               0.000000000               0.000000000               0.000000000               0.000000000               0.000000000               0.000000000               0.000000000               0.000000000               0.000000000               0.000000000               0.000000000               0.000000000               0.000000000               0.000000000               0.000000000               0.000000000               0.000000000               0.000000000               0.000000000               0.000000000               0.000000000               0.000000000               0.000000000               0.000000000               0.000000000               0.000000000               0.000000000               0.000000000               0.000000000               0.000000000               0.000000000               0.000000000               0.000000000               0.000000000               0.000000000               0.000000000               0.000000000               0.000000000               0.000000000               0.000000000               0.000000000               0.000000000               0.000000000               0.000000000               0.000000000               0.000000000               0.000000000               0.000000000               0.000000000               0.000000000               0.000000000               0.000000000               0.000000000               0.000000000               0.000000000               0.000000000               0.000000000               0.000000000               0.000000000               0.000000000               0.000000000               0.000000000               0.000000000               0.000000000               0.000000000               0.000000000               0.000000000               0.000000000               0.000000000               0.000000000               0.000000000               0.000000000               0.000000000               0.000000000               0.000000000               0.000000000               0.000000000               0.000000000               0.000000000               0.000000000               0.001944210               0.020301121               0.001428328              -0.001808557               0.007369825               0.005561268               0.000000000               0.000000000               0.000000000               0.000000000               0.001848174               0.016093088               0.000743183              -0.001318568               0.005803831               0.004485264               0.000000000               0.000000000               0.000000000               0.000000000               0.002349516               0.012729571               0.000060614              -0.000710126               0.004479856               0.003769730               0.000000000               0.000000000               0.000000000               0.000000000               0.002237783               0.010843435              -0.000227654              -0.000516260               0.003786529               0.003270269               0.000000000               0.000000000               0.000000000               0.000000000               0.001948295               0.009667571              -0.000348344              -0.000477835               0.003381770               0.002903935               0.000000000               0.000000000               0.000000000               0.000000000               0.001627798               0.008867346              -0.000391188              -0.000497993               0.003121750               0.002623757               0.000000000               0.000000000               0.000000000               0.000000000               0.001329204               0.008277732              -0.000397760              -0.000536264               0.002937971               0.002401707               0.000000000               0.000000000               0.000000000               0.000000000               0.001066863               0.007812924              -0.000391650              -0.000576541               0.002796462               0.002219922               0.000000000               0.000000000               0.000000000               0.000000000               0.000838496               0.007418642              -0.000376681              -0.000612893               0.002677154               0.002064261               0.000000000               0.000000000               0.000000000               0.000000000               0.000643609               0.007063203              -0.000356417              -0.000641546               0.002568226               0.001926680               0.000000000               0.000000000               0.000000000               0.000000000               0.000482401               0.006727804              -0.000334925              -0.000660074               0.002462603               0.001802530               0.000000000               0.000000000               0.000000000               0.000000000               0.000349905               0.006400208              -0.000311488              -0.000668810               0.002356318               0.001687508               0.000000000               0.000000000               0.000000000               0.000000000               0.000239107               0.006069047              -0.000285374              -0.000668964               0.002245984               0.001577020               0.000000000               0.000000000               0.000000000               0.000000000               0.000145079               0.005721946              -0.000250440              -0.000660837               0.002127575               0.001466738               0.000000000               0.000000000               0.000000000               0.000000000               0.000073518               0.005347783              -0.000195563              -0.000640902               0.001996211               0.001355309               0.000000000               0.000000000               0.000000000               0.000000000               0.000028743               0.004933142              -0.000112231              -0.000605863               0.001846318               0.001240456               0.000000000               0.000000000               0.000000000               0.000000000              -0.000018564               0.004624695              -0.000068563              -0.000585047               0.001736565               0.001151518               0.000000000               0.000000000               0.000000000               0.000000000               0.002134594               0.019117726               0.002667011              -0.001589240               0.006902258               0.005313018               0.000000000               0.000000000               0.000000000               0.000000000               0.001759345               0.015324863               0.001388827              -0.001255851               0.005526854               0.004271003               0.000000000               0.000000000               0.000000000               0.000000000               0.001964779               0.012400333               0.000128435              -0.000813247               0.004404485               0.003591238               0.000000000               0.000000000               0.000000000               0.000000000               0.001745181               0.010737094              -0.000386590              -0.000687692               0.003808226               0.003120534               0.000000000               0.000000000               0.000000000               0.000000000               0.001438224               0.009673572              -0.000594243              -0.000669861               0.003447779               0.002777918               0.000000000               0.000000000               0.000000000               0.000000000               0.001141781               0.008923992              -0.000666218              -0.000687330               0.003203744               0.002516414               0.000000000               0.000000000               0.000000000               0.000000000               0.000887583               0.008358134              -0.000677740              -0.000711921               0.003023324               0.002311403               0.000000000               0.000000000               0.000000000               0.000000000               0.000676909               0.007902407              -0.000663486              -0.000733958               0.002878762               0.002144804               0.000000000               0.000000000               0.000000000               0.000000000               0.000501908               0.007508809              -0.000633787              -0.000750384               0.002753039               0.002002655               0.000000000               0.000000000               0.000000000               0.000000000               0.000361258               0.007151343              -0.000596091              -0.000758444               0.002636572               0.001878127               0.000000000               0.000000000               0.000000000               0.000000000               0.000250716               0.006817019              -0.000555480              -0.000758107               0.002525019               0.001766912               0.000000000               0.000000000               0.000000000               0.000000000               0.000163172               0.006497554              -0.000512567              -0.000751003               0.002416164               0.001665161               0.000000000               0.000000000               0.000000000               0.000000000               0.000096791               0.006187860              -0.000462155              -0.000737184               0.002308328               0.001571143               0.000000000               0.000000000               0.000000000               0.000000000               0.000048418               0.005880989              -0.000395733              -0.000716965               0.002199298               0.001482333               0.000000000               0.000000000               0.000000000               0.000000000               0.000020165               0.005576079              -0.000299708              -0.000689446               0.002088490               0.001399043               0.000000000               0.000000000               0.000000000               0.000000000               0.000006113               0.005275459              -0.000167127              -0.000657138               0.001977515               0.001320376               0.000000000               0.000000000               0.000000000               0.000000000              -0.000017045               0.005077152              -0.000098526              -0.000641034               0.001906045               0.001265011               0.000000000               0.000000000               0.000000000               0.000000000               0.002338657               0.017315184               0.003560967              -0.001287401               0.006200803               0.004913403               0.000000000               0.000000000               0.000000000               0.000000000               0.001574642               0.014172035               0.001863970              -0.001181011               0.005117635               0.003936623               0.000000000               0.000000000               0.000000000               0.000000000               0.001369838               0.011898937               0.000212011              -0.000973675               0.004290831               0.003317156               0.000000000               0.000000000               0.000000000               0.000000000               0.001025870               0.010550436              -0.000429981              -0.000934101               0.003828144               0.002894043               0.000000000               0.000000000               0.000000000               0.000000000               0.000717110               0.009639619              -0.000675530              -0.000936034               0.003525185               0.002589152               0.000000000               0.000000000               0.000000000               0.000000000               0.000475990               0.008963304              -0.000755589              -0.000941915               0.003301709               0.002359795               0.000000000               0.000000000               0.000000000               0.000000000               0.000297609               0.008427336              -0.000765969              -0.000941812               0.003123021               0.002181210               0.000000000               0.000000000               0.000000000               0.000000000               0.000165866               0.007977951              -0.000746683              -0.000935042               0.002970971               0.002035929               0.000000000               0.000000000               0.000000000               0.000000000               0.000070324               0.007586024              -0.000706923              -0.000921879               0.002835942               0.001914063               0.000000000               0.000000000               0.000000000               0.000000000               0.000001887               0.007228928              -0.000657223              -0.000902906               0.002710587               0.001807681               0.000000000               0.000000000               0.000000000               0.000000000              -0.000039709               0.006901993              -0.000605346              -0.000877638               0.002593187               0.001715549               0.000000000               0.000000000               0.000000000               0.000000000              -0.000057092               0.006602528              -0.000551062              -0.000846724               0.002483062               0.001636338               0.000000000               0.000000000               0.000000000               0.000000000              -0.000057397               0.006328003              -0.000488454              -0.000812522               0.002380154               0.001567632               0.000000000               0.000000000               0.000000000               0.000000000              -0.000047496               0.006078715              -0.000407959              -0.000777649               0.002285434               0.001507786               0.000000000               0.000000000               0.000000000               0.000000000              -0.000033059               0.005862273              -0.000298686              -0.000745180               0.002202465               0.001457285               0.000000000               0.000000000               0.000000000               0.000000000              -0.000017649               0.005693699              -0.000160303              -0.000718329               0.002137324               0.001418995               0.000000000               0.000000000               0.000000000               0.000000000              -0.000014923               0.005608434              -0.000088039              -0.000706649               0.002105009               0.001398360               0.000000000               0.000000000               0.000000000               0.000000000               0.002437861               0.015097384               0.004041143              -0.000972976               0.005356735               0.004383760               0.000000000               0.000000000               0.000000000               0.000000000               0.001271922               0.012778649               0.002151821              -0.001120359               0.004632960               0.003512601               0.000000000               0.000000000               0.000000000               0.000000000               0.000638582               0.011282988               0.000333718              -0.001170902               0.004151259               0.002980357               0.000000000               0.000000000               0.000000000               0.000000000               0.000208721               0.010279025              -0.000332735              -0.001206605               0.003828509               0.002621904               0.000000000               0.000000000               0.000000000               0.000000000              -0.000061725               0.009529267              -0.000574460              -0.001214302               0.003581158               0.002366856               0.000000000               0.000000000               0.000000000               0.000000000              -0.000216361               0.008928725              -0.000649791              -0.001197223               0.003375286               0.002178063               0.000000000               0.000000000               0.000000000               0.000000000              -0.000296151               0.008425366              -0.000657729              -0.001164225               0.003196502               0.002032277               0.000000000               0.000000000               0.000000000               0.000000000              -0.000331136               0.007989441              -0.000638540              -0.001122854               0.003037405               0.001914551               0.000000000               0.000000000               0.000000000               0.000000000              -0.000334497               0.007601428              -0.000600877              -0.001075612               0.002892321               0.001816709               0.000000000               0.000000000               0.000000000               0.000000000              -0.000314281               0.007254619              -0.000551186              -0.001024680               0.002759742               0.001735062               0.000000000               0.000000000               0.000000000               0.000000000              -0.000277195               0.006946356              -0.000499910              -0.000972240               0.002639509               0.001667269               0.000000000               0.000000000               0.000000000               0.000000000              -0.000224333               0.006675644              -0.000445050              -0.000918578               0.002531385               0.001612807               0.000000000               0.000000000               0.000000000               0.000000000              -0.000164626               0.006437770              -0.000381856              -0.000866454               0.002434720               0.001568266               0.000000000               0.000000000               0.000000000               0.000000000              -0.000108036               0.006239278              -0.000305916              -0.000820421               0.002353212               0.001532791               0.000000000               0.000000000               0.000000000               0.000000000              -0.000059420               0.006092386              -0.000214244              -0.000783829               0.002292051               0.001508223               0.000000000               0.000000000               0.000000000               0.000000000              -0.000023979               0.006003226              -0.000108814              -0.000759393               0.002254186               0.001494793               0.000000000               0.000000000               0.000000000               0.000000000              -0.000011388               0.005971280              -0.000054721              -0.000750679               0.002240633               0.001489954               0.000000000               0.000000000               0.000000000               0.000000000               0.002329153               0.012692056               0.004110553              -0.000713077               0.004468334               0.003755258               0.000000000               0.000000000               0.000000000               0.000000000               0.000847984               0.011289613               0.002271422              -0.001093206               0.004127568               0.003034362               0.000000000               0.000000000               0.000000000               0.000000000              -0.000137028               0.010597682               0.000514393              -0.001376092               0.003991223               0.002615130               0.000000000               0.000000000               0.000000000               0.000000000              -0.000575430               0.009917403              -0.000099580              -0.001455458               0.003790921               0.002335463               0.000000000               0.000000000               0.000000000               0.000000000              -0.000756066               0.009314128              -0.000319952              -0.001447787               0.003587274               0.002139487               0.000000000               0.000000000               0.000000000               0.000000000              -0.000799786               0.008790526              -0.000390275              -0.001398732               0.003396390               0.001997658               0.000000000               0.000000000               0.000000000               0.000000000              -0.000769869               0.008327660              -0.000405959              -0.001329655               0.003219077               0.001889422               0.000000000               0.000000000               0.000000000               0.000000000              -0.000700854               0.007917810              -0.000399110              -0.001252543               0.003056758               0.001804215               0.000000000               0.000000000               0.000000000               0.000000000              -0.000614697               0.007548414              -0.000373655              -0.001174060               0.002907466               0.001733406               0.000000000               0.000000000               0.000000000               0.000000000              -0.000517710               0.007221503              -0.000336545              -0.001096826               0.002772752               0.001675926               0.000000000               0.000000000               0.000000000               0.000000000              -0.000415172               0.006931977              -0.000297993              -0.001022184               0.002651364               0.001629180               0.000000000               0.000000000               0.000000000               0.000000000              -0.000313478               0.006675185              -0.000255503              -0.000951950               0.002542356               0.001590406               0.000000000               0.000000000               0.000000000               0.000000000              -0.000220050               0.006453460              -0.000209195              -0.000889199               0.002447532               0.001558332               0.000000000               0.000000000               0.000000000               0.000000000              -0.000139739               0.006277372              -0.000162562              -0.000837072               0.002371460               0.001534389               0.000000000               0.000000000               0.000000000               0.000000000              -0.000078051               0.006148002              -0.000110992              -0.000797768               0.002315236               0.001517468               0.000000000               0.000000000               0.000000000               0.000000000              -0.000032532               0.006056831              -0.000054222              -0.000769301               0.002275357               0.001506056               0.000000000               0.000000000               0.000000000               0.000000000              -0.000022736               0.006005049              -0.000031828              -0.000759155               0.002254715               0.001495560               0.000000000               0.000000000               0.000000000               0.000000000               0.001959835               0.010301300               0.003834552              -0.000552727               0.003617974               0.003065247               0.000000000               0.000000000               0.000000000               0.000000000               0.000324285               0.009821882               0.002268932              -0.001106127               0.003642636               0.002536509               0.000000000               0.000000000               0.000000000               0.000000000              -0.000867624               0.009878929               0.000761534              -0.001560221               0.003813017               0.002252796               0.000000000               0.000000000               0.000000000               0.000000000              -0.001223166               0.009476421               0.000235903              -0.001643236               0.003706521               0.002063285               0.000000000               0.000000000               0.000000000               0.000000000              -0.001270709               0.009000472               0.000029102              -0.001601571               0.003533984               0.001932413               0.000000000               0.000000000               0.000000000               0.000000000              -0.001191178               0.008549000              -0.000053809              -0.001515313               0.003354743               0.001839430               0.000000000               0.000000000               0.000000000               0.000000000              -0.001054454               0.008135412              -0.000088986              -0.001412343               0.003182558               0.001770215               0.000000000               0.000000000               0.000000000               0.000000000              -0.000897830               0.007763007              -0.000102680              -0.001307059               0.003023330               0.001716271               0.000000000               0.000000000               0.000000000               0.000000000              -0.000740206               0.007423175              -0.000098407              -0.001205471               0.002876191               0.001670720               0.000000000               0.000000000               0.000000000               0.000000000              -0.000586934               0.007106556              -0.000085968              -0.001108417               0.002738301               0.001629884               0.000000000               0.000000000               0.000000000               0.000000000              -0.000447705               0.006812134              -0.000072436              -0.001019403               0.002610490               0.001591086               0.000000000               0.000000000               0.000000000               0.000000000              -0.000329995               0.006546500              -0.000059600              -0.000942058               0.002496164               0.001554106               0.000000000               0.000000000               0.000000000               0.000000000              -0.000234823               0.006322012              -0.000051132              -0.000878308               0.002400086               0.001521778               0.000000000               0.000000000               0.000000000               0.000000000              -0.000159303               0.006142280              -0.000048827              -0.000827522               0.002323247               0.001495725               0.000000000               0.000000000               0.000000000               0.000000000              -0.000098719               0.005996439              -0.000044248              -0.000786572               0.002260984               0.001474411               0.000000000               0.000000000               0.000000000               0.000000000              -0.000046996               0.005871646              -0.000028583              -0.000751577               0.002207722               0.001456144               0.000000000               0.000000000               0.000000000               0.000000000              -0.000041790               0.005784518              -0.000028886              -0.000738734               0.002174398               0.001435664               0.000000000               0.000000000               0.000000000               0.000000000               0.001358313               0.008082121               0.003306521              -0.000500900               0.002860979               0.002360079               0.000000000               0.000000000               0.000000000               0.000000000              -0.000257582               0.008468942               0.002188783              -0.001155210               0.003208022               0.002052812               0.000000000               0.000000000               0.000000000               0.000000000              -0.001475586               0.009151446               0.001063948              -0.001697272               0.003616209               0.001918937               0.000000000               0.000000000               0.000000000               0.000000000              -0.001677129               0.008974443               0.000621729              -0.001750725               0.003575026               0.001824301               0.000000000               0.000000000               0.000000000               0.000000000              -0.001573864               0.008615346               0.000406999              -0.001667113               0.003427458               0.001760344               0.000000000               0.000000000               0.000000000               0.000000000              -0.001377343               0.008232330               0.000291892              -0.001545541               0.003259263               0.001713722               0.000000000               0.000000000               0.000000000               0.000000000              -0.001151367               0.007875013               0.000226290              -0.001416136               0.003097023               0.001680888               0.000000000               0.000000000               0.000000000               0.000000000              -0.000928130               0.007539198               0.000182492              -0.001290445               0.002943189               0.001652744               0.000000000               0.000000000               0.000000000               0.000000000              -0.000724264               0.007205526               0.000157385              -0.001172287               0.002792580               0.001620294               0.000000000               0.000000000               0.000000000               0.000000000              -0.000551763               0.006874959               0.000140076              -0.001066278               0.002647056               0.001580778               0.000000000               0.000000000               0.000000000               0.000000000              -0.000409687               0.006565109               0.000116681              -0.000974269               0.002513104               0.001538835               0.000000000               0.000000000               0.000000000               0.000000000              -0.000300493               0.006293015               0.000085168              -0.000899310               0.002397421               0.001498111               0.000000000               0.000000000               0.000000000               0.000000000              -0.000220671               0.006065754               0.000046144              -0.000840969               0.002302221               0.001461252               0.000000000               0.000000000               0.000000000               0.000000000              -0.000158840               0.005874789               0.000004906              -0.000793912               0.002222880               0.001428969               0.000000000               0.000000000               0.000000000               0.000000000              -0.000105086               0.005708368              -0.000023389              -0.000752951               0.002153754               0.001400803               0.000000000               0.000000000               0.000000000               0.000000000              -0.000054852               0.005561587              -0.000027068              -0.000715766               0.002092433               0.001376667               0.000000000               0.000000000               0.000000000               0.000000000              -0.000043383               0.005470446              -0.000030363              -0.000700073               0.002056821               0.001356749               0.000000000               0.000000000               0.000000000               0.000000000               0.000623222               0.006202764               0.002630869              -0.000541638               0.002248112               0.001706474               0.000000000               0.000000000               0.000000000               0.000000000              -0.000813706               0.007267409               0.002077980              -0.001213564               0.002826966               0.001613402               0.000000000               0.000000000               0.000000000               0.000000000              -0.001922986               0.008447903               0.001415643              -0.001777104               0.003408307               0.001631204               0.000000000               0.000000000               0.000000000               0.000000000              -0.001961458               0.008502618               0.001026956              -0.001798370               0.003433634               0.001635264               0.000000000               0.000000000               0.000000000               0.000000000              -0.001739422               0.008273194               0.000785188              -0.001686428               0.003319846               0.001633418               0.000000000               0.000000000               0.000000000               0.000000000              -0.001453442               0.007976020               0.000626968              -0.001542040               0.003172660               0.001630620               0.000000000               0.000000000               0.000000000               0.000000000              -0.001157678               0.007679852               0.000522009              -0.001394107               0.003024627               0.001630520               0.000000000               0.000000000               0.000000000               0.000000000              -0.000893904               0.007361888               0.000445995              -0.001255447               0.002872420               0.001616973               0.000000000               0.000000000               0.000000000               0.000000000              -0.000665321               0.007021266               0.000389280              -0.001127151               0.002716116               0.001588965               0.000000000               0.000000000               0.000000000               0.000000000              -0.000473117               0.006681297               0.000335961              -0.001012579               0.002564603               0.001552024               0.000000000               0.000000000               0.000000000               0.000000000              -0.000327148               0.006366969               0.000271864              -0.000918549               0.002428485               0.001509936               0.000000000               0.000000000               0.000000000               0.000000000              -0.000230612               0.006094080               0.000196632              -0.000848237               0.002314085               0.001465848               0.000000000               0.000000000               0.000000000               0.000000000              -0.000177657               0.005859445               0.000119407              -0.000799050               0.002219479               0.001420429               0.000000000               0.000000000               0.000000000               0.000000000              -0.000149127               0.005650623               0.000051274              -0.000762249               0.002137605               0.001375356               0.000000000               0.000000000               0.000000000               0.000000000              -0.000127646               0.005457331               0.000001795              -0.000730032               0.002062436               0.001332404               0.000000000               0.000000000               0.000000000               0.000000000              -0.000109518               0.005285680              -0.000019025              -0.000701777               0.001995802               0.001294024               0.000000000               0.000000000               0.000000000               0.000000000              -0.000098056               0.005199720              -0.000021959              -0.000686734               0.001962134               0.001275400               0.000000000               0.000000000               0.000000000               0.000000000              -0.000263163               0.004453595               0.001902796              -0.000655385               0.001702978               0.001047593               0.000000000               0.000000000               0.000000000               0.000000000              -0.001263947               0.005888362               0.001947676              -0.001210023               0.002366108               0.001156085               0.000000000               0.000000000               0.000000000               0.000000000              -0.002154602               0.007426839               0.001791885              -0.001736327               0.003054363               0.001318036               0.000000000               0.000000000               0.000000000               0.000000000              -0.002110173               0.007804927               0.001469771              -0.001766927               0.003190592               0.001423665               0.000000000               0.000000000               0.000000000               0.000000000              -0.001841009               0.007792982               0.001201175              -0.001664497               0.003152467               0.001487970               0.000000000               0.000000000               0.000000000               0.000000000              -0.001523455               0.007659364               0.000997527              -0.001528712               0.003062667               0.001533954               0.000000000               0.000000000               0.000000000               0.000000000              -0.001209336               0.007471417               0.000845487              -0.001387425               0.002952922               0.001565497               0.000000000               0.000000000               0.000000000               0.000000000              -0.000929916               0.007224483               0.000727437              -0.001251776               0.002825395               0.001573620               0.000000000               0.000000000               0.000000000               0.000000000              -0.000693003               0.006933907               0.000632516              -0.001126612               0.002686816               0.001560205               0.000000000               0.000000000               0.000000000               0.000000000              -0.000497825               0.006616823               0.000543108              -0.001013785               0.002543514               0.001529729               0.000000000               0.000000000               0.000000000               0.000000000              -0.000345548               0.006306929               0.000445723              -0.000917944               0.002408270               0.001490326               0.000000000               0.000000000               0.000000000               0.000000000              -0.000243976               0.006021357               0.000339759              -0.000844159               0.002288485               0.001444327               0.000000000               0.000000000               0.000000000               0.000000000              -0.000191082               0.005770222               0.000234197              -0.000792931               0.002187699               0.001394767               0.000000000               0.000000000               0.000000000               0.000000000              -0.000177567               0.005548291               0.000139587              -0.000760122               0.002102786               0.001342664               0.000000000               0.000000000               0.000000000               0.000000000              -0.000186753               0.005350243               0.000061303              -0.000738811               0.002029667               0.001290856               0.000000000               0.000000000               0.000000000               0.000000000              -0.000205959               0.005170215               0.000011707              -0.000723510               0.001964558               0.001241048               0.000000000               0.000000000               0.000000000               0.000000000              -0.000215975               0.005078132              -0.000003869              -0.000715755               0.001931279               0.001215523               0.000000000               0.000000000               0.000000000               0.000000000              -0.001443086               0.002868408               0.001168025              -0.000899707               0.001256028               0.000356321               0.000000000               0.000000000               0.000000000               0.000000000              -0.001780311               0.004513124               0.001748407              -0.001231755               0.001914944               0.000683189               0.000000000               0.000000000               0.000000000               0.000000000              -0.002302510               0.006252245               0.002083683              -0.001644969               0.002632383               0.000987414               0.000000000               0.000000000               0.000000000               0.000000000              -0.002184976               0.006932546               0.001890120              -0.001685931               0.002872802               0.001186871               0.000000000               0.000000000               0.000000000               0.000000000              -0.001895350               0.007171358               0.001626510              -0.001607173               0.002926153               0.001318980               0.000000000               0.000000000               0.000000000               0.000000000              -0.001568870               0.007229978               0.001392520              -0.001492070               0.002907325               0.001415255               0.000000000               0.000000000               0.000000000               0.000000000              -0.001257771               0.007178065               0.001199679              -0.001368919               0.002848971               0.001480052               0.000000000               0.000000000               0.000000000               0.000000000              -0.000977230               0.007034774               0.001044834              -0.001245805               0.002760169               0.001514364               0.000000000               0.000000000               0.000000000               0.000000000              -0.000729989               0.006832297               0.000914376              -0.001127780               0.002653336               0.001525556               0.000000000               0.000000000               0.000000000               0.000000000              -0.000522511               0.006585503               0.000792667              -0.001019127               0.002534855               0.001515728               0.000000000               0.000000000               0.000000000               0.000000000              -0.000350178               0.006316921               0.000671456              -0.000920930               0.002412596               0.001491666               0.000000000               0.000000000               0.000000000               0.000000000              -0.000221867               0.006040279               0.000546199              -0.000838233               0.002292817               0.001454584               0.000000000               0.000000000               0.000000000               0.000000000              -0.000145007               0.005778031               0.000419316              -0.000776630               0.002184867               0.001408238               0.000000000               0.000000000               0.000000000               0.000000000              -0.000122730               0.005542161               0.000294264              -0.000738792               0.002093632               0.001354840               0.000000000               0.000000000               0.000000000               0.000000000              -0.000149301               0.005340828               0.000176955              -0.000723589               0.002021455               0.001297865               0.000000000               0.000000000               0.000000000               0.000000000              -0.000219353               0.005161836               0.000074979              -0.000727485               0.001963090               0.001235605               0.000000000               0.000000000               0.000000000               0.000000000              -0.000281926               0.005061438               0.000022899              -0.000738400               0.001933263               0.001194862               0.000000000               0.000000000               0.000000000               0.000000000              -0.002834466               0.001556806               0.000483724              -0.001257523               0.000938103              -0.000319420               0.000000000               0.000000000               0.000000000               0.000000000              -0.002414128               0.003218941               0.001460172              -0.001307663               0.001508857               0.000201193               0.000000000               0.000000000               0.000000000               0.000000000              -0.002404395               0.004939094               0.002191703              -0.001519032               0.002152691               0.000633659               0.000000000               0.000000000               0.000000000               0.000000000              -0.002151140               0.005832463               0.002162060              -0.001535732               0.002456045               0.000920313               0.000000000               0.000000000               0.000000000               0.000000000              -0.001831187               0.006306528               0.001949149              -0.001475008               0.002593824               0.001118816               0.000000000               0.000000000               0.000000000               0.000000000              -0.001504007               0.006565999               0.001718326              -0.001384750               0.002650227               0.001265478               0.000000000               0.000000000               0.000000000               0.000000000              -0.001203398               0.006673292               0.001509391              -0.001285433               0.002652886               0.001367453               0.000000000               0.000000000               0.000000000               0.000000000              -0.000933938               0.006663472               0.001333237              -0.001183158               0.002615521               0.001432363               0.000000000               0.000000000               0.000000000               0.000000000              -0.000691141               0.006572142               0.001179748              -0.001080693               0.002550923               0.001470230               0.000000000               0.000000000               0.000000000               0.000000000              -0.000477755               0.006421523               0.001035448              -0.000981847               0.002467768               0.001485922               0.000000000               0.000000000               0.000000000               0.000000000              -0.000293737               0.006231692               0.000894727              -0.000889111               0.002373580               0.001484469               0.000000000               0.000000000               0.000000000               0.000000000              -0.000141355               0.006008693               0.000754095              -0.000804093               0.002270909               0.001466816               0.000000000               0.000000000               0.000000000               0.000000000              -0.000026404               0.005771420               0.000613766              -0.000731327               0.002167563               0.001436236               0.000000000               0.000000000               0.000000000               0.000000000               0.000037825               0.005542207               0.000467877              -0.000678590               0.002073580               0.001394990               0.000000000               0.000000000               0.000000000               0.000000000               0.000037126               0.005339792               0.000312858              -0.000653550               0.001997763               0.001344213               0.000000000               0.000000000               0.000000000               0.000000000              -0.000038142               0.005160792               0.000153355              -0.000659401               0.001940047               0.001280646               0.000000000               0.000000000               0.000000000               0.000000000              -0.000123162               0.005058026               0.000064362              -0.000678437               0.001912137               0.001233700               0.000000000               0.000000000               0.000000000               0.000000000              -0.004325044               0.000586378              -0.000059942              -0.001695187               0.000760517              -0.000934670               0.000000000               0.000000000               0.000000000               0.000000000              -0.003121603               0.002073493               0.001120040              -0.001429785               0.001167751              -0.000262034               0.000000000               0.000000000               0.000000000               0.000000000              -0.002484027               0.003597496               0.002092745              -0.001381195               0.001659551               0.000278356               0.000000000               0.000000000               0.000000000               0.000000000              -0.002030683               0.004595604               0.002214317              -0.001335955               0.001977170               0.000641216               0.000000000               0.000000000               0.000000000               0.000000000              -0.001654449               0.005255754               0.002078310              -0.001277385               0.002177695               0.000900309               0.000000000               0.000000000               0.000000000               0.000000000              -0.001324474               0.005702180               0.001880064              -0.001209448               0.002303856               0.001094408               0.000000000               0.000000000               0.000000000               0.000000000              -0.001036359               0.005969110               0.001684609              -0.001134771               0.002367940               0.001233169               0.000000000               0.000000000               0.000000000               0.000000000              -0.000782114               0.006101562               0.001511257              -0.001055986               0.002385828               0.001329843               0.000000000               0.000000000               0.000000000               0.000000000              -0.000551171               0.006139621               0.001353147              -0.000974140               0.002371233               0.001397093               0.000000000               0.000000000               0.000000000               0.000000000              -0.000339358               0.006103235               0.001201600              -0.000890162               0.002331112               0.001440950               0.000000000               0.000000000               0.000000000               0.000000000              -0.000150021               0.006013145               0.001054040              -0.000807900               0.002273661               0.001465762               0.000000000               0.000000000               0.000000000               0.000000000               0.000023133               0.005877522               0.000913138              -0.000726014               0.002201159               0.001475145               0.000000000               0.000000000               0.000000000               0.000000000               0.000180771               0.005705930               0.000772198              -0.000645451               0.002117108               0.001471657               0.000000000               0.000000000               0.000000000               0.000000000               0.000306485               0.005518920               0.000613838              -0.000574932               0.002031265               0.001456333               0.000000000               0.000000000               0.000000000               0.000000000               0.000376959               0.005334556               0.000430693              -0.000525459               0.001953320               0.001427862               0.000000000               0.000000000               0.000000000               0.000000000               0.000374058               0.005161872               0.000225321              -0.000504961               0.001888927               0.001383966               0.000000000               0.000000000               0.000000000               0.000000000               0.000334034               0.005068833               0.000112003              -0.000508340               0.001859041               0.001350701               0.000000000               0.000000000               0.000000000               0.000000000              -0.005764711              -0.000053136              -0.000381380              -0.002155123               0.000700657              -0.001454465               0.000000000               0.000000000               0.000000000               0.000000000              -0.003834425               0.001142488               0.000776926              -0.001580718               0.000907729              -0.000672989               0.000000000               0.000000000               0.000000000               0.000000000              -0.002557420               0.002357812               0.001785464              -0.001253757               0.001203847              -0.000049910               0.000000000               0.000000000               0.000000000               0.000000000              -0.001860172               0.003362030               0.002001215              -0.001117816               0.001493270               0.000375453               0.000000000               0.000000000               0.000000000               0.000000000              -0.001400198               0.004141540               0.001941883              -0.001042765               0.001728087               0.000685322               0.000000000               0.000000000               0.000000000               0.000000000              -0.001051593               0.004732764               0.001796955              -0.000985941               0.001906218               0.000920277               0.000000000               0.000000000               0.000000000               0.000000000              -0.000768068               0.005141393               0.001637572              -0.000930698               0.002024013               0.001093314               0.000000000               0.000000000               0.000000000               0.000000000              -0.000527781               0.005405544               0.001487450              -0.000873609               0.002093033               0.001219423               0.000000000               0.000000000               0.000000000               0.000000000              -0.000314932               0.005563743               0.001345469              -0.000813566               0.002125751               0.001312185               0.000000000               0.000000000               0.000000000               0.000000000              -0.000113861               0.005647043               0.001204430              -0.000748577               0.002131854               0.001383278               0.000000000               0.000000000               0.000000000               0.000000000               0.000083334               0.005665753               0.001069982              -0.000676968               0.002114221               0.001437253               0.000000000               0.000000000               0.000000000               0.000000000               0.000278413               0.005626261               0.000947179              -0.000598877               0.002075027               0.001476150               0.000000000               0.000000000               0.000000000               0.000000000               0.000471861               0.005547367               0.000820488              -0.000516472               0.002021261               0.001504789               0.000000000               0.000000000               0.000000000               0.000000000               0.000658226               0.005436649               0.000667756              -0.000432745               0.001956446               0.001523701               0.000000000               0.000000000               0.000000000               0.000000000               0.000826037               0.005301947               0.000481558              -0.000352979               0.001884958               0.001531979               0.000000000               0.000000000               0.000000000               0.000000000               0.000956303               0.005154137               0.000259125              -0.000285653               0.001813246               0.001527593               0.000000000               0.000000000               0.000000000               0.000000000               0.001025955               0.005084268               0.000140907              -0.000250800               0.001778339               0.001527539               0.000000000               0.000000000               0.000000000               0.000000000              -0.006973210              -0.000419514              -0.000450066              -0.002562513               0.000714328              -0.001848185               0.000000000               0.000000000               0.000000000               0.000000000              -0.004457330               0.000466912               0.000469736              -0.001729861               0.000732253              -0.000997609               0.000000000               0.000000000               0.000000000               0.000000000              -0.002630612               0.001353883               0.001299308              -0.001155713               0.000836526              -0.000319187               0.000000000               0.000000000               0.000000000               0.000000000              -0.001693494               0.002301333               0.001521398              -0.000922726               0.001074678               0.000151952               0.000000000               0.000000000               0.000000000               0.000000000              -0.001133969               0.003136838               0.001513761              -0.000817342               0.001318049               0.000500707               0.000000000               0.000000000               0.000000000               0.000000000              -0.000752202               0.003821087               0.001426426              -0.000759710               0.001526919               0.000767209               0.000000000               0.000000000               0.000000000               0.000000000              -0.000468047               0.004332216               0.001317725              -0.000717044               0.001683072               0.000966028               0.000000000               0.000000000               0.000000000               0.000000000              -0.000238324               0.004703327               0.001206442              -0.000677286               0.001793522               0.001116236               0.000000000               0.000000000               0.000000000               0.000000000              -0.000039031               0.004967146               0.001096502              -0.000635529               0.001867542               0.001232013               0.000000000               0.000000000               0.000000000               0.000000000               0.000151845               0.005149878               0.000988875              -0.000586792               0.001912206               0.001325414               0.000000000               0.000000000               0.000000000               0.000000000               0.000352269               0.005265695               0.000889408              -0.000526110               0.001930584               0.001404474               0.000000000               0.000000000               0.000000000               0.000000000               0.000563745               0.005323091               0.000797347              -0.000453981               0.001925673               0.001471692               0.000000000               0.000000000               0.000000000               0.000000000               0.000786030               0.005335041               0.000699676              -0.000372118               0.001902368               0.001530250               0.000000000               0.000000000               0.000000000               0.000000000               0.001024353               0.005304959               0.000579698              -0.000278987               0.001861298               0.001582311               0.000000000               0.000000000               0.000000000               0.000000000               0.001283844               0.005235992               0.000425979              -0.000173057               0.001802999               0.001629942               0.000000000               0.000000000               0.000000000               0.000000000               0.001560568               0.005131183               0.000230932              -0.000056185               0.001729105               0.001672921               0.000000000               0.000000000               0.000000000               0.000000000               0.001766510               0.005094722               0.000130952               0.000025600               0.001689690               0.001715291               0.000000000               0.000000000               0.000000000               0.000000000              -0.007783679              -0.000589924              -0.000291580              -0.002845137               0.000751733              -0.002093405               0.000000000               0.000000000               0.000000000               0.000000000              -0.004886700               0.000065465               0.000215083              -0.001840694               0.000635382              -0.001205312               0.000000000               0.000000000               0.000000000               0.000000000              -0.002687650               0.000703594               0.000681574              -0.001095817               0.000599799              -0.000496017               0.000000000               0.000000000               0.000000000               0.000000000              -0.001576308               0.001581090               0.000821945              -0.000788750               0.000789941               0.000001190               0.000000000               0.000000000               0.000000000               0.000000000              -0.000934907               0.002428544               0.000831603              -0.000654157               0.001027559               0.000373402               0.000000000               0.000000000               0.000000000               0.000000000              -0.000519058               0.003160646               0.000793038              -0.000589726               0.001250113               0.000660387               0.000000000               0.000000000               0.000000000               0.000000000              -0.000231655               0.003735658               0.000739362              -0.000553827               0.001429816               0.000875989               0.000000000               0.000000000               0.000000000               0.000000000              -0.000011117               0.004174824               0.000680027              -0.000526021               0.001566934               0.001040913               0.000000000               0.000000000               0.000000000               0.000000000               0.000180379               0.004507246               0.000619127              -0.000495763               0.001667654               0.001171892               0.000000000               0.000000000               0.000000000               0.000000000               0.000370580               0.004760989               0.000560833              -0.000456155               0.001739032               0.001282877               0.000000000               0.000000000               0.000000000               0.000000000               0.000570583               0.004947264               0.000508565              -0.000404439               0.001783884               0.001379446               0.000000000               0.000000000               0.000000000               0.000000000               0.000786797               0.005075573               0.000459199              -0.000339397               0.001804973               0.001465576               0.000000000               0.000000000               0.000000000               0.000000000               0.001027529               0.005155058               0.000405738              -0.000259058               0.001804688               0.001545630               0.000000000               0.000000000               0.000000000               0.000000000               0.001303424               0.005185071               0.000339383              -0.000159350               0.001781456               0.001622107               0.000000000               0.000000000               0.000000000               0.000000000               0.001629459               0.005166209               0.000251661              -0.000034729               0.001733629               0.001698900               0.000000000               0.000000000               0.000000000               0.000000000               0.002021661               0.005099124               0.000138046               0.000120731               0.001659447               0.001780178               0.000000000               0.000000000               0.000000000               0.000000000               0.002338736               0.005091398               0.000081529               0.000240599               0.001616916               0.001857515               0.000000000               0.000000000               0.000000000               0.000000000               0.000000000               0.000000000               0.000000000               0.000000000               0.000000000               0.000000000               0.000000000               0.000000000               0.000000000               0.000000000               0.000000000               0.000000000               0.000000000               0.000000000               0.000000000               0.000000000               0.000000000               0.000000000               0.000000000               0.000000000               0.000000000               0.000000000               0.000000000               0.000000000               0.000000000               0.000000000               0.000000000               0.000000000               0.000000000               0.000000000               0.000000000               0.000000000               0.000000000               0.000000000               0.000000000               0.000000000               0.000000000               0.000000000               0.000000000               0.000000000               0.000000000               0.000000000               0.000000000               0.000000000               0.000000000               0.000000000               0.000000000               0.000000000               0.000000000               0.000000000               0.000000000               0.000000000               0.000000000               0.000000000               0.000000000               0.000000000               0.000000000               0.000000000               0.000000000               0.000000000               0.000000000               0.000000000               0.000000000               0.000000000               0.000000000               0.000000000               0.000000000               0.000000000               0.000000000               0.000000000               0.000000000               0.000000000               0.000000000               0.000000000               0.000000000               0.000000000               0.000000000               0.000000000               0.000000000               0.000000000               0.000000000               0.000000000               0.000000000               0.000000000               0.000000000               0.000000000               0.000000000               0.000000000               0.000000000               0.000000000               0.000000000               0.000000000               0.000000000               0.000000000               0.000000000               0.000000000               0.000000000               0.000000000               0.000000000               0.000000000               0.000000000               0.000000000               0.000000000               0.000000000               0.000000000               0.000000000               0.000000000               0.000000000               0.000000000               0.000000000               0.000000000               0.000000000               0.000000000               0.000000000               0.000000000               0.000000000               0.000000000               0.000000000               0.000000000               0.000000000               0.000000000               0.000000000               0.000000000               0.000000000               0.000000000               0.000000000               0.000000000               0.000000000               0.000000000               0.000000000               0.000000000               0.000000000               0.000000000               0.000000000               0.000000000               0.000000000               0.000000000               0.000000000               0.000000000               0.000000000               0.000000000               0.000000000               0.000000000               0.000000000               0.000000000               0.000000000               0.000000000               0.000000000               0.000000000               0.000000000               0.000000000               0.000000000               0.000000000               0.000000000               0.000000000               0.000000000               0.000000000               0.000000000               0.000000000               0.000000000               0.000000000               0.000000000               0.000000000               0.000000000               0.000000000               0.000000000               0.000000000               0.000000000               0.000000000               0.000000000 </DataArray>
</PointData>
</Piece>
</UnstructuredGrid> </VTKFile>
