<?xml version="1.0"?>
<VTKFile type="UnstructuredGrid" version="0.1">
<UnstructuredGrid>
<Piece NumberOfPoints="      1156" NumberOfCells="      1024">
<Points>
<DataArray type="Float64"                                    Name="coordinates"                                                      NumberOfComponents=" 3" format="ascii">
              0.133000000               0.000000000               0.000000000               0.155937500               0.000000000               0.000000000               0.178875000               0.000000000               0.000000000               0.201812500               0.000000000               0.000000000               0.224750000               0.000000000               0.000000000               0.247687500               0.000000000               0.000000000               0.270625000               0.000000000               0.000000000               0.293562500               0.000000000               0.000000000               0.316500000               0.000000000               0.000000000               0.339437500               0.000000000               0.000000000               0.362375000               0.000000000               0.000000000               0.385312500               0.000000000               0.000000000               0.408250000               0.000000000               0.000000000               0.431187500               0.000000000               0.000000000               0.454125000               0.000000000               0.000000000               0.477062500               0.000000000               0.000000000               0.500000000               0.000000000               0.000000000               0.132359569               0.013036280               0.000000000               0.155337096               0.016127762               0.000000000               0.178314623               0.019219245               0.000000000               0.201292150               0.022310727               0.000000000               0.224269676               0.025402210               0.000000000               0.247247203               0.028493692               0.000000000               0.270224730               0.031585175               0.000000000               0.293202257               0.034676657               0.000000000               0.316179784               0.037768140               0.000000000               0.339157311               0.040859622               0.000000000               0.362134838               0.043951105               0.000000000               0.385112365               0.047042587               0.000000000               0.408089892               0.050134070               0.000000000               0.431067419               0.053225552               0.000000000               0.454044946               0.056317035               0.000000000               0.477022473               0.059408517               0.000000000               0.500000000               0.062500000               0.000000000               0.130444442               0.025947013               0.000000000               0.153541665               0.032137825               0.000000000               0.176638887               0.038328636               0.000000000               0.199736109               0.044519448               0.000000000               0.222833332               0.050710260               0.000000000               0.245930554               0.056901071               0.000000000               0.269027776               0.063091883               0.000000000               0.292124999               0.069282695               0.000000000               0.315222221               0.075473506               0.000000000               0.338319444               0.081664318               0.000000000               0.361416666               0.087855130               0.000000000               0.384513888               0.094045942               0.000000000               0.407611111               0.100236753               0.000000000               0.430708333               0.106427565               0.000000000               0.453805555               0.112618377               0.000000000               0.476902778               0.118809188               0.000000000               0.500000000               0.125000000               0.000000000               0.127273065               0.038607862               0.000000000               0.150568498               0.047913621               0.000000000               0.173863932               0.057219379               0.000000000               0.197159365               0.066525138               0.000000000               0.220454798               0.075830897               0.000000000               0.243750232               0.085136655               0.000000000               0.267045665               0.094442414               0.000000000               0.290341099               0.103748172               0.000000000               0.313636532               0.113053931               0.000000000               0.336931966               0.122359690               0.000000000               0.360227399               0.131665448               0.000000000               0.383522833               0.140971207               0.000000000               0.406818266               0.150276966               0.000000000               0.430113700               0.159582724               0.000000000               0.453409133               0.168888483               0.000000000               0.476704567               0.178194241               0.000000000               0.500000000               0.187500000               0.000000000               0.122875978               0.050896897               0.000000000               0.146446229               0.063340840               0.000000000               0.170016481               0.075784784               0.000000000               0.193586732               0.088228728               0.000000000               0.217156983               0.100672672               0.000000000               0.240727235               0.113116616               0.000000000               0.264297486               0.125560560               0.000000000               0.287867738               0.138004504               0.000000000               0.311437989               0.150448448               0.000000000               0.335008240               0.162892392               0.000000000               0.358578492               0.175336336               0.000000000               0.382148743               0.187780280               0.000000000               0.405718994               0.200224224               0.000000000               0.429289246               0.212668168               0.000000000               0.452859497               0.225112112               0.000000000               0.476429749               0.237556056               0.000000000               0.500000000               0.250000000               0.000000000               0.117295528               0.062695766               0.000000000               0.141214558               0.078308531               0.000000000               0.165133587               0.093921295               0.000000000               0.189052617               0.109534060               0.000000000               0.212971646               0.125146824               0.000000000               0.236890676               0.140759589               0.000000000               0.260809705               0.156372354               0.000000000               0.284728735               0.171985118               0.000000000               0.308647764               0.187597883               0.000000000               0.332566794               0.203210648               0.000000000               0.356485823               0.218823412               0.000000000               0.380404853               0.234436177               0.000000000               0.404323882               0.250048941               0.000000000               0.428242912               0.265661706               0.000000000               0.452161941               0.281274471               0.000000000               0.476080971               0.296887235               0.000000000               0.500000000               0.312500000               0.000000000               0.110585458               0.073890841               0.000000000               0.134923867               0.092710163               0.000000000               0.159262276               0.111529486               0.000000000               0.183600685               0.130348808               0.000000000               0.207939094               0.149168131               0.000000000               0.232277503               0.167987453               0.000000000               0.256615912               0.186806776               0.000000000               0.280954320               0.205626098               0.000000000               0.305292729               0.224445420               0.000000000               0.329631138               0.243264743               0.000000000               0.353969547               0.262084065               0.000000000               0.378307956               0.280903388               0.000000000               0.402646365               0.299722710               0.000000000               0.426984773               0.318542033               0.000000000               0.451323182               0.337361355               0.000000000               0.475661591               0.356180678               0.000000000               0.500000000               0.375000000               0.000000000               0.102810390               0.084374307               0.000000000               0.127634741               0.106444663               0.000000000               0.152459092               0.128515018               0.000000000               0.177283442               0.150585374               0.000000000               0.202107793               0.172655730               0.000000000               0.226932143               0.194726086               0.000000000               0.251756494               0.216796442               0.000000000               0.276580845               0.238866798               0.000000000               0.301405195               0.260937153               0.000000000               0.326229546               0.283007509               0.000000000               0.351053896               0.305077865               0.000000000               0.375878247               0.327148221               0.000000000               0.400702598               0.349218577               0.000000000               0.425526948               0.371288933               0.000000000               0.450351299               0.393359288               0.000000000               0.475175649               0.415429644               0.000000000               0.500000000               0.437500000               0.000000000               0.094045202               0.094045202               0.000000000               0.119417377               0.119417377               0.000000000               0.144789552               0.144789552               0.000000000               0.170161727               0.170161727               0.000000000               0.195533901               0.195533901               0.000000000               0.220906076               0.220906076               0.000000000               0.246278251               0.246278251               0.000000000               0.271650426               0.271650426               0.000000000               0.297022601               0.297022601               0.000000000               0.322394776               0.322394776               0.000000000               0.347766951               0.347766951               0.000000000               0.373139126               0.373139126               0.000000000               0.398511300               0.398511300               0.000000000               0.423883475               0.423883475               0.000000000               0.449255650               0.449255650               0.000000000               0.474627825               0.474627825               0.000000000               0.500000000               0.500000000               0.000000000               0.084374307               0.102810390               0.000000000               0.106444663               0.127634741               0.000000000               0.128515018               0.152459092               0.000000000               0.150585374               0.177283442               0.000000000               0.172655730               0.202107793               0.000000000               0.194726086               0.226932143               0.000000000               0.216796442               0.251756494               0.000000000               0.238866798               0.276580845               0.000000000               0.260937153               0.301405195               0.000000000               0.283007509               0.326229546               0.000000000               0.305077865               0.351053896               0.000000000               0.327148221               0.375878247               0.000000000               0.349218577               0.400702598               0.000000000               0.371288933               0.425526948               0.000000000               0.393359288               0.450351299               0.000000000               0.415429644               0.475175649               0.000000000               0.437500000               0.500000000               0.000000000               0.073890841               0.110585458               0.000000000               0.092710163               0.134923867               0.000000000               0.111529486               0.159262276               0.000000000               0.130348808               0.183600685               0.000000000               0.149168131               0.207939094               0.000000000               0.167987453               0.232277503               0.000000000               0.186806776               0.256615912               0.000000000               0.205626098               0.280954320               0.000000000               0.224445420               0.305292729               0.000000000               0.243264743               0.329631138               0.000000000               0.262084065               0.353969547               0.000000000               0.280903388               0.378307956               0.000000000               0.299722710               0.402646365               0.000000000               0.318542033               0.426984773               0.000000000               0.337361355               0.451323182               0.000000000               0.356180678               0.475661591               0.000000000               0.375000000               0.500000000               0.000000000               0.062695766               0.117295528               0.000000000               0.078308531               0.141214558               0.000000000               0.093921295               0.165133587               0.000000000               0.109534060               0.189052617               0.000000000               0.125146824               0.212971646               0.000000000               0.140759589               0.236890676               0.000000000               0.156372354               0.260809705               0.000000000               0.171985118               0.284728735               0.000000000               0.187597883               0.308647764               0.000000000               0.203210648               0.332566794               0.000000000               0.218823412               0.356485823               0.000000000               0.234436177               0.380404853               0.000000000               0.250048941               0.404323882               0.000000000               0.265661706               0.428242912               0.000000000               0.281274471               0.452161941               0.000000000               0.296887235               0.476080971               0.000000000               0.312500000               0.500000000               0.000000000               0.050896897               0.122875978               0.000000000               0.063340840               0.146446229               0.000000000               0.075784784               0.170016481               0.000000000               0.088228728               0.193586732               0.000000000               0.100672672               0.217156983               0.000000000               0.113116616               0.240727235               0.000000000               0.125560560               0.264297486               0.000000000               0.138004504               0.287867738               0.000000000               0.150448448               0.311437989               0.000000000               0.162892392               0.335008240               0.000000000               0.175336336               0.358578492               0.000000000               0.187780280               0.382148743               0.000000000               0.200224224               0.405718994               0.000000000               0.212668168               0.429289246               0.000000000               0.225112112               0.452859497               0.000000000               0.237556056               0.476429749               0.000000000               0.250000000               0.500000000               0.000000000               0.038607862               0.127273065               0.000000000               0.047913621               0.150568498               0.000000000               0.057219379               0.173863932               0.000000000               0.066525138               0.197159365               0.000000000               0.075830897               0.220454798               0.000000000               0.085136655               0.243750232               0.000000000               0.094442414               0.267045665               0.000000000               0.103748172               0.290341099               0.000000000               0.113053931               0.313636532               0.000000000               0.122359690               0.336931966               0.000000000               0.131665448               0.360227399               0.000000000               0.140971207               0.383522833               0.000000000               0.150276966               0.406818266               0.000000000               0.159582724               0.430113700               0.000000000               0.168888483               0.453409133               0.000000000               0.178194241               0.476704567               0.000000000               0.187500000               0.500000000               0.000000000               0.025947013               0.130444442               0.000000000               0.032137825               0.153541665               0.000000000               0.038328636               0.176638887               0.000000000               0.044519448               0.199736109               0.000000000               0.050710260               0.222833332               0.000000000               0.056901071               0.245930554               0.000000000               0.063091883               0.269027776               0.000000000               0.069282695               0.292124999               0.000000000               0.075473506               0.315222221               0.000000000               0.081664318               0.338319444               0.000000000               0.087855130               0.361416666               0.000000000               0.094045942               0.384513888               0.000000000               0.100236753               0.407611111               0.000000000               0.106427565               0.430708333               0.000000000               0.112618377               0.453805555               0.000000000               0.118809188               0.476902778               0.000000000               0.125000000               0.500000000               0.000000000               0.013036280               0.132359569               0.000000000               0.016127762               0.155337096               0.000000000               0.019219245               0.178314623               0.000000000               0.022310727               0.201292150               0.000000000               0.025402210               0.224269676               0.000000000               0.028493692               0.247247203               0.000000000               0.031585175               0.270224730               0.000000000               0.034676657               0.293202257               0.000000000               0.037768140               0.316179784               0.000000000               0.040859622               0.339157311               0.000000000               0.043951105               0.362134838               0.000000000               0.047042587               0.385112365               0.000000000               0.050134070               0.408089892               0.000000000               0.053225552               0.431067419               0.000000000               0.056317035               0.454044946               0.000000000               0.059408517               0.477022473               0.000000000               0.062500000               0.500000000               0.000000000               0.000000000               0.133000000               0.000000000               0.000000000               0.155937500               0.000000000               0.000000000               0.178875000               0.000000000               0.000000000               0.201812500               0.000000000               0.000000000               0.224750000               0.000000000               0.000000000               0.247687500               0.000000000               0.000000000               0.270625000               0.000000000               0.000000000               0.293562500               0.000000000               0.000000000               0.316500000               0.000000000               0.000000000               0.339437500               0.000000000               0.000000000               0.362375000               0.000000000               0.000000000               0.385312500               0.000000000               0.000000000               0.408250000               0.000000000               0.000000000               0.431187500               0.000000000               0.000000000               0.454125000               0.000000000               0.000000000               0.477062500               0.000000000               0.000000000               0.500000000               0.000000000               0.133000000               0.000000000               0.000000000               0.155937500               0.000000000               0.000000000               0.178875000               0.000000000               0.000000000               0.201812500               0.000000000               0.000000000               0.224750000               0.000000000               0.000000000               0.247687500               0.000000000               0.000000000               0.270625000               0.000000000               0.000000000               0.293562500               0.000000000               0.000000000               0.316500000               0.000000000               0.000000000               0.339437500               0.000000000               0.000000000               0.362375000               0.000000000               0.000000000               0.385312500               0.000000000               0.000000000               0.408250000               0.000000000               0.000000000               0.431187500               0.000000000               0.000000000               0.454125000               0.000000000               0.000000000               0.477062500               0.000000000               0.000000000               0.500000000               0.000000000               0.000000000               0.132359569              -0.013036280               0.000000000               0.155337096              -0.016127762               0.000000000               0.178314623              -0.019219245               0.000000000               0.201292150              -0.022310727               0.000000000               0.224269676              -0.025402210               0.000000000               0.247247203              -0.028493692               0.000000000               0.270224730              -0.031585175               0.000000000               0.293202257              -0.034676657               0.000000000               0.316179784              -0.037768140               0.000000000               0.339157311              -0.040859622               0.000000000               0.362134838              -0.043951105               0.000000000               0.385112365              -0.047042587               0.000000000               0.408089892              -0.050134070               0.000000000               0.431067419              -0.053225552               0.000000000               0.454044946              -0.056317035               0.000000000               0.477022473              -0.059408517               0.000000000               0.500000000              -0.062500000               0.000000000               0.130444442              -0.025947013               0.000000000               0.153541665              -0.032137825               0.000000000               0.176638887              -0.038328636               0.000000000               0.199736109              -0.044519448               0.000000000               0.222833332              -0.050710260               0.000000000               0.245930554              -0.056901071               0.000000000               0.269027776              -0.063091883               0.000000000               0.292124999              -0.069282695               0.000000000               0.315222221              -0.075473506               0.000000000               0.338319444              -0.081664318               0.000000000               0.361416666              -0.087855130               0.000000000               0.384513888              -0.094045942               0.000000000               0.407611111              -0.100236753               0.000000000               0.430708333              -0.106427565               0.000000000               0.453805555              -0.112618377               0.000000000               0.476902778              -0.118809188               0.000000000               0.500000000              -0.125000000               0.000000000               0.127273065              -0.038607862               0.000000000               0.150568498              -0.047913621               0.000000000               0.173863932              -0.057219379               0.000000000               0.197159365              -0.066525138               0.000000000               0.220454798              -0.075830897               0.000000000               0.243750232              -0.085136655               0.000000000               0.267045665              -0.094442414               0.000000000               0.290341099              -0.103748172               0.000000000               0.313636532              -0.113053931               0.000000000               0.336931966              -0.122359690               0.000000000               0.360227399              -0.131665448               0.000000000               0.383522833              -0.140971207               0.000000000               0.406818266              -0.150276966               0.000000000               0.430113700              -0.159582724               0.000000000               0.453409133              -0.168888483               0.000000000               0.476704567              -0.178194241               0.000000000               0.500000000              -0.187500000               0.000000000               0.122875978              -0.050896897               0.000000000               0.146446229              -0.063340840               0.000000000               0.170016481              -0.075784784               0.000000000               0.193586732              -0.088228728               0.000000000               0.217156983              -0.100672672               0.000000000               0.240727235              -0.113116616               0.000000000               0.264297486              -0.125560560               0.000000000               0.287867738              -0.138004504               0.000000000               0.311437989              -0.150448448               0.000000000               0.335008240              -0.162892392               0.000000000               0.358578492              -0.175336336               0.000000000               0.382148743              -0.187780280               0.000000000               0.405718994              -0.200224224               0.000000000               0.429289246              -0.212668168               0.000000000               0.452859497              -0.225112112               0.000000000               0.476429749              -0.237556056               0.000000000               0.500000000              -0.250000000               0.000000000               0.117295528              -0.062695766               0.000000000               0.141214558              -0.078308531               0.000000000               0.165133587              -0.093921295               0.000000000               0.189052617              -0.109534060               0.000000000               0.212971646              -0.125146824               0.000000000               0.236890676              -0.140759589               0.000000000               0.260809705              -0.156372354               0.000000000               0.284728735              -0.171985118               0.000000000               0.308647764              -0.187597883               0.000000000               0.332566794              -0.203210648               0.000000000               0.356485823              -0.218823412               0.000000000               0.380404853              -0.234436177               0.000000000               0.404323882              -0.250048941               0.000000000               0.428242912              -0.265661706               0.000000000               0.452161941              -0.281274471               0.000000000               0.476080971              -0.296887235               0.000000000               0.500000000              -0.312500000               0.000000000               0.110585458              -0.073890841               0.000000000               0.134923867              -0.092710163               0.000000000               0.159262276              -0.111529486               0.000000000               0.183600685              -0.130348808               0.000000000               0.207939094              -0.149168131               0.000000000               0.232277503              -0.167987453               0.000000000               0.256615912              -0.186806776               0.000000000               0.280954320              -0.205626098               0.000000000               0.305292729              -0.224445420               0.000000000               0.329631138              -0.243264743               0.000000000               0.353969547              -0.262084065               0.000000000               0.378307956              -0.280903388               0.000000000               0.402646365              -0.299722710               0.000000000               0.426984773              -0.318542033               0.000000000               0.451323182              -0.337361355               0.000000000               0.475661591              -0.356180678               0.000000000               0.500000000              -0.375000000               0.000000000               0.102810390              -0.084374307               0.000000000               0.127634741              -0.106444663               0.000000000               0.152459092              -0.128515018               0.000000000               0.177283442              -0.150585374               0.000000000               0.202107793              -0.172655730               0.000000000               0.226932143              -0.194726086               0.000000000               0.251756494              -0.216796442               0.000000000               0.276580845              -0.238866798               0.000000000               0.301405195              -0.260937153               0.000000000               0.326229546              -0.283007509               0.000000000               0.351053896              -0.305077865               0.000000000               0.375878247              -0.327148221               0.000000000               0.400702598              -0.349218577               0.000000000               0.425526948              -0.371288933               0.000000000               0.450351299              -0.393359288               0.000000000               0.475175649              -0.415429644               0.000000000               0.500000000              -0.437500000               0.000000000               0.094045202              -0.094045202               0.000000000               0.119417377              -0.119417377               0.000000000               0.144789552              -0.144789552               0.000000000               0.170161727              -0.170161727               0.000000000               0.195533901              -0.195533901               0.000000000               0.220906076              -0.220906076               0.000000000               0.246278251              -0.246278251               0.000000000               0.271650426              -0.271650426               0.000000000               0.297022601              -0.297022601               0.000000000               0.322394776              -0.322394776               0.000000000               0.347766951              -0.347766951               0.000000000               0.373139126              -0.373139126               0.000000000               0.398511300              -0.398511300               0.000000000               0.423883475              -0.423883475               0.000000000               0.449255650              -0.449255650               0.000000000               0.474627825              -0.474627825               0.000000000               0.500000000              -0.500000000               0.000000000               0.084374307              -0.102810390               0.000000000               0.106444663              -0.127634741               0.000000000               0.128515018              -0.152459092               0.000000000               0.150585374              -0.177283442               0.000000000               0.172655730              -0.202107793               0.000000000               0.194726086              -0.226932143               0.000000000               0.216796442              -0.251756494               0.000000000               0.238866798              -0.276580845               0.000000000               0.260937153              -0.301405195               0.000000000               0.283007509              -0.326229546               0.000000000               0.305077865              -0.351053896               0.000000000               0.327148221              -0.375878247               0.000000000               0.349218577              -0.400702598               0.000000000               0.371288933              -0.425526948               0.000000000               0.393359288              -0.450351299               0.000000000               0.415429644              -0.475175649               0.000000000               0.437500000              -0.500000000               0.000000000               0.073890841              -0.110585458               0.000000000               0.092710163              -0.134923867               0.000000000               0.111529486              -0.159262276               0.000000000               0.130348808              -0.183600685               0.000000000               0.149168131              -0.207939094               0.000000000               0.167987453              -0.232277503               0.000000000               0.186806776              -0.256615912               0.000000000               0.205626098              -0.280954320               0.000000000               0.224445420              -0.305292729               0.000000000               0.243264743              -0.329631138               0.000000000               0.262084065              -0.353969547               0.000000000               0.280903388              -0.378307956               0.000000000               0.299722710              -0.402646365               0.000000000               0.318542033              -0.426984773               0.000000000               0.337361355              -0.451323182               0.000000000               0.356180678              -0.475661591               0.000000000               0.375000000              -0.500000000               0.000000000               0.062695766              -0.117295528               0.000000000               0.078308531              -0.141214558               0.000000000               0.093921295              -0.165133587               0.000000000               0.109534060              -0.189052617               0.000000000               0.125146824              -0.212971646               0.000000000               0.140759589              -0.236890676               0.000000000               0.156372354              -0.260809705               0.000000000               0.171985118              -0.284728735               0.000000000               0.187597883              -0.308647764               0.000000000               0.203210648              -0.332566794               0.000000000               0.218823412              -0.356485823               0.000000000               0.234436177              -0.380404853               0.000000000               0.250048941              -0.404323882               0.000000000               0.265661706              -0.428242912               0.000000000               0.281274471              -0.452161941               0.000000000               0.296887235              -0.476080971               0.000000000               0.312500000              -0.500000000               0.000000000               0.050896897              -0.122875978               0.000000000               0.063340840              -0.146446229               0.000000000               0.075784784              -0.170016481               0.000000000               0.088228728              -0.193586732               0.000000000               0.100672672              -0.217156983               0.000000000               0.113116616              -0.240727235               0.000000000               0.125560560              -0.264297486               0.000000000               0.138004504              -0.287867738               0.000000000               0.150448448              -0.311437989               0.000000000               0.162892392              -0.335008240               0.000000000               0.175336336              -0.358578492               0.000000000               0.187780280              -0.382148743               0.000000000               0.200224224              -0.405718994               0.000000000               0.212668168              -0.429289246               0.000000000               0.225112112              -0.452859497               0.000000000               0.237556056              -0.476429749               0.000000000               0.250000000              -0.500000000               0.000000000               0.038607862              -0.127273065               0.000000000               0.047913621              -0.150568498               0.000000000               0.057219379              -0.173863932               0.000000000               0.066525138              -0.197159365               0.000000000               0.075830897              -0.220454798               0.000000000               0.085136655              -0.243750232               0.000000000               0.094442414              -0.267045665               0.000000000               0.103748172              -0.290341099               0.000000000               0.113053931              -0.313636532               0.000000000               0.122359690              -0.336931966               0.000000000               0.131665448              -0.360227399               0.000000000               0.140971207              -0.383522833               0.000000000               0.150276966              -0.406818266               0.000000000               0.159582724              -0.430113700               0.000000000               0.168888483              -0.453409133               0.000000000               0.178194241              -0.476704567               0.000000000               0.187500000              -0.500000000               0.000000000               0.025947013              -0.130444442               0.000000000               0.032137825              -0.153541665               0.000000000               0.038328636              -0.176638887               0.000000000               0.044519448              -0.199736109               0.000000000               0.050710260              -0.222833332               0.000000000               0.056901071              -0.245930554               0.000000000               0.063091883              -0.269027776               0.000000000               0.069282695              -0.292124999               0.000000000               0.075473506              -0.315222221               0.000000000               0.081664318              -0.338319444               0.000000000               0.087855130              -0.361416666               0.000000000               0.094045942              -0.384513888               0.000000000               0.100236753              -0.407611111               0.000000000               0.106427565              -0.430708333               0.000000000               0.112618377              -0.453805555               0.000000000               0.118809188              -0.476902778               0.000000000               0.125000000              -0.500000000               0.000000000               0.013036280              -0.132359569               0.000000000               0.016127762              -0.155337096               0.000000000               0.019219245              -0.178314623               0.000000000               0.022310727              -0.201292150               0.000000000               0.025402210              -0.224269676               0.000000000               0.028493692              -0.247247203               0.000000000               0.031585175              -0.270224730               0.000000000               0.034676657              -0.293202257               0.000000000               0.037768140              -0.316179784               0.000000000               0.040859622              -0.339157311               0.000000000               0.043951105              -0.362134838               0.000000000               0.047042587              -0.385112365               0.000000000               0.050134070              -0.408089892               0.000000000               0.053225552              -0.431067419               0.000000000               0.056317035              -0.454044946               0.000000000               0.059408517              -0.477022473               0.000000000               0.062500000              -0.500000000               0.000000000               0.000000000              -0.133000000               0.000000000               0.000000000              -0.155937500               0.000000000               0.000000000              -0.178875000               0.000000000               0.000000000              -0.201812500               0.000000000               0.000000000              -0.224750000               0.000000000               0.000000000              -0.247687500               0.000000000               0.000000000              -0.270625000               0.000000000               0.000000000              -0.293562500               0.000000000               0.000000000              -0.316500000               0.000000000               0.000000000              -0.339437500               0.000000000               0.000000000              -0.362375000               0.000000000               0.000000000              -0.385312500               0.000000000               0.000000000              -0.408250000               0.000000000               0.000000000              -0.431187500               0.000000000               0.000000000              -0.454125000               0.000000000               0.000000000              -0.477062500               0.000000000               0.000000000              -0.500000000               0.000000000              -0.133000000               0.000000000               0.000000000              -0.155937500               0.000000000               0.000000000              -0.178875000               0.000000000               0.000000000              -0.201812500               0.000000000               0.000000000              -0.224750000               0.000000000               0.000000000              -0.247687500               0.000000000               0.000000000              -0.270625000               0.000000000               0.000000000              -0.293562500               0.000000000               0.000000000              -0.316500000               0.000000000               0.000000000              -0.339437500               0.000000000               0.000000000              -0.362375000               0.000000000               0.000000000              -0.385312500               0.000000000               0.000000000              -0.408250000               0.000000000               0.000000000              -0.431187500               0.000000000               0.000000000              -0.454125000               0.000000000               0.000000000              -0.477062500               0.000000000               0.000000000              -0.500000000               0.000000000               0.000000000              -0.132359569              -0.013036280               0.000000000              -0.155337096              -0.016127762               0.000000000              -0.178314623              -0.019219245               0.000000000              -0.201292150              -0.022310727               0.000000000              -0.224269676              -0.025402210               0.000000000              -0.247247203              -0.028493692               0.000000000              -0.270224730              -0.031585175               0.000000000              -0.293202257              -0.034676657               0.000000000              -0.316179784              -0.037768140               0.000000000              -0.339157311              -0.040859622               0.000000000              -0.362134838              -0.043951105               0.000000000              -0.385112365              -0.047042587               0.000000000              -0.408089892              -0.050134070               0.000000000              -0.431067419              -0.053225552               0.000000000              -0.454044946              -0.056317035               0.000000000              -0.477022473              -0.059408517               0.000000000              -0.500000000              -0.062500000               0.000000000              -0.130444442              -0.025947013               0.000000000              -0.153541665              -0.032137825               0.000000000              -0.176638887              -0.038328636               0.000000000              -0.199736109              -0.044519448               0.000000000              -0.222833332              -0.050710260               0.000000000              -0.245930554              -0.056901071               0.000000000              -0.269027776              -0.063091883               0.000000000              -0.292124999              -0.069282695               0.000000000              -0.315222221              -0.075473506               0.000000000              -0.338319444              -0.081664318               0.000000000              -0.361416666              -0.087855130               0.000000000              -0.384513888              -0.094045942               0.000000000              -0.407611111              -0.100236753               0.000000000              -0.430708333              -0.106427565               0.000000000              -0.453805555              -0.112618377               0.000000000              -0.476902778              -0.118809188               0.000000000              -0.500000000              -0.125000000               0.000000000              -0.127273065              -0.038607862               0.000000000              -0.150568498              -0.047913621               0.000000000              -0.173863932              -0.057219379               0.000000000              -0.197159365              -0.066525138               0.000000000              -0.220454798              -0.075830897               0.000000000              -0.243750232              -0.085136655               0.000000000              -0.267045665              -0.094442414               0.000000000              -0.290341099              -0.103748172               0.000000000              -0.313636532              -0.113053931               0.000000000              -0.336931966              -0.122359690               0.000000000              -0.360227399              -0.131665448               0.000000000              -0.383522833              -0.140971207               0.000000000              -0.406818266              -0.150276966               0.000000000              -0.430113700              -0.159582724               0.000000000              -0.453409133              -0.168888483               0.000000000              -0.476704567              -0.178194241               0.000000000              -0.500000000              -0.187500000               0.000000000              -0.122875978              -0.050896897               0.000000000              -0.146446229              -0.063340840               0.000000000              -0.170016481              -0.075784784               0.000000000              -0.193586732              -0.088228728               0.000000000              -0.217156983              -0.100672672               0.000000000              -0.240727235              -0.113116616               0.000000000              -0.264297486              -0.125560560               0.000000000              -0.287867738              -0.138004504               0.000000000              -0.311437989              -0.150448448               0.000000000              -0.335008240              -0.162892392               0.000000000              -0.358578492              -0.175336336               0.000000000              -0.382148743              -0.187780280               0.000000000              -0.405718994              -0.200224224               0.000000000              -0.429289246              -0.212668168               0.000000000              -0.452859497              -0.225112112               0.000000000              -0.476429749              -0.237556056               0.000000000              -0.500000000              -0.250000000               0.000000000              -0.117295528              -0.062695766               0.000000000              -0.141214558              -0.078308531               0.000000000              -0.165133587              -0.093921295               0.000000000              -0.189052617              -0.109534060               0.000000000              -0.212971646              -0.125146824               0.000000000              -0.236890676              -0.140759589               0.000000000              -0.260809705              -0.156372354               0.000000000              -0.284728735              -0.171985118               0.000000000              -0.308647764              -0.187597883               0.000000000              -0.332566794              -0.203210648               0.000000000              -0.356485823              -0.218823412               0.000000000              -0.380404853              -0.234436177               0.000000000              -0.404323882              -0.250048941               0.000000000              -0.428242912              -0.265661706               0.000000000              -0.452161941              -0.281274471               0.000000000              -0.476080971              -0.296887235               0.000000000              -0.500000000              -0.312500000               0.000000000              -0.110585458              -0.073890841               0.000000000              -0.134923867              -0.092710163               0.000000000              -0.159262276              -0.111529486               0.000000000              -0.183600685              -0.130348808               0.000000000              -0.207939094              -0.149168131               0.000000000              -0.232277503              -0.167987453               0.000000000              -0.256615912              -0.186806776               0.000000000              -0.280954320              -0.205626098               0.000000000              -0.305292729              -0.224445420               0.000000000              -0.329631138              -0.243264743               0.000000000              -0.353969547              -0.262084065               0.000000000              -0.378307956              -0.280903388               0.000000000              -0.402646365              -0.299722710               0.000000000              -0.426984773              -0.318542033               0.000000000              -0.451323182              -0.337361355               0.000000000              -0.475661591              -0.356180678               0.000000000              -0.500000000              -0.375000000               0.000000000              -0.102810390              -0.084374307               0.000000000              -0.127634741              -0.106444663               0.000000000              -0.152459092              -0.128515018               0.000000000              -0.177283442              -0.150585374               0.000000000              -0.202107793              -0.172655730               0.000000000              -0.226932143              -0.194726086               0.000000000              -0.251756494              -0.216796442               0.000000000              -0.276580845              -0.238866798               0.000000000              -0.301405195              -0.260937153               0.000000000              -0.326229546              -0.283007509               0.000000000              -0.351053896              -0.305077865               0.000000000              -0.375878247              -0.327148221               0.000000000              -0.400702598              -0.349218577               0.000000000              -0.425526948              -0.371288933               0.000000000              -0.450351299              -0.393359288               0.000000000              -0.475175649              -0.415429644               0.000000000              -0.500000000              -0.437500000               0.000000000              -0.094045202              -0.094045202               0.000000000              -0.119417377              -0.119417377               0.000000000              -0.144789552              -0.144789552               0.000000000              -0.170161727              -0.170161727               0.000000000              -0.195533901              -0.195533901               0.000000000              -0.220906076              -0.220906076               0.000000000              -0.246278251              -0.246278251               0.000000000              -0.271650426              -0.271650426               0.000000000              -0.297022601              -0.297022601               0.000000000              -0.322394776              -0.322394776               0.000000000              -0.347766951              -0.347766951               0.000000000              -0.373139126              -0.373139126               0.000000000              -0.398511300              -0.398511300               0.000000000              -0.423883475              -0.423883475               0.000000000              -0.449255650              -0.449255650               0.000000000              -0.474627825              -0.474627825               0.000000000              -0.500000000              -0.500000000               0.000000000              -0.084374307              -0.102810390               0.000000000              -0.106444663              -0.127634741               0.000000000              -0.128515018              -0.152459092               0.000000000              -0.150585374              -0.177283442               0.000000000              -0.172655730              -0.202107793               0.000000000              -0.194726086              -0.226932143               0.000000000              -0.216796442              -0.251756494               0.000000000              -0.238866798              -0.276580845               0.000000000              -0.260937153              -0.301405195               0.000000000              -0.283007509              -0.326229546               0.000000000              -0.305077865              -0.351053896               0.000000000              -0.327148221              -0.375878247               0.000000000              -0.349218577              -0.400702598               0.000000000              -0.371288933              -0.425526948               0.000000000              -0.393359288              -0.450351299               0.000000000              -0.415429644              -0.475175649               0.000000000              -0.437500000              -0.500000000               0.000000000              -0.073890841              -0.110585458               0.000000000              -0.092710163              -0.134923867               0.000000000              -0.111529486              -0.159262276               0.000000000              -0.130348808              -0.183600685               0.000000000              -0.149168131              -0.207939094               0.000000000              -0.167987453              -0.232277503               0.000000000              -0.186806776              -0.256615912               0.000000000              -0.205626098              -0.280954320               0.000000000              -0.224445420              -0.305292729               0.000000000              -0.243264743              -0.329631138               0.000000000              -0.262084065              -0.353969547               0.000000000              -0.280903388              -0.378307956               0.000000000              -0.299722710              -0.402646365               0.000000000              -0.318542033              -0.426984773               0.000000000              -0.337361355              -0.451323182               0.000000000              -0.356180678              -0.475661591               0.000000000              -0.375000000              -0.500000000               0.000000000              -0.062695766              -0.117295528               0.000000000              -0.078308531              -0.141214558               0.000000000              -0.093921295              -0.165133587               0.000000000              -0.109534060              -0.189052617               0.000000000              -0.125146824              -0.212971646               0.000000000              -0.140759589              -0.236890676               0.000000000              -0.156372354              -0.260809705               0.000000000              -0.171985118              -0.284728735               0.000000000              -0.187597883              -0.308647764               0.000000000              -0.203210648              -0.332566794               0.000000000              -0.218823412              -0.356485823               0.000000000              -0.234436177              -0.380404853               0.000000000              -0.250048941              -0.404323882               0.000000000              -0.265661706              -0.428242912               0.000000000              -0.281274471              -0.452161941               0.000000000              -0.296887235              -0.476080971               0.000000000              -0.312500000              -0.500000000               0.000000000              -0.050896897              -0.122875978               0.000000000              -0.063340840              -0.146446229               0.000000000              -0.075784784              -0.170016481               0.000000000              -0.088228728              -0.193586732               0.000000000              -0.100672672              -0.217156983               0.000000000              -0.113116616              -0.240727235               0.000000000              -0.125560560              -0.264297486               0.000000000              -0.138004504              -0.287867738               0.000000000              -0.150448448              -0.311437989               0.000000000              -0.162892392              -0.335008240               0.000000000              -0.175336336              -0.358578492               0.000000000              -0.187780280              -0.382148743               0.000000000              -0.200224224              -0.405718994               0.000000000              -0.212668168              -0.429289246               0.000000000              -0.225112112              -0.452859497               0.000000000              -0.237556056              -0.476429749               0.000000000              -0.250000000              -0.500000000               0.000000000              -0.038607862              -0.127273065               0.000000000              -0.047913621              -0.150568498               0.000000000              -0.057219379              -0.173863932               0.000000000              -0.066525138              -0.197159365               0.000000000              -0.075830897              -0.220454798               0.000000000              -0.085136655              -0.243750232               0.000000000              -0.094442414              -0.267045665               0.000000000              -0.103748172              -0.290341099               0.000000000              -0.113053931              -0.313636532               0.000000000              -0.122359690              -0.336931966               0.000000000              -0.131665448              -0.360227399               0.000000000              -0.140971207              -0.383522833               0.000000000              -0.150276966              -0.406818266               0.000000000              -0.159582724              -0.430113700               0.000000000              -0.168888483              -0.453409133               0.000000000              -0.178194241              -0.476704567               0.000000000              -0.187500000              -0.500000000               0.000000000              -0.025947013              -0.130444442               0.000000000              -0.032137825              -0.153541665               0.000000000              -0.038328636              -0.176638887               0.000000000              -0.044519448              -0.199736109               0.000000000              -0.050710260              -0.222833332               0.000000000              -0.056901071              -0.245930554               0.000000000              -0.063091883              -0.269027776               0.000000000              -0.069282695              -0.292124999               0.000000000              -0.075473506              -0.315222221               0.000000000              -0.081664318              -0.338319444               0.000000000              -0.087855130              -0.361416666               0.000000000              -0.094045942              -0.384513888               0.000000000              -0.100236753              -0.407611111               0.000000000              -0.106427565              -0.430708333               0.000000000              -0.112618377              -0.453805555               0.000000000              -0.118809188              -0.476902778               0.000000000              -0.125000000              -0.500000000               0.000000000              -0.013036280              -0.132359569               0.000000000              -0.016127762              -0.155337096               0.000000000              -0.019219245              -0.178314623               0.000000000              -0.022310727              -0.201292150               0.000000000              -0.025402210              -0.224269676               0.000000000              -0.028493692              -0.247247203               0.000000000              -0.031585175              -0.270224730               0.000000000              -0.034676657              -0.293202257               0.000000000              -0.037768140              -0.316179784               0.000000000              -0.040859622              -0.339157311               0.000000000              -0.043951105              -0.362134838               0.000000000              -0.047042587              -0.385112365               0.000000000              -0.050134070              -0.408089892               0.000000000              -0.053225552              -0.431067419               0.000000000              -0.056317035              -0.454044946               0.000000000              -0.059408517              -0.477022473               0.000000000              -0.062500000              -0.500000000               0.000000000               0.000000000              -0.133000000               0.000000000               0.000000000              -0.155937500               0.000000000               0.000000000              -0.178875000               0.000000000               0.000000000              -0.201812500               0.000000000               0.000000000              -0.224750000               0.000000000               0.000000000              -0.247687500               0.000000000               0.000000000              -0.270625000               0.000000000               0.000000000              -0.293562500               0.000000000               0.000000000              -0.316500000               0.000000000               0.000000000              -0.339437500               0.000000000               0.000000000              -0.362375000               0.000000000               0.000000000              -0.385312500               0.000000000               0.000000000              -0.408250000               0.000000000               0.000000000              -0.431187500               0.000000000               0.000000000              -0.454125000               0.000000000               0.000000000              -0.477062500               0.000000000               0.000000000              -0.500000000               0.000000000              -0.133000000               0.000000000               0.000000000              -0.155937500               0.000000000               0.000000000              -0.178875000               0.000000000               0.000000000              -0.201812500               0.000000000               0.000000000              -0.224750000               0.000000000               0.000000000              -0.247687500               0.000000000               0.000000000              -0.270625000               0.000000000               0.000000000              -0.293562500               0.000000000               0.000000000              -0.316500000               0.000000000               0.000000000              -0.339437500               0.000000000               0.000000000              -0.362375000               0.000000000               0.000000000              -0.385312500               0.000000000               0.000000000              -0.408250000               0.000000000               0.000000000              -0.431187500               0.000000000               0.000000000              -0.454125000               0.000000000               0.000000000              -0.477062500               0.000000000               0.000000000              -0.500000000               0.000000000               0.000000000              -0.132359569               0.013036280               0.000000000              -0.155337096               0.016127762               0.000000000              -0.178314623               0.019219245               0.000000000              -0.201292150               0.022310727               0.000000000              -0.224269676               0.025402210               0.000000000              -0.247247203               0.028493692               0.000000000              -0.270224730               0.031585175               0.000000000              -0.293202257               0.034676657               0.000000000              -0.316179784               0.037768140               0.000000000              -0.339157311               0.040859622               0.000000000              -0.362134838               0.043951105               0.000000000              -0.385112365               0.047042587               0.000000000              -0.408089892               0.050134070               0.000000000              -0.431067419               0.053225552               0.000000000              -0.454044946               0.056317035               0.000000000              -0.477022473               0.059408517               0.000000000              -0.500000000               0.062500000               0.000000000              -0.130444442               0.025947013               0.000000000              -0.153541665               0.032137825               0.000000000              -0.176638887               0.038328636               0.000000000              -0.199736109               0.044519448               0.000000000              -0.222833332               0.050710260               0.000000000              -0.245930554               0.056901071               0.000000000              -0.269027776               0.063091883               0.000000000              -0.292124999               0.069282695               0.000000000              -0.315222221               0.075473506               0.000000000              -0.338319444               0.081664318               0.000000000              -0.361416666               0.087855130               0.000000000              -0.384513888               0.094045942               0.000000000              -0.407611111               0.100236753               0.000000000              -0.430708333               0.106427565               0.000000000              -0.453805555               0.112618377               0.000000000              -0.476902778               0.118809188               0.000000000              -0.500000000               0.125000000               0.000000000              -0.127273065               0.038607862               0.000000000              -0.150568498               0.047913621               0.000000000              -0.173863932               0.057219379               0.000000000              -0.197159365               0.066525138               0.000000000              -0.220454798               0.075830897               0.000000000              -0.243750232               0.085136655               0.000000000              -0.267045665               0.094442414               0.000000000              -0.290341099               0.103748172               0.000000000              -0.313636532               0.113053931               0.000000000              -0.336931966               0.122359690               0.000000000              -0.360227399               0.131665448               0.000000000              -0.383522833               0.140971207               0.000000000              -0.406818266               0.150276966               0.000000000              -0.430113700               0.159582724               0.000000000              -0.453409133               0.168888483               0.000000000              -0.476704567               0.178194241               0.000000000              -0.500000000               0.187500000               0.000000000              -0.122875978               0.050896897               0.000000000              -0.146446229               0.063340840               0.000000000              -0.170016481               0.075784784               0.000000000              -0.193586732               0.088228728               0.000000000              -0.217156983               0.100672672               0.000000000              -0.240727235               0.113116616               0.000000000              -0.264297486               0.125560560               0.000000000              -0.287867738               0.138004504               0.000000000              -0.311437989               0.150448448               0.000000000              -0.335008240               0.162892392               0.000000000              -0.358578492               0.175336336               0.000000000              -0.382148743               0.187780280               0.000000000              -0.405718994               0.200224224               0.000000000              -0.429289246               0.212668168               0.000000000              -0.452859497               0.225112112               0.000000000              -0.476429749               0.237556056               0.000000000              -0.500000000               0.250000000               0.000000000              -0.117295528               0.062695766               0.000000000              -0.141214558               0.078308531               0.000000000              -0.165133587               0.093921295               0.000000000              -0.189052617               0.109534060               0.000000000              -0.212971646               0.125146824               0.000000000              -0.236890676               0.140759589               0.000000000              -0.260809705               0.156372354               0.000000000              -0.284728735               0.171985118               0.000000000              -0.308647764               0.187597883               0.000000000              -0.332566794               0.203210648               0.000000000              -0.356485823               0.218823412               0.000000000              -0.380404853               0.234436177               0.000000000              -0.404323882               0.250048941               0.000000000              -0.428242912               0.265661706               0.000000000              -0.452161941               0.281274471               0.000000000              -0.476080971               0.296887235               0.000000000              -0.500000000               0.312500000               0.000000000              -0.110585458               0.073890841               0.000000000              -0.134923867               0.092710163               0.000000000              -0.159262276               0.111529486               0.000000000              -0.183600685               0.130348808               0.000000000              -0.207939094               0.149168131               0.000000000              -0.232277503               0.167987453               0.000000000              -0.256615912               0.186806776               0.000000000              -0.280954320               0.205626098               0.000000000              -0.305292729               0.224445420               0.000000000              -0.329631138               0.243264743               0.000000000              -0.353969547               0.262084065               0.000000000              -0.378307956               0.280903388               0.000000000              -0.402646365               0.299722710               0.000000000              -0.426984773               0.318542033               0.000000000              -0.451323182               0.337361355               0.000000000              -0.475661591               0.356180678               0.000000000              -0.500000000               0.375000000               0.000000000              -0.102810390               0.084374307               0.000000000              -0.127634741               0.106444663               0.000000000              -0.152459092               0.128515018               0.000000000              -0.177283442               0.150585374               0.000000000              -0.202107793               0.172655730               0.000000000              -0.226932143               0.194726086               0.000000000              -0.251756494               0.216796442               0.000000000              -0.276580845               0.238866798               0.000000000              -0.301405195               0.260937153               0.000000000              -0.326229546               0.283007509               0.000000000              -0.351053896               0.305077865               0.000000000              -0.375878247               0.327148221               0.000000000              -0.400702598               0.349218577               0.000000000              -0.425526948               0.371288933               0.000000000              -0.450351299               0.393359288               0.000000000              -0.475175649               0.415429644               0.000000000              -0.500000000               0.437500000               0.000000000              -0.094045202               0.094045202               0.000000000              -0.119417377               0.119417377               0.000000000              -0.144789552               0.144789552               0.000000000              -0.170161727               0.170161727               0.000000000              -0.195533901               0.195533901               0.000000000              -0.220906076               0.220906076               0.000000000              -0.246278251               0.246278251               0.000000000              -0.271650426               0.271650426               0.000000000              -0.297022601               0.297022601               0.000000000              -0.322394776               0.322394776               0.000000000              -0.347766951               0.347766951               0.000000000              -0.373139126               0.373139126               0.000000000              -0.398511300               0.398511300               0.000000000              -0.423883475               0.423883475               0.000000000              -0.449255650               0.449255650               0.000000000              -0.474627825               0.474627825               0.000000000              -0.500000000               0.500000000               0.000000000              -0.084374307               0.102810390               0.000000000              -0.106444663               0.127634741               0.000000000              -0.128515018               0.152459092               0.000000000              -0.150585374               0.177283442               0.000000000              -0.172655730               0.202107793               0.000000000              -0.194726086               0.226932143               0.000000000              -0.216796442               0.251756494               0.000000000              -0.238866798               0.276580845               0.000000000              -0.260937153               0.301405195               0.000000000              -0.283007509               0.326229546               0.000000000              -0.305077865               0.351053896               0.000000000              -0.327148221               0.375878247               0.000000000              -0.349218577               0.400702598               0.000000000              -0.371288933               0.425526948               0.000000000              -0.393359288               0.450351299               0.000000000              -0.415429644               0.475175649               0.000000000              -0.437500000               0.500000000               0.000000000              -0.073890841               0.110585458               0.000000000              -0.092710163               0.134923867               0.000000000              -0.111529486               0.159262276               0.000000000              -0.130348808               0.183600685               0.000000000              -0.149168131               0.207939094               0.000000000              -0.167987453               0.232277503               0.000000000              -0.186806776               0.256615912               0.000000000              -0.205626098               0.280954320               0.000000000              -0.224445420               0.305292729               0.000000000              -0.243264743               0.329631138               0.000000000              -0.262084065               0.353969547               0.000000000              -0.280903388               0.378307956               0.000000000              -0.299722710               0.402646365               0.000000000              -0.318542033               0.426984773               0.000000000              -0.337361355               0.451323182               0.000000000              -0.356180678               0.475661591               0.000000000              -0.375000000               0.500000000               0.000000000              -0.062695766               0.117295528               0.000000000              -0.078308531               0.141214558               0.000000000              -0.093921295               0.165133587               0.000000000              -0.109534060               0.189052617               0.000000000              -0.125146824               0.212971646               0.000000000              -0.140759589               0.236890676               0.000000000              -0.156372354               0.260809705               0.000000000              -0.171985118               0.284728735               0.000000000              -0.187597883               0.308647764               0.000000000              -0.203210648               0.332566794               0.000000000              -0.218823412               0.356485823               0.000000000              -0.234436177               0.380404853               0.000000000              -0.250048941               0.404323882               0.000000000              -0.265661706               0.428242912               0.000000000              -0.281274471               0.452161941               0.000000000              -0.296887235               0.476080971               0.000000000              -0.312500000               0.500000000               0.000000000              -0.050896897               0.122875978               0.000000000              -0.063340840               0.146446229               0.000000000              -0.075784784               0.170016481               0.000000000              -0.088228728               0.193586732               0.000000000              -0.100672672               0.217156983               0.000000000              -0.113116616               0.240727235               0.000000000              -0.125560560               0.264297486               0.000000000              -0.138004504               0.287867738               0.000000000              -0.150448448               0.311437989               0.000000000              -0.162892392               0.335008240               0.000000000              -0.175336336               0.358578492               0.000000000              -0.187780280               0.382148743               0.000000000              -0.200224224               0.405718994               0.000000000              -0.212668168               0.429289246               0.000000000              -0.225112112               0.452859497               0.000000000              -0.237556056               0.476429749               0.000000000              -0.250000000               0.500000000               0.000000000              -0.038607862               0.127273065               0.000000000              -0.047913621               0.150568498               0.000000000              -0.057219379               0.173863932               0.000000000              -0.066525138               0.197159365               0.000000000              -0.075830897               0.220454798               0.000000000              -0.085136655               0.243750232               0.000000000              -0.094442414               0.267045665               0.000000000              -0.103748172               0.290341099               0.000000000              -0.113053931               0.313636532               0.000000000              -0.122359690               0.336931966               0.000000000              -0.131665448               0.360227399               0.000000000              -0.140971207               0.383522833               0.000000000              -0.150276966               0.406818266               0.000000000              -0.159582724               0.430113700               0.000000000              -0.168888483               0.453409133               0.000000000              -0.178194241               0.476704567               0.000000000              -0.187500000               0.500000000               0.000000000              -0.025947013               0.130444442               0.000000000              -0.032137825               0.153541665               0.000000000              -0.038328636               0.176638887               0.000000000              -0.044519448               0.199736109               0.000000000              -0.050710260               0.222833332               0.000000000              -0.056901071               0.245930554               0.000000000              -0.063091883               0.269027776               0.000000000              -0.069282695               0.292124999               0.000000000              -0.075473506               0.315222221               0.000000000              -0.081664318               0.338319444               0.000000000              -0.087855130               0.361416666               0.000000000              -0.094045942               0.384513888               0.000000000              -0.100236753               0.407611111               0.000000000              -0.106427565               0.430708333               0.000000000              -0.112618377               0.453805555               0.000000000              -0.118809188               0.476902778               0.000000000              -0.125000000               0.500000000               0.000000000              -0.013036280               0.132359569               0.000000000              -0.016127762               0.155337096               0.000000000              -0.019219245               0.178314623               0.000000000              -0.022310727               0.201292150               0.000000000              -0.025402210               0.224269676               0.000000000              -0.028493692               0.247247203               0.000000000              -0.031585175               0.270224730               0.000000000              -0.034676657               0.293202257               0.000000000              -0.037768140               0.316179784               0.000000000              -0.040859622               0.339157311               0.000000000              -0.043951105               0.362134838               0.000000000              -0.047042587               0.385112365               0.000000000              -0.050134070               0.408089892               0.000000000              -0.053225552               0.431067419               0.000000000              -0.056317035               0.454044946               0.000000000              -0.059408517               0.477022473               0.000000000              -0.062500000               0.500000000               0.000000000               0.000000000               0.133000000               0.000000000               0.000000000               0.155937500               0.000000000               0.000000000               0.178875000               0.000000000               0.000000000               0.201812500               0.000000000               0.000000000               0.224750000               0.000000000               0.000000000               0.247687500               0.000000000               0.000000000               0.270625000               0.000000000               0.000000000               0.293562500               0.000000000               0.000000000               0.316500000               0.000000000               0.000000000               0.339437500               0.000000000               0.000000000               0.362375000               0.000000000               0.000000000               0.385312500               0.000000000               0.000000000               0.408250000               0.000000000               0.000000000               0.431187500               0.000000000               0.000000000               0.454125000               0.000000000               0.000000000               0.477062500               0.000000000               0.000000000               0.500000000               0.000000000 </DataArray>
</Points>
<Cells>
<DataArray type="Int32"                                    Name="connectivity"                                                      NumberOfComponents=" 1" format="ascii">
         0          1         18         17          1          2         19         18          2          3         20         19          3          4         21         20          4          5         22         21          5          6         23         22          6          7         24         23          7          8         25         24          8          9         26         25          9         10         27         26         10         11         28         27         11         12         29         28         12         13         30         29         13         14         31         30         14         15         32         31         15         16         33         32         17         18         35         34         18         19         36         35         19         20         37         36         20         21         38         37         21         22         39         38         22         23         40         39         23         24         41         40         24         25         42         41         25         26         43         42         26         27         44         43         27         28         45         44         28         29         46         45         29         30         47         46         30         31         48         47         31         32         49         48         32         33         50         49         34         35         52         51         35         36         53         52         36         37         54         53         37         38         55         54         38         39         56         55         39         40         57         56         40         41         58         57         41         42         59         58         42         43         60         59         43         44         61         60         44         45         62         61         45         46         63         62         46         47         64         63         47         48         65         64         48         49         66         65         49         50         67         66         51         52         69         68         52         53         70         69         53         54         71         70         54         55         72         71         55         56         73         72         56         57         74         73         57         58         75         74         58         59         76         75         59         60         77         76         60         61         78         77         61         62         79         78         62         63         80         79         63         64         81         80         64         65         82         81         65         66         83         82         66         67         84         83         68         69         86         85         69         70         87         86         70         71         88         87         71         72         89         88         72         73         90         89         73         74         91         90         74         75         92         91         75         76         93         92         76         77         94         93         77         78         95         94         78         79         96         95         79         80         97         96         80         81         98         97         81         82         99         98         82         83        100         99         83         84        101        100         85         86        103        102         86         87        104        103         87         88        105        104         88         89        106        105         89         90        107        106         90         91        108        107         91         92        109        108         92         93        110        109         93         94        111        110         94         95        112        111         95         96        113        112         96         97        114        113         97         98        115        114         98         99        116        115         99        100        117        116        100        101        118        117        102        103        120        119        103        104        121        120        104        105        122        121        105        106        123        122        106        107        124        123        107        108        125        124        108        109        126        125        109        110        127        126        110        111        128        127        111        112        129        128        112        113        130        129        113        114        131        130        114        115        132        131        115        116        133        132        116        117        134        133        117        118        135        134        119        120        137        136        120        121        138        137        121        122        139        138        122        123        140        139        123        124        141        140        124        125        142        141        125        126        143        142        126        127        144        143        127        128        145        144        128        129        146        145        129        130        147        146        130        131        148        147        131        132        149        148        132        133        150        149        133        134        151        150        134        135        152        151        136        137        154        153        137        138        155        154        138        139        156        155        139        140        157        156        140        141        158        157        141        142        159        158        142        143        160        159        143        144        161        160        144        145        162        161        145        146        163        162        146        147        164        163        147        148        165        164        148        149        166        165        149        150        167        166        150        151        168        167        151        152        169        168        153        154        171        170        154        155        172        171        155        156        173        172        156        157        174        173        157        158        175        174        158        159        176        175        159        160        177        176        160        161        178        177        161        162        179        178        162        163        180        179        163        164        181        180        164        165        182        181        165        166        183        182        166        167        184        183        167        168        185        184        168        169        186        185        170        171        188        187        171        172        189        188        172        173        190        189        173        174        191        190        174        175        192        191        175        176        193        192        176        177        194        193        177        178        195        194        178        179        196        195        179        180        197        196        180        181        198        197        181        182        199        198        182        183        200        199        183        184        201        200        184        185        202        201        185        186        203        202        187        188        205        204        188        189        206        205        189        190        207        206        190        191        208        207        191        192        209        208        192        193        210        209        193        194        211        210        194        195        212        211        195        196        213        212        196        197        214        213        197        198        215        214        198        199        216        215        199        200        217        216        200        201        218        217        201        202        219        218        202        203        220        219        204        205        222        221        205        206        223        222        206        207        224        223        207        208        225        224        208        209        226        225        209        210        227        226        210        211        228        227        211        212        229        228        212        213        230        229        213        214        231        230        214        215        232        231        215        216        233        232        216        217        234        233        217        218        235        234        218        219        236        235        219        220        237        236        221        222        239        238        222        223        240        239        223        224        241        240        224        225        242        241        225        226        243        242        226        227        244        243        227        228        245        244        228        229        246        245        229        230        247        246        230        231        248        247        231        232        249        248        232        233        250        249        233        234        251        250        234        235        252        251        235        236        253        252        236        237        254        253        238        239        256        255        239        240        257        256        240        241        258        257        241        242        259        258        242        243        260        259        243        244        261        260        244        245        262        261        245        246        263        262        246        247        264        263        247        248        265        264        248        249        266        265        249        250        267        266        250        251        268        267        251        252        269        268        252        253        270        269        253        254        271        270        255        256        273        272        256        257        274        273        257        258        275        274        258        259        276        275        259        260        277        276        260        261        278        277        261        262        279        278        262        263        280        279        263        264        281        280        264        265        282        281        265        266        283        282        266        267        284        283        267        268        285        284        268        269        286        285        269        270        287        286        270        271        288        287        306        307          1          0        307        308          2          1        308        309          3          2        309        310          4          3        310        311          5          4        311        312          6          5        312        313          7          6        313        314          8          7        314        315          9          8        315        316         10          9        316        317         11         10        317        318         12         11        318        319         13         12        319        320         14         13        320        321         15         14        321        322         16         15        323        324        307        306        324        325        308        307        325        326        309        308        326        327        310        309        327        328        311        310        328        329        312        311        329        330        313        312        330        331        314        313        331        332        315        314        332        333        316        315        333        334        317        316        334        335        318        317        335        336        319        318        336        337        320        319        337        338        321        320        338        339        322        321        340        341        324        323        341        342        325        324        342        343        326        325        343        344        327        326        344        345        328        327        345        346        329        328        346        347        330        329        347        348        331        330        348        349        332        331        349        350        333        332        350        351        334        333        351        352        335        334        352        353        336        335        353        354        337        336        354        355        338        337        355        356        339        338        357        358        341        340        358        359        342        341        359        360        343        342        360        361        344        343        361        362        345        344        362        363        346        345        363        364        347        346        364        365        348        347        365        366        349        348        366        367        350        349        367        368        351        350        368        369        352        351        369        370        353        352        370        371        354        353        371        372        355        354        372        373        356        355        374        375        358        357        375        376        359        358        376        377        360        359        377        378        361        360        378        379        362        361        379        380        363        362        380        381        364        363        381        382        365        364        382        383        366        365        383        384        367        366        384        385        368        367        385        386        369        368        386        387        370        369        387        388        371        370        388        389        372        371        389        390        373        372        391        392        375        374        392        393        376        375        393        394        377        376        394        395        378        377        395        396        379        378        396        397        380        379        397        398        381        380        398        399        382        381        399        400        383        382        400        401        384        383        401        402        385        384        402        403        386        385        403        404        387        386        404        405        388        387        405        406        389        388        406        407        390        389        408        409        392        391        409        410        393        392        410        411        394        393        411        412        395        394        412        413        396        395        413        414        397        396        414        415        398        397        415        416        399        398        416        417        400        399        417        418        401        400        418        419        402        401        419        420        403        402        420        421        404        403        421        422        405        404        422        423        406        405        423        424        407        406        425        426        409        408        426        427        410        409        427        428        411        410        428        429        412        411        429        430        413        412        430        431        414        413        431        432        415        414        432        433        416        415        433        434        417        416        434        435        418        417        435        436        419        418        436        437        420        419        437        438        421        420        438        439        422        421        439        440        423        422        440        441        424        423        442        443        426        425        443        444        427        426        444        445        428        427        445        446        429        428        446        447        430        429        447        448        431        430        448        449        432        431        449        450        433        432        450        451        434        433        451        452        435        434        452        453        436        435        453        454        437        436        454        455        438        437        455        456        439        438        456        457        440        439        457        458        441        440        459        460        443        442        460        461        444        443        461        462        445        444        462        463        446        445        463        464        447        446        464        465        448        447        465        466        449        448        466        467        450        449        467        468        451        450        468        469        452        451        469        470        453        452        470        471        454        453        471        472        455        454        472        473        456        455        473        474        457        456        474        475        458        457        476        477        460        459        477        478        461        460        478        479        462        461        479        480        463        462        480        481        464        463        481        482        465        464        482        483        466        465        483        484        467        466        484        485        468        467        485        486        469        468        486        487        470        469        487        488        471        470        488        489        472        471        489        490        473        472        490        491        474        473        491        492        475        474        493        494        477        476        494        495        478        477        495        496        479        478        496        497        480        479        497        498        481        480        498        499        482        481        499        500        483        482        500        501        484        483        501        502        485        484        502        503        486        485        503        504        487        486        504        505        488        487        505        506        489        488        506        507        490        489        507        508        491        490        508        509        492        491        510        511        494        493        511        512        495        494        512        513        496        495        513        514        497        496        514        515        498        497        515        516        499        498        516        517        500        499        517        518        501        500        518        519        502        501        519        520        503        502        520        521        504        503        521        522        505        504        522        523        506        505        523        524        507        506        524        525        508        507        525        526        509        508        527        528        511        510        528        529        512        511        529        530        513        512        530        531        514        513        531        532        515        514        532        533        516        515        533        534        517        516        534        535        518        517        535        536        519        518        536        537        520        519        537        538        521        520        538        539        522        521        539        540        523        522        540        541        524        523        541        542        525        524        542        543        526        525        544        545        528        527        545        546        529        528        546        547        530        529        547        548        531        530        548        549        532        531        549        550        533        532        550        551        534        533        551        552        535        534        552        553        536        535        553        554        537        536        554        555        538        537        555        556        539        538        556        557        540        539        557        558        541        540        558        559        542        541        559        560        543        542        561        562        545        544        562        563        546        545        563        564        547        546        564        565        548        547        565        566        549        548        566        567        550        549        567        568        551        550        568        569        552        551        569        570        553        552        570        571        554        553        571        572        555        554        572        573        556        555        573        574        557        556        574        575        558        557        575        576        559        558        576        577        560        559        578        579        596        595        579        580        597        596        580        581        598        597        581        582        599        598        582        583        600        599        583        584        601        600        584        585        602        601        585        586        603        602        586        587        604        603        587        588        605        604        588        589        606        605        589        590        607        606        590        591        608        607        591        592        609        608        592        593        610        609        593        594        611        610        595        596        613        612        596        597        614        613        597        598        615        614        598        599        616        615        599        600        617        616        600        601        618        617        601        602        619        618        602        603        620        619        603        604        621        620        604        605        622        621        605        606        623        622        606        607        624        623        607        608        625        624        608        609        626        625        609        610        627        626        610        611        628        627        612        613        630        629        613        614        631        630        614        615        632        631        615        616        633        632        616        617        634        633        617        618        635        634        618        619        636        635        619        620        637        636        620        621        638        637        621        622        639        638        622        623        640        639        623        624        641        640        624        625        642        641        625        626        643        642        626        627        644        643        627        628        645        644        629        630        647        646        630        631        648        647        631        632        649        648        632        633        650        649        633        634        651        650        634        635        652        651        635        636        653        652        636        637        654        653        637        638        655        654        638        639        656        655        639        640        657        656        640        641        658        657        641        642        659        658        642        643        660        659        643        644        661        660        644        645        662        661        646        647        664        663        647        648        665        664        648        649        666        665        649        650        667        666        650        651        668        667        651        652        669        668        652        653        670        669        653        654        671        670        654        655        672        671        655        656        673        672        656        657        674        673        657        658        675        674        658        659        676        675        659        660        677        676        660        661        678        677        661        662        679        678        663        664        681        680        664        665        682        681        665        666        683        682        666        667        684        683        667        668        685        684        668        669        686        685        669        670        687        686        670        671        688        687        671        672        689        688        672        673        690        689        673        674        691        690        674        675        692        691        675        676        693        692        676        677        694        693        677        678        695        694        678        679        696        695        680        681        698        697        681        682        699        698        682        683        700        699        683        684        701        700        684        685        702        701        685        686        703        702        686        687        704        703        687        688        705        704        688        689        706        705        689        690        707        706        690        691        708        707        691        692        709        708        692        693        710        709        693        694        711        710        694        695        712        711        695        696        713        712        697        698        715        714        698        699        716        715        699        700        717        716        700        701        718        717        701        702        719        718        702        703        720        719        703        704        721        720        704        705        722        721        705        706        723        722        706        707        724        723        707        708        725        724        708        709        726        725        709        710        727        726        710        711        728        727        711        712        729        728        712        713        730        729        714        715        732        731        715        716        733        732        716        717        734        733        717        718        735        734        718        719        736        735        719        720        737        736        720        721        738        737        721        722        739        738        722        723        740        739        723        724        741        740        724        725        742        741        725        726        743        742        726        727        744        743        727        728        745        744        728        729        746        745        729        730        747        746        731        732        749        748        732        733        750        749        733        734        751        750        734        735        752        751        735        736        753        752        736        737        754        753        737        738        755        754        738        739        756        755        739        740        757        756        740        741        758        757        741        742        759        758        742        743        760        759        743        744        761        760        744        745        762        761        745        746        763        762        746        747        764        763        748        749        766        765        749        750        767        766        750        751        768        767        751        752        769        768        752        753        770        769        753        754        771        770        754        755        772        771        755        756        773        772        756        757        774        773        757        758        775        774        758        759        776        775        759        760        777        776        760        761        778        777        761        762        779        778        762        763        780        779        763        764        781        780        765        766        783        782        766        767        784        783        767        768        785        784        768        769        786        785        769        770        787        786        770        771        788        787        771        772        789        788        772        773        790        789        773        774        791        790        774        775        792        791        775        776        793        792        776        777        794        793        777        778        795        794        778        779        796        795        779        780        797        796        780        781        798        797        782        783        800        799        783        784        801        800        784        785        802        801        785        786        803        802        786        787        804        803        787        788        805        804        788        789        806        805        789        790        807        806        790        791        808        807        791        792        809        808        792        793        810        809        793        794        811        810        794        795        812        811        795        796        813        812        796        797        814        813        797        798        815        814        799        800        817        816        800        801        818        817        801        802        819        818        802        803        820        819        803        804        821        820        804        805        822        821        805        806        823        822        806        807        824        823        807        808        825        824        808        809        826        825        809        810        827        826        810        811        828        827        811        812        829        828        812        813        830        829        813        814        831        830        814        815        832        831        816        817        834        833        817        818        835        834        818        819        836        835        819        820        837        836        820        821        838        837        821        822        839        838        822        823        840        839        823        824        841        840        824        825        842        841        825        826        843        842        826        827        844        843        827        828        845        844        828        829        846        845        829        830        847        846        830        831        848        847        831        832        849        848        833        834        562        561        834        835        563        562        835        836        564        563        836        837        565        564        837        838        566        565        838        839        567        566        839        840        568        567        840        841        569        568        841        842        570        569        842        843        571        570        843        844        572        571        844        845        573        572        845        846        574        573        846        847        575        574        847        848        576        575        848        849        577        576        884        885        579        578        885        886        580        579        886        887        581        580        887        888        582        581        888        889        583        582        889        890        584        583        890        891        585        584        891        892        586        585        892        893        587        586        893        894        588        587        894        895        589        588        895        896        590        589        896        897        591        590        897        898        592        591        898        899        593        592        899        900        594        593        901        902        885        884        902        903        886        885        903        904        887        886        904        905        888        887        905        906        889        888        906        907        890        889        907        908        891        890        908        909        892        891        909        910        893        892        910        911        894        893        911        912        895        894        912        913        896        895        913        914        897        896        914        915        898        897        915        916        899        898        916        917        900        899        918        919        902        901        919        920        903        902        920        921        904        903        921        922        905        904        922        923        906        905        923        924        907        906        924        925        908        907        925        926        909        908        926        927        910        909        927        928        911        910        928        929        912        911        929        930        913        912        930        931        914        913        931        932        915        914        932        933        916        915        933        934        917        916        935        936        919        918        936        937        920        919        937        938        921        920        938        939        922        921        939        940        923        922        940        941        924        923        941        942        925        924        942        943        926        925        943        944        927        926        944        945        928        927        945        946        929        928        946        947        930        929        947        948        931        930        948        949        932        931        949        950        933        932        950        951        934        933        952        953        936        935        953        954        937        936        954        955        938        937        955        956        939        938        956        957        940        939        957        958        941        940        958        959        942        941        959        960        943        942        960        961        944        943        961        962        945        944        962        963        946        945        963        964        947        946        964        965        948        947        965        966        949        948        966        967        950        949        967        968        951        950        969        970        953        952        970        971        954        953        971        972        955        954        972        973        956        955        973        974        957        956        974        975        958        957        975        976        959        958        976        977        960        959        977        978        961        960        978        979        962        961        979        980        963        962        980        981        964        963        981        982        965        964        982        983        966        965        983        984        967        966        984        985        968        967        986        987        970        969        987        988        971        970        988        989        972        971        989        990        973        972        990        991        974        973        991        992        975        974        992        993        976        975        993        994        977        976        994        995        978        977        995        996        979        978        996        997        980        979        997        998        981        980        998        999        982        981        999       1000        983        982       1000       1001        984        983       1001       1002        985        984       1003       1004        987        986       1004       1005        988        987       1005       1006        989        988       1006       1007        990        989       1007       1008        991        990       1008       1009        992        991       1009       1010        993        992       1010       1011        994        993       1011       1012        995        994       1012       1013        996        995       1013       1014        997        996       1014       1015        998        997       1015       1016        999        998       1016       1017       1000        999       1017       1018       1001       1000       1018       1019       1002       1001       1020       1021       1004       1003       1021       1022       1005       1004       1022       1023       1006       1005       1023       1024       1007       1006       1024       1025       1008       1007       1025       1026       1009       1008       1026       1027       1010       1009       1027       1028       1011       1010       1028       1029       1012       1011       1029       1030       1013       1012       1030       1031       1014       1013       1031       1032       1015       1014       1032       1033       1016       1015       1033       1034       1017       1016       1034       1035       1018       1017       1035       1036       1019       1018       1037       1038       1021       1020       1038       1039       1022       1021       1039       1040       1023       1022       1040       1041       1024       1023       1041       1042       1025       1024       1042       1043       1026       1025       1043       1044       1027       1026       1044       1045       1028       1027       1045       1046       1029       1028       1046       1047       1030       1029       1047       1048       1031       1030       1048       1049       1032       1031       1049       1050       1033       1032       1050       1051       1034       1033       1051       1052       1035       1034       1052       1053       1036       1035       1054       1055       1038       1037       1055       1056       1039       1038       1056       1057       1040       1039       1057       1058       1041       1040       1058       1059       1042       1041       1059       1060       1043       1042       1060       1061       1044       1043       1061       1062       1045       1044       1062       1063       1046       1045       1063       1064       1047       1046       1064       1065       1048       1047       1065       1066       1049       1048       1066       1067       1050       1049       1067       1068       1051       1050       1068       1069       1052       1051       1069       1070       1053       1052       1071       1072       1055       1054       1072       1073       1056       1055       1073       1074       1057       1056       1074       1075       1058       1057       1075       1076       1059       1058       1076       1077       1060       1059       1077       1078       1061       1060       1078       1079       1062       1061       1079       1080       1063       1062       1080       1081       1064       1063       1081       1082       1065       1064       1082       1083       1066       1065       1083       1084       1067       1066       1084       1085       1068       1067       1085       1086       1069       1068       1086       1087       1070       1069       1088       1089       1072       1071       1089       1090       1073       1072       1090       1091       1074       1073       1091       1092       1075       1074       1092       1093       1076       1075       1093       1094       1077       1076       1094       1095       1078       1077       1095       1096       1079       1078       1096       1097       1080       1079       1097       1098       1081       1080       1098       1099       1082       1081       1099       1100       1083       1082       1100       1101       1084       1083       1101       1102       1085       1084       1102       1103       1086       1085       1103       1104       1087       1086       1105       1106       1089       1088       1106       1107       1090       1089       1107       1108       1091       1090       1108       1109       1092       1091       1109       1110       1093       1092       1110       1111       1094       1093       1111       1112       1095       1094       1112       1113       1096       1095       1113       1114       1097       1096       1114       1115       1098       1097       1115       1116       1099       1098       1116       1117       1100       1099       1117       1118       1101       1100       1118       1119       1102       1101       1119       1120       1103       1102       1120       1121       1104       1103       1122       1123       1106       1105       1123       1124       1107       1106       1124       1125       1108       1107       1125       1126       1109       1108       1126       1127       1110       1109       1127       1128       1111       1110       1128       1129       1112       1111       1129       1130       1113       1112       1130       1131       1114       1113       1131       1132       1115       1114       1132       1133       1116       1115       1133       1134       1117       1116       1134       1135       1118       1117       1135       1136       1119       1118       1136       1137       1120       1119       1137       1138       1121       1120        272        273       1123       1122        273        274       1124       1123        274        275       1125       1124        275        276       1126       1125        276        277       1127       1126        277        278       1128       1127        278        279       1129       1128        279        280       1130       1129        280        281       1131       1130        281        282       1132       1131        282        283       1133       1132        283        284       1134       1133        284        285       1135       1134        285        286       1136       1135        286        287       1137       1136        287        288       1138       1137 </DataArray>
<DataArray type="Int32"                                    Name="offsets"                                                      NumberOfComponents=" 1" format="ascii">
         4          8         12         16         20         24         28         32         36         40         44         48         52         56         60         64         68         72         76         80         84         88         92         96        100        104        108        112        116        120        124        128        132        136        140        144        148        152        156        160        164        168        172        176        180        184        188        192        196        200        204        208        212        216        220        224        228        232        236        240        244        248        252        256        260        264        268        272        276        280        284        288        292        296        300        304        308        312        316        320        324        328        332        336        340        344        348        352        356        360        364        368        372        376        380        384        388        392        396        400        404        408        412        416        420        424        428        432        436        440        444        448        452        456        460        464        468        472        476        480        484        488        492        496        500        504        508        512        516        520        524        528        532        536        540        544        548        552        556        560        564        568        572        576        580        584        588        592        596        600        604        608        612        616        620        624        628        632        636        640        644        648        652        656        660        664        668        672        676        680        684        688        692        696        700        704        708        712        716        720        724        728        732        736        740        744        748        752        756        760        764        768        772        776        780        784        788        792        796        800        804        808        812        816        820        824        828        832        836        840        844        848        852        856        860        864        868        872        876        880        884        888        892        896        900        904        908        912        916        920        924        928        932        936        940        944        948        952        956        960        964        968        972        976        980        984        988        992        996       1000       1004       1008       1012       1016       1020       1024       1028       1032       1036       1040       1044       1048       1052       1056       1060       1064       1068       1072       1076       1080       1084       1088       1092       1096       1100       1104       1108       1112       1116       1120       1124       1128       1132       1136       1140       1144       1148       1152       1156       1160       1164       1168       1172       1176       1180       1184       1188       1192       1196       1200       1204       1208       1212       1216       1220       1224       1228       1232       1236       1240       1244       1248       1252       1256       1260       1264       1268       1272       1276       1280       1284       1288       1292       1296       1300       1304       1308       1312       1316       1320       1324       1328       1332       1336       1340       1344       1348       1352       1356       1360       1364       1368       1372       1376       1380       1384       1388       1392       1396       1400       1404       1408       1412       1416       1420       1424       1428       1432       1436       1440       1444       1448       1452       1456       1460       1464       1468       1472       1476       1480       1484       1488       1492       1496       1500       1504       1508       1512       1516       1520       1524       1528       1532       1536       1540       1544       1548       1552       1556       1560       1564       1568       1572       1576       1580       1584       1588       1592       1596       1600       1604       1608       1612       1616       1620       1624       1628       1632       1636       1640       1644       1648       1652       1656       1660       1664       1668       1672       1676       1680       1684       1688       1692       1696       1700       1704       1708       1712       1716       1720       1724       1728       1732       1736       1740       1744       1748       1752       1756       1760       1764       1768       1772       1776       1780       1784       1788       1792       1796       1800       1804       1808       1812       1816       1820       1824       1828       1832       1836       1840       1844       1848       1852       1856       1860       1864       1868       1872       1876       1880       1884       1888       1892       1896       1900       1904       1908       1912       1916       1920       1924       1928       1932       1936       1940       1944       1948       1952       1956       1960       1964       1968       1972       1976       1980       1984       1988       1992       1996       2000       2004       2008       2012       2016       2020       2024       2028       2032       2036       2040       2044       2048       2052       2056       2060       2064       2068       2072       2076       2080       2084       2088       2092       2096       2100       2104       2108       2112       2116       2120       2124       2128       2132       2136       2140       2144       2148       2152       2156       2160       2164       2168       2172       2176       2180       2184       2188       2192       2196       2200       2204       2208       2212       2216       2220       2224       2228       2232       2236       2240       2244       2248       2252       2256       2260       2264       2268       2272       2276       2280       2284       2288       2292       2296       2300       2304       2308       2312       2316       2320       2324       2328       2332       2336       2340       2344       2348       2352       2356       2360       2364       2368       2372       2376       2380       2384       2388       2392       2396       2400       2404       2408       2412       2416       2420       2424       2428       2432       2436       2440       2444       2448       2452       2456       2460       2464       2468       2472       2476       2480       2484       2488       2492       2496       2500       2504       2508       2512       2516       2520       2524       2528       2532       2536       2540       2544       2548       2552       2556       2560       2564       2568       2572       2576       2580       2584       2588       2592       2596       2600       2604       2608       2612       2616       2620       2624       2628       2632       2636       2640       2644       2648       2652       2656       2660       2664       2668       2672       2676       2680       2684       2688       2692       2696       2700       2704       2708       2712       2716       2720       2724       2728       2732       2736       2740       2744       2748       2752       2756       2760       2764       2768       2772       2776       2780       2784       2788       2792       2796       2800       2804       2808       2812       2816       2820       2824       2828       2832       2836       2840       2844       2848       2852       2856       2860       2864       2868       2872       2876       2880       2884       2888       2892       2896       2900       2904       2908       2912       2916       2920       2924       2928       2932       2936       2940       2944       2948       2952       2956       2960       2964       2968       2972       2976       2980       2984       2988       2992       2996       3000       3004       3008       3012       3016       3020       3024       3028       3032       3036       3040       3044       3048       3052       3056       3060       3064       3068       3072       3076       3080       3084       3088       3092       3096       3100       3104       3108       3112       3116       3120       3124       3128       3132       3136       3140       3144       3148       3152       3156       3160       3164       3168       3172       3176       3180       3184       3188       3192       3196       3200       3204       3208       3212       3216       3220       3224       3228       3232       3236       3240       3244       3248       3252       3256       3260       3264       3268       3272       3276       3280       3284       3288       3292       3296       3300       3304       3308       3312       3316       3320       3324       3328       3332       3336       3340       3344       3348       3352       3356       3360       3364       3368       3372       3376       3380       3384       3388       3392       3396       3400       3404       3408       3412       3416       3420       3424       3428       3432       3436       3440       3444       3448       3452       3456       3460       3464       3468       3472       3476       3480       3484       3488       3492       3496       3500       3504       3508       3512       3516       3520       3524       3528       3532       3536       3540       3544       3548       3552       3556       3560       3564       3568       3572       3576       3580       3584       3588       3592       3596       3600       3604       3608       3612       3616       3620       3624       3628       3632       3636       3640       3644       3648       3652       3656       3660       3664       3668       3672       3676       3680       3684       3688       3692       3696       3700       3704       3708       3712       3716       3720       3724       3728       3732       3736       3740       3744       3748       3752       3756       3760       3764       3768       3772       3776       3780       3784       3788       3792       3796       3800       3804       3808       3812       3816       3820       3824       3828       3832       3836       3840       3844       3848       3852       3856       3860       3864       3868       3872       3876       3880       3884       3888       3892       3896       3900       3904       3908       3912       3916       3920       3924       3928       3932       3936       3940       3944       3948       3952       3956       3960       3964       3968       3972       3976       3980       3984       3988       3992       3996       4000       4004       4008       4012       4016       4020       4024       4028       4032       4036       4040       4044       4048       4052       4056       4060       4064       4068       4072       4076       4080       4084       4088       4092       4096 </DataArray>
<DataArray type="UInt8"                                    Name="types"                                                      NumberOfComponents=" 1" format="ascii">
         9          9          9          9          9          9          9          9          9          9          9          9          9          9          9          9          9          9          9          9          9          9          9          9          9          9          9          9          9          9          9          9          9          9          9          9          9          9          9          9          9          9          9          9          9          9          9          9          9          9          9          9          9          9          9          9          9          9          9          9          9          9          9          9          9          9          9          9          9          9          9          9          9          9          9          9          9          9          9          9          9          9          9          9          9          9          9          9          9          9          9          9          9          9          9          9          9          9          9          9          9          9          9          9          9          9          9          9          9          9          9          9          9          9          9          9          9          9          9          9          9          9          9          9          9          9          9          9          9          9          9          9          9          9          9          9          9          9          9          9          9          9          9          9          9          9          9          9          9          9          9          9          9          9          9          9          9          9          9          9          9          9          9          9          9          9          9          9          9          9          9          9          9          9          9          9          9          9          9          9          9          9          9          9          9          9          9          9          9          9          9          9          9          9          9          9          9          9          9          9          9          9          9          9          9          9          9          9          9          9          9          9          9          9          9          9          9          9          9          9          9          9          9          9          9          9          9          9          9          9          9          9          9          9          9          9          9          9          9          9          9          9          9          9          9          9          9          9          9          9          9          9          9          9          9          9          9          9          9          9          9          9          9          9          9          9          9          9          9          9          9          9          9          9          9          9          9          9          9          9          9          9          9          9          9          9          9          9          9          9          9          9          9          9          9          9          9          9          9          9          9          9          9          9          9          9          9          9          9          9          9          9          9          9          9          9          9          9          9          9          9          9          9          9          9          9          9          9          9          9          9          9          9          9          9          9          9          9          9          9          9          9          9          9          9          9          9          9          9          9          9          9          9          9          9          9          9          9          9          9          9          9          9          9          9          9          9          9          9          9          9          9          9          9          9          9          9          9          9          9          9          9          9          9          9          9          9          9          9          9          9          9          9          9          9          9          9          9          9          9          9          9          9          9          9          9          9          9          9          9          9          9          9          9          9          9          9          9          9          9          9          9          9          9          9          9          9          9          9          9          9          9          9          9          9          9          9          9          9          9          9          9          9          9          9          9          9          9          9          9          9          9          9          9          9          9          9          9          9          9          9          9          9          9          9          9          9          9          9          9          9          9          9          9          9          9          9          9          9          9          9          9          9          9          9          9          9          9          9          9          9          9          9          9          9          9          9          9          9          9          9          9          9          9          9          9          9          9          9          9          9          9          9          9          9          9          9          9          9          9          9          9          9          9          9          9          9          9          9          9          9          9          9          9          9          9          9          9          9          9          9          9          9          9          9          9          9          9          9          9          9          9          9          9          9          9          9          9          9          9          9          9          9          9          9          9          9          9          9          9          9          9          9          9          9          9          9          9          9          9          9          9          9          9          9          9          9          9          9          9          9          9          9          9          9          9          9          9          9          9          9          9          9          9          9          9          9          9          9          9          9          9          9          9          9          9          9          9          9          9          9          9          9          9          9          9          9          9          9          9          9          9          9          9          9          9          9          9          9          9          9          9          9          9          9          9          9          9          9          9          9          9          9          9          9          9          9          9          9          9          9          9          9          9          9          9          9          9          9          9          9          9          9          9          9          9          9          9          9          9          9          9          9          9          9          9          9          9          9          9          9          9          9          9          9          9          9          9          9          9          9          9          9          9          9          9          9          9          9          9          9          9          9          9          9          9          9          9          9          9          9          9          9          9          9          9          9          9          9          9          9          9          9          9          9          9          9          9          9          9          9          9          9          9          9          9          9          9          9          9          9          9          9          9          9          9          9          9          9          9          9          9          9          9          9          9          9          9          9          9          9          9          9          9          9          9          9          9          9          9          9          9          9          9          9          9          9          9          9          9          9          9          9          9          9          9          9          9          9          9          9          9          9          9          9          9          9          9          9          9          9          9          9          9          9          9          9          9          9          9          9          9          9          9          9          9          9          9          9          9          9          9          9          9          9          9          9          9          9          9          9          9          9          9          9          9          9          9          9          9          9          9          9          9          9          9          9          9          9          9          9          9          9          9          9          9          9          9          9          9          9          9          9          9          9          9          9          9          9          9          9          9          9          9          9          9          9          9          9          9          9          9          9          9          9          9          9          9          9          9          9          9          9          9          9          9          9          9          9          9          9          9          9          9          9          9          9          9          9          9          9          9          9          9          9          9          9          9          9          9          9          9          9          9          9          9          9          9          9          9          9          9          9          9          9          9          9          9          9          9          9          9          9          9          9          9          9          9          9          9          9          9          9          9          9          9          9          9          9          9          9          9          9          9          9          9          9          9          9          9          9          9          9          9          9          9          9          9          9          9          9          9          9          9          9          9          9          9          9          9          9          9          9          9          9          9          9          9          9          9          9          9          9          9          9          9          9          9          9          9          9          9          9          9 </DataArray>
</Cells>
<CellData>
<DataArray type="Int32"                                    Name="material"                                                      NumberOfComponents=" 1" format="ascii">
         1          1          1          1          1          1          1          1          1          1          1          1          1          1          1          1          1          1          1          1          1          1          1          1          1          1          1          1          1          1          1          1          1          1          1          1          1          1          1          1          1          1          1          1          1          1          1          1          1          1          1          1          1          1          1          1          1          1          1          1          1          1          1          1          1          1          1          1          1          1          1          1          1          1          1          1          1          1          1          1          1          1          1          1          1          1          1          1          1          1          1          1          1          1          1          1          1          1          1          1          1          1          1          1          1          1          1          1          1          1          1          1          1          1          1          1          1          1          1          1          1          1          1          1          1          1          1          1          1          1          1          1          1          1          1          1          1          1          1          1          1          1          1          1          1          1          1          1          1          1          1          1          1          1          1          1          1          1          1          1          1          1          1          1          1          1          1          1          1          1          1          1          1          1          1          1          1          1          1          1          1          1          1          1          1          1          1          1          1          1          1          1          1          1          1          1          1          1          1          1          1          1          1          1          1          1          1          1          1          1          1          1          1          1          1          1          1          1          1          1          1          1          1          1          1          1          1          1          1          1          1          1          1          1          1          1          1          1          1          1          1          1          1          1          1          1          1          1          1          1          1          1          1          1          1          1          1          1          1          1          1          1          1          1          1          1          1          1          1          1          1          1          1          1          1          1          1          1          1          1          1          1          1          1          1          1          1          1          1          1          1          1          1          1          1          1          1          1          1          1          1          1          1          1          1          1          1          1          1          1          1          1          1          1          1          1          1          1          1          1          1          1          1          1          1          1          1          1          1          1          1          1          1          1          1          1          1          1          1          1          1          1          1          1          1          1          1          1          1          1          1          1          1          1          1          1          1          1          1          1          1          1          1          1          1          1          1          1          1          1          1          1          1          1          1          1          1          1          1          1          1          1          1          1          1          1          1          1          1          1          1          1          1          1          1          1          1          1          1          1          1          1          1          1          1          1          1          1          1          1          1          1          1          1          1          1          1          1          1          1          1          1          1          1          1          1          1          1          1          1          1          1          1          1          1          1          1          1          1          1          1          1          1          1          1          1          1          1          1          1          1          1          1          1          1          1          1          1          1          1          1          1          1          1          1          1          1          1          1          1          1          1          1          1          1          1          1          1          1          1          1          1          1          1          1          1          1          1          1          1          1          1          1          1          1          1          1          1          1          1          1          1          1          1          1          1          1          1          1          1          1          1          1          1          1          1          1          1          1          1          1          1          1          1          1          1          1          1          1          1          1          1          1          1          1          1          1          1          1          1          1          1          1          1          1          1          1          1          1          1          1          1          1          1          1          1          1          1          1          1          1          1          1          1          1          1          1          1          1          1          1          1          1          1          1          1          1          1          1          1          1          1          1          1          1          1          1          1          1          1          1          1          1          1          1          1          1          1          1          1          1          1          1          1          1          1          1          1          1          1          1          1          1          1          1          1          1          1          1          1          1          1          1          1          1          1          1          1          1          1          1          1          1          1          1          1          1          1          1          1          1          1          1          1          1          1          1          1          1          1          1          1          1          1          1          1          1          1          1          1          1          1          1          1          1          1          1          1          1          1          1          1          1          1          1          1          1          1          1          1          1          1          1          1          1          1          1          1          1          1          1          1          1          1          1          1          1          1          1          1          1          1          1          1          1          1          1          1          1          1          1          1          1          1          1          1          1          1          1          1          1          1          1          1          1          1          1          1          1          1          1          1          1          1          1          1          1          1          1          1          1          1          1          1          1          1          1          1          1          1          1          1          1          1          1          1          1          1          1          1          1          1          1          1          1          1          1          1          1          1          1          1          1          1          1          1          1          1          1          1          1          1          1          1          1          1          1          1          1          1          1          1          1          1          1          1          1          1          1          1          1          1          1          1          1          1          1          1          1          1          1          1          1          1          1          1          1          1          1          1          1          1          1          1          1          1          1          1          1          1          1          1          1          1          1          1          1          1          1          1          1          1          1          1          1          1          1          1          1          1          1          1          1          1          1          1          1          1          1          1          1          1          1          1          1          1          1          1          1          1          1          1          1          1          1          1          1          1          1          1          1          1          1          1          1          1          1          1          1          1          1          1          1          1          1          1          1          1          1          1          1          1          1          1          1          1          1          1          1          1          1          1          1          1          1          1          1          1          1          1          1          1          1          1          1          1          1          1          1          1          1          1          1          1          1          1          1          1          1          1          1          1          1          1          1          1          1          1          1          1          1          1          1          1          1          1          1          1          1          1          1          1          1          1          1          1          1          1          1          1          1          1          1          1          1          1          1          1          1          1          1          1          1          1          1          1          1          1          1          1          1          1          1          1          1          1          1          1          1          1          1          1          1          1          1          1          1          1          1          1          1          1          1          1          1          1          1          1          1          1          1          1          1          1 </DataArray>
</CellData>
<PointData>
<DataArray type="Float64"                                    Name="u"                                                      NumberOfComponents=" 3" format="ascii">
             -0.000155599               0.000000000               0.999999991              -0.000184085               0.000000000               0.999999991              -0.000197488               0.000000000               0.999999991              -0.000205180               0.000000000               0.999999991              -0.000210970               0.000000000               0.999999991              -0.000216528               0.000000000               0.999999991              -0.000222552              -0.000000000               0.999999991              -0.000229366               0.000000000               0.999999991              -0.000237075               0.000000000               0.999999991              -0.000245719               0.000000000               0.999999991              -0.000255378               0.000000000               0.999999991              -0.000266150               0.000000000               0.999999991              -0.000278018               0.000000000               0.999999991              -0.000290886               0.000000000               0.999999991              -0.000304663               0.000000000               0.999999991              -0.000319172               0.000000000               0.999999991              -0.000334123               0.000000000               0.999999991              -0.000154798               0.000071491               0.999999991              -0.000181820               0.000061854               0.999999991              -0.000194314               0.000058602               0.999999991              -0.000201494               0.000058845               0.999999991              -0.000207060               0.000061106               0.999999991              -0.000212548               0.000064703               0.999999991              -0.000218621               0.000069093               0.999999991              -0.000225523               0.000073969               0.999999991              -0.000233322               0.000079243               0.999999991              -0.000242092               0.000084900               0.999999991              -0.000251890               0.000090778               0.999999991              -0.000262743               0.000096794               0.999999991              -0.000274571               0.000102866               0.999999991              -0.000287282               0.000108859               0.999999991              -0.000300747               0.000114418               0.999999991              -0.000314817               0.000119169               0.999999991              -0.000329320               0.000122671               0.999999991              -0.000152364               0.000142190               0.999999991              -0.000175088               0.000123032               0.999999991              -0.000185140               0.000116960               0.999999991              -0.000191081               0.000117829               0.999999991              -0.000196106               0.000122617               0.999999991              -0.000201456               0.000129942               0.999999991              -0.000207567               0.000138856               0.999999991              -0.000214646               0.000148697               0.999999991              -0.000222752               0.000159273               0.999999991              -0.000231859               0.000170421               0.999999991              -0.000241964               0.000182003               0.999999991              -0.000252979               0.000193831               0.999999991              -0.000264800               0.000205636               0.999999991              -0.000277289               0.000217200               0.999999991              -0.000290214               0.000228018               0.999999991              -0.000303503               0.000237507               0.999999991              -0.000317040               0.000245133               0.999999991              -0.000148244               0.000211364               0.999999991              -0.000164144               0.000183009               0.999999991              -0.000170639               0.000174903               0.999999991              -0.000174985               0.000176981               0.999999991              -0.000179465               0.000184777               0.999999991              -0.000184901               0.000196026               0.999999991              -0.000191386               0.000209449               0.999999991              -0.000198989               0.000224225               0.999999991              -0.000207638               0.000239953               0.999999991              -0.000217265               0.000256594               0.999999991              -0.000227789               0.000273755               0.999999991              -0.000239032               0.000291022               0.999999991              -0.000250794               0.000308186               0.999999991              -0.000262886               0.000324914               0.999999991              -0.000275154               0.000340644               0.999999991              -0.000287507               0.000354964               0.999999991              -0.000299985               0.000367540               0.999999991              -0.000142489               0.000278263               0.999999991              -0.000149569               0.000241403               0.999999991              -0.000152100               0.000232150               0.999999991              -0.000155010               0.000236138               0.999999991              -0.000159422               0.000247263               0.999999991              -0.000165473               0.000262561               0.999999991              -0.000172817               0.000280358               0.999999991              -0.000181312               0.000299882               0.999999991              -0.000190787               0.000320758               0.999999991              -0.000201052               0.000342687               0.999999991              -0.000212002               0.000365083               0.999999991              -0.000223484               0.000387564               0.999999991              -0.000235181               0.000409748               0.999999991              -0.000246954               0.000431360               0.999999991              -0.000258710               0.000451997               0.999999991              -0.000270429               0.000471488               0.999999991              -0.000282254               0.000489878               0.999999991              -0.000135287               0.000342081               0.999999991              -0.000132263               0.000297928               0.999999991              -0.000131275               0.000288374               0.999999991              -0.000133502               0.000294727               0.999999991              -0.000138541               0.000309365               0.999999991              -0.000145695               0.000328693               0.999999991              -0.000154233               0.000350811               0.999999991              -0.000163807               0.000375105               0.999999991              -0.000174282               0.000400937               0.999999991              -0.000185437               0.000427715               0.999999991              -0.000197028               0.000455039               0.999999991              -0.000208790               0.000482306               0.999999991              -0.000220542               0.000509219               0.999999991              -0.000232188               0.000535615               0.999999991              -0.000243596               0.000561122               0.999999991              -0.000254869               0.000585882               0.999999991              -0.000266114               0.000609860               0.999999991              -0.000126771               0.000402159               0.999999991              -0.000113302               0.000352381               0.999999991              -0.000109688               0.000343327               0.999999991              -0.000112136               0.000352222               0.999999991              -0.000118445               0.000370443               0.999999991              -0.000127053               0.000393719               0.999999991              -0.000137003               0.000420140               0.999999991              -0.000148011               0.000449009               0.999999991              -0.000159761               0.000479369               0.999999991              -0.000171872               0.000510759               0.999999991              -0.000184083               0.000542627               0.999999991              -0.000196117               0.000574381               0.999999991              -0.000207864               0.000605723               0.999999991              -0.000219188               0.000636569               0.999999991              -0.000230172               0.000666752               0.999999991              -0.000240895               0.000696280               0.999999991              -0.000251287               0.000725064               0.999999991              -0.000117121               0.000457953               0.999999991              -0.000093676               0.000404643               0.999999991              -0.000088603               0.000396664               0.999999991              -0.000092242               0.000408106               0.999999991              -0.000100355               0.000429687               0.999999991              -0.000110811               0.000456826               0.999999991              -0.000122495               0.000487410               0.999999991              -0.000134988               0.000520547               0.999999991              -0.000147831               0.000555339               0.999999991              -0.000160705               0.000591078               0.999999991              -0.000173220               0.000627135               0.999999991              -0.000185179               0.000663051               0.999999991              -0.000196539               0.000698515               0.999999991              -0.000207351               0.000733486               0.999999991              -0.000217708               0.000767889               0.999999991              -0.000227642               0.000801661               0.999999991              -0.000237193               0.000834605               0.999999991              -0.000106824               0.000508598               0.999999991              -0.000074027               0.000454721               0.999999991              -0.000069290               0.000447858               0.999999991              -0.000074806               0.000461654               0.999999991              -0.000085110               0.000486386               0.999999991              -0.000097480               0.000517276               0.999999991              -0.000110714               0.000551953               0.999999991              -0.000124468               0.000589331               0.999999991              -0.000138181               0.000628351               0.999999991              -0.000151314               0.000668101               0.999999991              -0.000163711               0.000708040               0.999999991              -0.000175179               0.000747712               0.999999991              -0.000185904               0.000786949               0.999999991              -0.000196079               0.000825690               0.999999991              -0.000205979               0.000863882               0.999999991              -0.000215575               0.000901364               0.999999991              -0.000224937               0.000938137               0.999999991              -0.000096618               0.000555911               0.999999991              -0.000058658               0.000507926               0.999999991              -0.000051450               0.000497143               0.999999991              -0.000055469               0.000505870               0.999999991              -0.000064507               0.000525703               0.999999991              -0.000075724               0.000552323               0.999999991              -0.000087793               0.000583135               0.999999991              -0.000100174               0.000616942               0.999999991              -0.000112746               0.000652754               0.999999991              -0.000124835               0.000689663               0.999999991              -0.000136299               0.000727084               0.999999991              -0.000146781               0.000764635               0.999999991              -0.000156217               0.000802065               0.999999991              -0.000164917               0.000839276               0.999999991              -0.000173237               0.000876146               0.999999991              -0.000181537               0.000912730               0.999999991              -0.000189945               0.000948726               0.999999991              -0.000084999               0.000598585               0.999999991              -0.000045307               0.000558797               0.999999991              -0.000035739               0.000547000               0.999999991              -0.000037841               0.000552021               0.999999991              -0.000045138               0.000567623               0.999999991              -0.000054875               0.000590143               0.999999991              -0.000065457               0.000617357               0.999999991              -0.000076355               0.000647866               0.999999991              -0.000087583               0.000680591               0.999999991              -0.000098664               0.000714741               0.999999991              -0.000109127               0.000749601               0.999999991              -0.000118540               0.000784773               0.999999991              -0.000126798               0.000820080               0.999999991              -0.000133938               0.000855347               0.999999991              -0.000140282               0.000890602               0.999999991              -0.000146271               0.000925829               0.999999991              -0.000152292               0.000960990               0.999999991              -0.000072411               0.000635659               0.999999991              -0.000034012               0.000605897               0.999999991              -0.000022832               0.000595360               0.999999991              -0.000022931               0.000598424               0.999999991              -0.000028267               0.000610886               0.999999991              -0.000036062               0.000630030               0.999999991              -0.000044894               0.000653923               0.999999991              -0.000054229               0.000681348               0.999999991              -0.000063875               0.000711312               0.999999991              -0.000073626               0.000742973               0.999999991              -0.000082837               0.000775703               0.999999991              -0.000091076               0.000808941               0.999999991              -0.000098119               0.000842355               0.999999991              -0.000103713               0.000875814               0.999999991              -0.000107960               0.000909334               0.999999991              -0.000111155               0.000942982               0.999999991              -0.000113733               0.000976788               0.999999991              -0.000059000               0.000666684               0.999999991              -0.000024658               0.000647480               0.999999991              -0.000013047               0.000639958               0.999999991              -0.000011508               0.000642669               0.999999991              -0.000014809               0.000653376               0.999999991              -0.000020564               0.000670133               0.999999991              -0.000027475               0.000691416               0.999999991              -0.000034935               0.000716239               0.999999991              -0.000042822               0.000743866               0.999999991              -0.000050888               0.000773454               0.999999991              -0.000058602               0.000804435               0.999999991              -0.000065514               0.000836242               0.999999991              -0.000071276               0.000868368               0.999999991              -0.000075478               0.000900681               0.999999991              -0.000077767               0.000933043               0.999999991              -0.000078226               0.000965514               0.999999991              -0.000076891               0.000998121               0.999999991              -0.000044890               0.000691320               0.999999991              -0.000016943               0.000681916               0.999999991              -0.000006426               0.000678252               0.999999991              -0.000003970               0.000681839               0.999999991              -0.000005603               0.000691929               0.999999991              -0.000009441               0.000707297               0.999999991              -0.000014331               0.000726933               0.999999991              -0.000019800               0.000749915               0.999999991              -0.000025680               0.000775725               0.999999991              -0.000031856               0.000803701               0.999999991              -0.000037833               0.000833361               0.999999991              -0.000043228               0.000864240               0.999999991              -0.000047651               0.000895785               0.999999991              -0.000050599               0.000927688               0.999999991              -0.000051552               0.000959757               0.999999991              -0.000050051               0.000991904               0.999999991              -0.000045609               0.001024079               0.999999991              -0.000030248               0.000709223               0.999999991              -0.000010528               0.000707708               0.999999991              -0.000002572               0.000707806               0.999999991              -0.000000160               0.000712806               0.999999991              -0.000000682               0.000722982               0.999999991              -0.000002875               0.000737815               0.999999991              -0.000005938               0.000756533               0.999999991              -0.000009465               0.000778379               0.999999991              -0.000013394               0.000802979               0.999999991              -0.000017566               0.000829907               0.999999991              -0.000021597               0.000858736               0.999999991              -0.000025194               0.000889051               0.999999991              -0.000028131               0.000920441               0.999999991              -0.000029973               0.000952540               0.999999991              -0.000030199               0.000985086               0.999999991              -0.000028106               0.001017779               0.999999991              -0.000022933               0.001050327               0.999999991              -0.000015224               0.000720193               0.999999991              -0.000005016               0.000723753               0.999999991              -0.000000748               0.000726501               0.999999991               0.000000711               0.000732785               0.999999991               0.000000672               0.000743313               0.999999991              -0.000000288               0.000757925               0.999999991              -0.000001749               0.000776147               0.999999991              -0.000003501               0.000797491               0.999999991              -0.000005401               0.000821529               0.999999991              -0.000007505               0.000847883               0.999999991              -0.000009563               0.000876287               0.999999991              -0.000011319               0.000906288               0.999999991              -0.000012708               0.000937561               0.999999991              -0.000013542               0.000969798               0.999999991              -0.000013560               0.001002704               0.999999991              -0.000012315               0.001035989               0.999999991              -0.000009178               0.001069211               0.999999991               0.000000000               0.000723909               0.999999991               0.000000000               0.000729229               0.999999991               0.000000000               0.000732918               0.999999991              -0.000000000               0.000739706               0.999999991               0.000000000               0.000750468               0.999999991              -0.000000000               0.000765060               0.999999991              -0.000000000               0.000783113               0.999999991              -0.000000000               0.000804279               0.999999991              -0.000000000               0.000828097               0.999999991              -0.000000000               0.000854281               0.999999991              -0.000000000               0.000882574               0.999999991              -0.000000000               0.000912511               0.999999991              -0.000000000               0.000943656               0.999999991               0.000000000               0.000975778               0.999999991               0.000000000               0.001008632               0.999999991               0.000000000               0.001041964               0.999999991              -0.000000000               0.001075455               0.999999991              -0.000155599               0.000000000               0.999999991              -0.000184085               0.000000000               0.999999991              -0.000197488               0.000000000               0.999999991              -0.000205180               0.000000000               0.999999991              -0.000210970               0.000000000               0.999999991              -0.000216528               0.000000000               0.999999991              -0.000222552              -0.000000000               0.999999991              -0.000229366               0.000000000               0.999999991              -0.000237075               0.000000000               0.999999991              -0.000245719               0.000000000               0.999999991              -0.000255378               0.000000000               0.999999991              -0.000266150               0.000000000               0.999999991              -0.000278018               0.000000000               0.999999991              -0.000290886               0.000000000               0.999999991              -0.000304663               0.000000000               0.999999991              -0.000319172               0.000000000               0.999999991              -0.000334123               0.000000000               0.999999991              -0.000154798              -0.000071491               0.999999991              -0.000181820              -0.000061854               0.999999991              -0.000194314              -0.000058602               0.999999991              -0.000201494              -0.000058845               0.999999991              -0.000207060              -0.000061106               0.999999991              -0.000212548              -0.000064703               0.999999991              -0.000218621              -0.000069093               0.999999991              -0.000225523              -0.000073969               0.999999991              -0.000233322              -0.000079243               0.999999991              -0.000242092              -0.000084900               0.999999991              -0.000251890              -0.000090778               0.999999991              -0.000262743              -0.000096794               0.999999991              -0.000274571              -0.000102866               0.999999991              -0.000287282              -0.000108859               0.999999991              -0.000300747              -0.000114418               0.999999991              -0.000314817              -0.000119169               0.999999991              -0.000329320              -0.000122671               0.999999991              -0.000152364              -0.000142190               0.999999991              -0.000175088              -0.000123032               0.999999991              -0.000185140              -0.000116960               0.999999991              -0.000191081              -0.000117829               0.999999991              -0.000196106              -0.000122617               0.999999991              -0.000201456              -0.000129942               0.999999991              -0.000207567              -0.000138856               0.999999991              -0.000214646              -0.000148697               0.999999991              -0.000222752              -0.000159273               0.999999991              -0.000231859              -0.000170421               0.999999991              -0.000241964              -0.000182003               0.999999991              -0.000252979              -0.000193831               0.999999991              -0.000264800              -0.000205636               0.999999991              -0.000277289              -0.000217200               0.999999991              -0.000290214              -0.000228018               0.999999991              -0.000303503              -0.000237507               0.999999991              -0.000317040              -0.000245133               0.999999991              -0.000148244              -0.000211364               0.999999991              -0.000164144              -0.000183009               0.999999991              -0.000170639              -0.000174903               0.999999991              -0.000174985              -0.000176981               0.999999991              -0.000179465              -0.000184777               0.999999991              -0.000184901              -0.000196026               0.999999991              -0.000191386              -0.000209449               0.999999991              -0.000198989              -0.000224225               0.999999991              -0.000207638              -0.000239953               0.999999991              -0.000217265              -0.000256594               0.999999991              -0.000227789              -0.000273755               0.999999991              -0.000239032              -0.000291022               0.999999991              -0.000250794              -0.000308186               0.999999991              -0.000262886              -0.000324914               0.999999991              -0.000275154              -0.000340644               0.999999991              -0.000287507              -0.000354964               0.999999991              -0.000299985              -0.000367540               0.999999991              -0.000142489              -0.000278263               0.999999991              -0.000149569              -0.000241403               0.999999991              -0.000152100              -0.000232150               0.999999991              -0.000155010              -0.000236138               0.999999991              -0.000159422              -0.000247263               0.999999991              -0.000165473              -0.000262561               0.999999991              -0.000172817              -0.000280358               0.999999991              -0.000181312              -0.000299882               0.999999991              -0.000190787              -0.000320758               0.999999991              -0.000201052              -0.000342687               0.999999991              -0.000212002              -0.000365083               0.999999991              -0.000223484              -0.000387564               0.999999991              -0.000235181              -0.000409748               0.999999991              -0.000246954              -0.000431360               0.999999991              -0.000258710              -0.000451997               0.999999991              -0.000270429              -0.000471488               0.999999991              -0.000282254              -0.000489878               0.999999991              -0.000135287              -0.000342081               0.999999991              -0.000132263              -0.000297928               0.999999991              -0.000131275              -0.000288374               0.999999991              -0.000133502              -0.000294727               0.999999991              -0.000138541              -0.000309365               0.999999991              -0.000145695              -0.000328693               0.999999991              -0.000154233              -0.000350811               0.999999991              -0.000163807              -0.000375105               0.999999991              -0.000174282              -0.000400937               0.999999991              -0.000185437              -0.000427715               0.999999991              -0.000197028              -0.000455039               0.999999991              -0.000208790              -0.000482306               0.999999991              -0.000220542              -0.000509219               0.999999991              -0.000232188              -0.000535615               0.999999991              -0.000243596              -0.000561122               0.999999991              -0.000254869              -0.000585882               0.999999991              -0.000266114              -0.000609860               0.999999991              -0.000126771              -0.000402159               0.999999991              -0.000113302              -0.000352381               0.999999991              -0.000109688              -0.000343327               0.999999991              -0.000112136              -0.000352222               0.999999991              -0.000118445              -0.000370443               0.999999991              -0.000127053              -0.000393719               0.999999991              -0.000137003              -0.000420140               0.999999991              -0.000148011              -0.000449009               0.999999991              -0.000159761              -0.000479369               0.999999991              -0.000171872              -0.000510759               0.999999991              -0.000184083              -0.000542627               0.999999991              -0.000196117              -0.000574381               0.999999991              -0.000207864              -0.000605723               0.999999991              -0.000219188              -0.000636569               0.999999991              -0.000230172              -0.000666752               0.999999991              -0.000240895              -0.000696280               0.999999991              -0.000251287              -0.000725064               0.999999991              -0.000117121              -0.000457953               0.999999991              -0.000093676              -0.000404643               0.999999991              -0.000088603              -0.000396664               0.999999991              -0.000092242              -0.000408106               0.999999991              -0.000100355              -0.000429687               0.999999991              -0.000110811              -0.000456826               0.999999991              -0.000122495              -0.000487410               0.999999991              -0.000134988              -0.000520547               0.999999991              -0.000147831              -0.000555339               0.999999991              -0.000160705              -0.000591078               0.999999991              -0.000173220              -0.000627135               0.999999991              -0.000185179              -0.000663051               0.999999991              -0.000196539              -0.000698515               0.999999991              -0.000207351              -0.000733486               0.999999991              -0.000217708              -0.000767889               0.999999991              -0.000227642              -0.000801661               0.999999991              -0.000237193              -0.000834605               0.999999991              -0.000106824              -0.000508598               0.999999991              -0.000074027              -0.000454721               0.999999991              -0.000069290              -0.000447858               0.999999991              -0.000074806              -0.000461654               0.999999991              -0.000085110              -0.000486386               0.999999991              -0.000097480              -0.000517276               0.999999991              -0.000110714              -0.000551953               0.999999991              -0.000124468              -0.000589331               0.999999991              -0.000138181              -0.000628351               0.999999991              -0.000151314              -0.000668101               0.999999991              -0.000163711              -0.000708040               0.999999991              -0.000175179              -0.000747712               0.999999991              -0.000185904              -0.000786949               0.999999991              -0.000196079              -0.000825690               0.999999991              -0.000205979              -0.000863882               0.999999991              -0.000215575              -0.000901364               0.999999991              -0.000224937              -0.000938137               0.999999991              -0.000096618              -0.000555911               0.999999991              -0.000058658              -0.000507926               0.999999991              -0.000051450              -0.000497143               0.999999991              -0.000055469              -0.000505870               0.999999991              -0.000064507              -0.000525703               0.999999991              -0.000075724              -0.000552323               0.999999991              -0.000087793              -0.000583135               0.999999991              -0.000100174              -0.000616942               0.999999991              -0.000112746              -0.000652754               0.999999991              -0.000124835              -0.000689663               0.999999991              -0.000136299              -0.000727084               0.999999991              -0.000146781              -0.000764635               0.999999991              -0.000156217              -0.000802065               0.999999991              -0.000164917              -0.000839276               0.999999991              -0.000173237              -0.000876146               0.999999991              -0.000181537              -0.000912730               0.999999991              -0.000189945              -0.000948726               0.999999991              -0.000084999              -0.000598585               0.999999991              -0.000045307              -0.000558797               0.999999991              -0.000035739              -0.000547000               0.999999991              -0.000037841              -0.000552021               0.999999991              -0.000045138              -0.000567623               0.999999991              -0.000054875              -0.000590143               0.999999991              -0.000065457              -0.000617357               0.999999991              -0.000076355              -0.000647866               0.999999991              -0.000087583              -0.000680591               0.999999991              -0.000098664              -0.000714741               0.999999991              -0.000109127              -0.000749601               0.999999991              -0.000118540              -0.000784773               0.999999991              -0.000126798              -0.000820080               0.999999991              -0.000133938              -0.000855347               0.999999991              -0.000140282              -0.000890602               0.999999991              -0.000146271              -0.000925829               0.999999991              -0.000152292              -0.000960990               0.999999991              -0.000072411              -0.000635659               0.999999991              -0.000034012              -0.000605897               0.999999991              -0.000022832              -0.000595360               0.999999991              -0.000022931              -0.000598424               0.999999991              -0.000028267              -0.000610886               0.999999991              -0.000036062              -0.000630030               0.999999991              -0.000044894              -0.000653923               0.999999991              -0.000054229              -0.000681348               0.999999991              -0.000063875              -0.000711312               0.999999991              -0.000073626              -0.000742973               0.999999991              -0.000082837              -0.000775703               0.999999991              -0.000091076              -0.000808941               0.999999991              -0.000098119              -0.000842355               0.999999991              -0.000103713              -0.000875814               0.999999991              -0.000107960              -0.000909334               0.999999991              -0.000111155              -0.000942982               0.999999991              -0.000113733              -0.000976788               0.999999991              -0.000059000              -0.000666684               0.999999991              -0.000024658              -0.000647480               0.999999991              -0.000013047              -0.000639958               0.999999991              -0.000011508              -0.000642669               0.999999991              -0.000014809              -0.000653376               0.999999991              -0.000020564              -0.000670133               0.999999991              -0.000027475              -0.000691416               0.999999991              -0.000034935              -0.000716239               0.999999991              -0.000042822              -0.000743866               0.999999991              -0.000050888              -0.000773454               0.999999991              -0.000058602              -0.000804435               0.999999991              -0.000065514              -0.000836242               0.999999991              -0.000071276              -0.000868368               0.999999991              -0.000075478              -0.000900681               0.999999991              -0.000077767              -0.000933043               0.999999991              -0.000078226              -0.000965514               0.999999991              -0.000076891              -0.000998121               0.999999991              -0.000044890              -0.000691320               0.999999991              -0.000016943              -0.000681916               0.999999991              -0.000006426              -0.000678252               0.999999991              -0.000003970              -0.000681839               0.999999991              -0.000005603              -0.000691929               0.999999991              -0.000009441              -0.000707297               0.999999991              -0.000014331              -0.000726933               0.999999991              -0.000019800              -0.000749915               0.999999991              -0.000025680              -0.000775725               0.999999991              -0.000031856              -0.000803701               0.999999991              -0.000037833              -0.000833361               0.999999991              -0.000043228              -0.000864240               0.999999991              -0.000047651              -0.000895785               0.999999991              -0.000050599              -0.000927688               0.999999991              -0.000051552              -0.000959757               0.999999991              -0.000050051              -0.000991904               0.999999991              -0.000045609              -0.001024079               0.999999991              -0.000030248              -0.000709223               0.999999991              -0.000010528              -0.000707708               0.999999991              -0.000002572              -0.000707806               0.999999991              -0.000000160              -0.000712806               0.999999991              -0.000000682              -0.000722982               0.999999991              -0.000002875              -0.000737815               0.999999991              -0.000005938              -0.000756533               0.999999991              -0.000009465              -0.000778379               0.999999991              -0.000013394              -0.000802979               0.999999991              -0.000017566              -0.000829907               0.999999991              -0.000021597              -0.000858736               0.999999991              -0.000025194              -0.000889051               0.999999991              -0.000028131              -0.000920441               0.999999991              -0.000029973              -0.000952540               0.999999991              -0.000030199              -0.000985086               0.999999991              -0.000028106              -0.001017779               0.999999991              -0.000022933              -0.001050327               0.999999991              -0.000015224              -0.000720193               0.999999991              -0.000005016              -0.000723753               0.999999991              -0.000000748              -0.000726501               0.999999991               0.000000711              -0.000732785               0.999999991               0.000000672              -0.000743313               0.999999991              -0.000000288              -0.000757925               0.999999991              -0.000001749              -0.000776147               0.999999991              -0.000003501              -0.000797491               0.999999991              -0.000005401              -0.000821529               0.999999991              -0.000007505              -0.000847883               0.999999991              -0.000009563              -0.000876287               0.999999991              -0.000011319              -0.000906288               0.999999991              -0.000012708              -0.000937561               0.999999991              -0.000013542              -0.000969798               0.999999991              -0.000013560              -0.001002704               0.999999991              -0.000012315              -0.001035989               0.999999991              -0.000009178              -0.001069211               0.999999991               0.000000000              -0.000723909               0.999999991               0.000000000              -0.000729229               0.999999991              -0.000000000              -0.000732918               0.999999991              -0.000000000              -0.000739706               0.999999991               0.000000000              -0.000750468               0.999999991              -0.000000000              -0.000765060               0.999999991               0.000000000              -0.000783113               0.999999991              -0.000000000              -0.000804279               0.999999991              -0.000000000              -0.000828097               0.999999991              -0.000000000              -0.000854281               0.999999991              -0.000000000              -0.000882574               0.999999991               0.000000000              -0.000912511               0.999999991               0.000000000              -0.000943656               0.999999991               0.000000000              -0.000975778               0.999999991               0.000000000              -0.001008632               0.999999991               0.000000000              -0.001041964               0.999999991               0.000000000              -0.001075455               0.999999991               0.000155599               0.000000000               0.999999991               0.000184085              -0.000000000               0.999999991               0.000197488               0.000000000               0.999999991               0.000205180               0.000000000               0.999999991               0.000210970               0.000000000               0.999999991               0.000216528              -0.000000000               0.999999991               0.000222552              -0.000000000               0.999999991               0.000229366               0.000000000               0.999999991               0.000237075              -0.000000000               0.999999991               0.000245719               0.000000000               0.999999991               0.000255378               0.000000000               0.999999991               0.000266150               0.000000000               0.999999991               0.000278018               0.000000000               0.999999991               0.000290886               0.000000000               0.999999991               0.000304663               0.000000000               0.999999991               0.000319172               0.000000000               0.999999991               0.000334123               0.000000000               0.999999991               0.000154798              -0.000071491               0.999999991               0.000181820              -0.000061854               0.999999991               0.000194314              -0.000058602               0.999999991               0.000201494              -0.000058845               0.999999991               0.000207060              -0.000061106               0.999999991               0.000212548              -0.000064703               0.999999991               0.000218621              -0.000069093               0.999999991               0.000225523              -0.000073969               0.999999991               0.000233322              -0.000079243               0.999999991               0.000242092              -0.000084900               0.999999991               0.000251890              -0.000090778               0.999999991               0.000262743              -0.000096794               0.999999991               0.000274571              -0.000102866               0.999999991               0.000287282              -0.000108859               0.999999991               0.000300747              -0.000114418               0.999999991               0.000314817              -0.000119169               0.999999991               0.000329320              -0.000122671               0.999999991               0.000152364              -0.000142190               0.999999991               0.000175088              -0.000123032               0.999999991               0.000185140              -0.000116960               0.999999991               0.000191081              -0.000117829               0.999999991               0.000196106              -0.000122617               0.999999991               0.000201456              -0.000129942               0.999999991               0.000207567              -0.000138856               0.999999991               0.000214646              -0.000148697               0.999999991               0.000222752              -0.000159273               0.999999991               0.000231859              -0.000170421               0.999999991               0.000241964              -0.000182003               0.999999991               0.000252979              -0.000193831               0.999999991               0.000264800              -0.000205636               0.999999991               0.000277289              -0.000217200               0.999999991               0.000290214              -0.000228018               0.999999991               0.000303503              -0.000237507               0.999999991               0.000317040              -0.000245133               0.999999991               0.000148244              -0.000211364               0.999999991               0.000164144              -0.000183009               0.999999991               0.000170639              -0.000174903               0.999999991               0.000174985              -0.000176981               0.999999991               0.000179465              -0.000184777               0.999999991               0.000184901              -0.000196026               0.999999991               0.000191386              -0.000209449               0.999999991               0.000198989              -0.000224225               0.999999991               0.000207638              -0.000239953               0.999999991               0.000217265              -0.000256594               0.999999991               0.000227789              -0.000273755               0.999999991               0.000239032              -0.000291022               0.999999991               0.000250794              -0.000308186               0.999999991               0.000262886              -0.000324914               0.999999991               0.000275154              -0.000340644               0.999999991               0.000287507              -0.000354964               0.999999991               0.000299985              -0.000367540               0.999999991               0.000142489              -0.000278263               0.999999991               0.000149569              -0.000241403               0.999999991               0.000152100              -0.000232150               0.999999991               0.000155010              -0.000236138               0.999999991               0.000159422              -0.000247263               0.999999991               0.000165473              -0.000262561               0.999999991               0.000172817              -0.000280358               0.999999991               0.000181312              -0.000299882               0.999999991               0.000190787              -0.000320758               0.999999991               0.000201052              -0.000342687               0.999999991               0.000212002              -0.000365083               0.999999991               0.000223484              -0.000387564               0.999999991               0.000235181              -0.000409748               0.999999991               0.000246954              -0.000431360               0.999999991               0.000258710              -0.000451997               0.999999991               0.000270429              -0.000471488               0.999999991               0.000282254              -0.000489878               0.999999991               0.000135287              -0.000342081               0.999999991               0.000132263              -0.000297928               0.999999991               0.000131275              -0.000288374               0.999999991               0.000133502              -0.000294727               0.999999991               0.000138541              -0.000309365               0.999999991               0.000145695              -0.000328693               0.999999991               0.000154233              -0.000350811               0.999999991               0.000163807              -0.000375105               0.999999991               0.000174282              -0.000400937               0.999999991               0.000185437              -0.000427715               0.999999991               0.000197028              -0.000455039               0.999999991               0.000208790              -0.000482306               0.999999991               0.000220542              -0.000509219               0.999999991               0.000232188              -0.000535615               0.999999991               0.000243596              -0.000561122               0.999999991               0.000254869              -0.000585882               0.999999991               0.000266114              -0.000609860               0.999999991               0.000126771              -0.000402159               0.999999991               0.000113302              -0.000352381               0.999999991               0.000109688              -0.000343327               0.999999991               0.000112136              -0.000352222               0.999999991               0.000118445              -0.000370443               0.999999991               0.000127053              -0.000393719               0.999999991               0.000137003              -0.000420140               0.999999991               0.000148011              -0.000449009               0.999999991               0.000159761              -0.000479369               0.999999991               0.000171872              -0.000510759               0.999999991               0.000184083              -0.000542627               0.999999991               0.000196117              -0.000574381               0.999999991               0.000207864              -0.000605723               0.999999991               0.000219188              -0.000636569               0.999999991               0.000230172              -0.000666752               0.999999991               0.000240895              -0.000696280               0.999999991               0.000251287              -0.000725064               0.999999991               0.000117121              -0.000457953               0.999999991               0.000093676              -0.000404643               0.999999991               0.000088603              -0.000396664               0.999999991               0.000092242              -0.000408106               0.999999991               0.000100355              -0.000429687               0.999999991               0.000110811              -0.000456826               0.999999991               0.000122495              -0.000487410               0.999999991               0.000134988              -0.000520547               0.999999991               0.000147831              -0.000555339               0.999999991               0.000160705              -0.000591078               0.999999991               0.000173220              -0.000627135               0.999999991               0.000185179              -0.000663051               0.999999991               0.000196539              -0.000698515               0.999999991               0.000207351              -0.000733486               0.999999991               0.000217708              -0.000767889               0.999999991               0.000227642              -0.000801661               0.999999991               0.000237193              -0.000834605               0.999999991               0.000106824              -0.000508598               0.999999991               0.000074027              -0.000454721               0.999999991               0.000069290              -0.000447858               0.999999991               0.000074806              -0.000461654               0.999999991               0.000085110              -0.000486386               0.999999991               0.000097480              -0.000517276               0.999999991               0.000110714              -0.000551953               0.999999991               0.000124468              -0.000589331               0.999999991               0.000138181              -0.000628351               0.999999991               0.000151314              -0.000668101               0.999999991               0.000163711              -0.000708040               0.999999991               0.000175179              -0.000747712               0.999999991               0.000185904              -0.000786949               0.999999991               0.000196079              -0.000825690               0.999999991               0.000205979              -0.000863882               0.999999991               0.000215575              -0.000901364               0.999999991               0.000224937              -0.000938137               0.999999991               0.000096618              -0.000555911               0.999999991               0.000058658              -0.000507926               0.999999991               0.000051450              -0.000497143               0.999999991               0.000055469              -0.000505870               0.999999991               0.000064507              -0.000525703               0.999999991               0.000075724              -0.000552323               0.999999991               0.000087793              -0.000583135               0.999999991               0.000100174              -0.000616942               0.999999991               0.000112746              -0.000652754               0.999999991               0.000124835              -0.000689663               0.999999991               0.000136299              -0.000727084               0.999999991               0.000146781              -0.000764635               0.999999991               0.000156217              -0.000802065               0.999999991               0.000164917              -0.000839276               0.999999991               0.000173237              -0.000876146               0.999999991               0.000181537              -0.000912730               0.999999991               0.000189945              -0.000948726               0.999999991               0.000084999              -0.000598585               0.999999991               0.000045307              -0.000558797               0.999999991               0.000035739              -0.000547000               0.999999991               0.000037841              -0.000552021               0.999999991               0.000045138              -0.000567623               0.999999991               0.000054875              -0.000590143               0.999999991               0.000065457              -0.000617357               0.999999991               0.000076355              -0.000647866               0.999999991               0.000087583              -0.000680591               0.999999991               0.000098664              -0.000714741               0.999999991               0.000109127              -0.000749601               0.999999991               0.000118540              -0.000784773               0.999999991               0.000126798              -0.000820080               0.999999991               0.000133938              -0.000855347               0.999999991               0.000140282              -0.000890602               0.999999991               0.000146271              -0.000925829               0.999999991               0.000152292              -0.000960990               0.999999991               0.000072411              -0.000635659               0.999999991               0.000034012              -0.000605897               0.999999991               0.000022832              -0.000595360               0.999999991               0.000022931              -0.000598424               0.999999991               0.000028267              -0.000610886               0.999999991               0.000036062              -0.000630030               0.999999991               0.000044894              -0.000653923               0.999999991               0.000054229              -0.000681348               0.999999991               0.000063875              -0.000711312               0.999999991               0.000073626              -0.000742973               0.999999991               0.000082837              -0.000775703               0.999999991               0.000091076              -0.000808941               0.999999991               0.000098119              -0.000842355               0.999999991               0.000103713              -0.000875814               0.999999991               0.000107960              -0.000909334               0.999999991               0.000111155              -0.000942982               0.999999991               0.000113733              -0.000976788               0.999999991               0.000059000              -0.000666684               0.999999991               0.000024658              -0.000647480               0.999999991               0.000013047              -0.000639958               0.999999991               0.000011508              -0.000642669               0.999999991               0.000014809              -0.000653376               0.999999991               0.000020564              -0.000670133               0.999999991               0.000027475              -0.000691416               0.999999991               0.000034935              -0.000716239               0.999999991               0.000042822              -0.000743866               0.999999991               0.000050888              -0.000773454               0.999999991               0.000058602              -0.000804435               0.999999991               0.000065514              -0.000836242               0.999999991               0.000071276              -0.000868368               0.999999991               0.000075478              -0.000900681               0.999999991               0.000077767              -0.000933043               0.999999991               0.000078226              -0.000965514               0.999999991               0.000076891              -0.000998121               0.999999991               0.000044890              -0.000691320               0.999999991               0.000016943              -0.000681916               0.999999991               0.000006426              -0.000678252               0.999999991               0.000003970              -0.000681839               0.999999991               0.000005603              -0.000691929               0.999999991               0.000009441              -0.000707297               0.999999991               0.000014331              -0.000726933               0.999999991               0.000019800              -0.000749915               0.999999991               0.000025680              -0.000775725               0.999999991               0.000031856              -0.000803701               0.999999991               0.000037833              -0.000833361               0.999999991               0.000043228              -0.000864240               0.999999991               0.000047651              -0.000895785               0.999999991               0.000050599              -0.000927688               0.999999991               0.000051552              -0.000959757               0.999999991               0.000050051              -0.000991904               0.999999991               0.000045609              -0.001024079               0.999999991               0.000030248              -0.000709223               0.999999991               0.000010528              -0.000707708               0.999999991               0.000002572              -0.000707806               0.999999991               0.000000160              -0.000712806               0.999999991               0.000000682              -0.000722982               0.999999991               0.000002875              -0.000737815               0.999999991               0.000005938              -0.000756533               0.999999991               0.000009465              -0.000778379               0.999999991               0.000013394              -0.000802979               0.999999991               0.000017566              -0.000829907               0.999999991               0.000021597              -0.000858736               0.999999991               0.000025194              -0.000889051               0.999999991               0.000028131              -0.000920441               0.999999991               0.000029973              -0.000952540               0.999999991               0.000030199              -0.000985086               0.999999991               0.000028106              -0.001017779               0.999999991               0.000022933              -0.001050327               0.999999991               0.000015224              -0.000720193               0.999999991               0.000005016              -0.000723753               0.999999991               0.000000748              -0.000726501               0.999999991              -0.000000711              -0.000732785               0.999999991              -0.000000672              -0.000743313               0.999999991               0.000000288              -0.000757925               0.999999991               0.000001749              -0.000776147               0.999999991               0.000003501              -0.000797491               0.999999991               0.000005401              -0.000821529               0.999999991               0.000007505              -0.000847883               0.999999991               0.000009563              -0.000876287               0.999999991               0.000011319              -0.000906288               0.999999991               0.000012708              -0.000937561               0.999999991               0.000013542              -0.000969798               0.999999991               0.000013560              -0.001002704               0.999999991               0.000012315              -0.001035989               0.999999991               0.000009178              -0.001069211               0.999999991               0.000000000              -0.000723909               0.999999991               0.000000000              -0.000729229               0.999999991              -0.000000000              -0.000732918               0.999999991              -0.000000000              -0.000739706               0.999999991               0.000000000              -0.000750468               0.999999991              -0.000000000              -0.000765060               0.999999991               0.000000000              -0.000783113               0.999999991              -0.000000000              -0.000804279               0.999999991              -0.000000000              -0.000828097               0.999999991              -0.000000000              -0.000854281               0.999999991              -0.000000000              -0.000882574               0.999999991               0.000000000              -0.000912511               0.999999991               0.000000000              -0.000943656               0.999999991               0.000000000              -0.000975778               0.999999991               0.000000000              -0.001008632               0.999999991               0.000000000              -0.001041964               0.999999991               0.000000000              -0.001075455               0.999999991               0.000155599               0.000000000               0.999999991               0.000184085              -0.000000000               0.999999991               0.000197488               0.000000000               0.999999991               0.000205180               0.000000000               0.999999991               0.000210970               0.000000000               0.999999991               0.000216528              -0.000000000               0.999999991               0.000222552              -0.000000000               0.999999991               0.000229366               0.000000000               0.999999991               0.000237075              -0.000000000               0.999999991               0.000245719               0.000000000               0.999999991               0.000255378               0.000000000               0.999999991               0.000266150               0.000000000               0.999999991               0.000278018               0.000000000               0.999999991               0.000290886               0.000000000               0.999999991               0.000304663               0.000000000               0.999999991               0.000319172               0.000000000               0.999999991               0.000334123               0.000000000               0.999999991               0.000154798               0.000071491               0.999999991               0.000181820               0.000061854               0.999999991               0.000194314               0.000058602               0.999999991               0.000201494               0.000058845               0.999999991               0.000207060               0.000061106               0.999999991               0.000212548               0.000064703               0.999999991               0.000218621               0.000069093               0.999999991               0.000225523               0.000073969               0.999999991               0.000233322               0.000079243               0.999999991               0.000242092               0.000084900               0.999999991               0.000251890               0.000090778               0.999999991               0.000262743               0.000096794               0.999999991               0.000274571               0.000102866               0.999999991               0.000287282               0.000108859               0.999999991               0.000300747               0.000114418               0.999999991               0.000314817               0.000119169               0.999999991               0.000329320               0.000122671               0.999999991               0.000152364               0.000142190               0.999999991               0.000175088               0.000123032               0.999999991               0.000185140               0.000116960               0.999999991               0.000191081               0.000117829               0.999999991               0.000196106               0.000122617               0.999999991               0.000201456               0.000129942               0.999999991               0.000207567               0.000138856               0.999999991               0.000214646               0.000148697               0.999999991               0.000222752               0.000159273               0.999999991               0.000231859               0.000170421               0.999999991               0.000241964               0.000182003               0.999999991               0.000252979               0.000193831               0.999999991               0.000264800               0.000205636               0.999999991               0.000277289               0.000217200               0.999999991               0.000290214               0.000228018               0.999999991               0.000303503               0.000237507               0.999999991               0.000317040               0.000245133               0.999999991               0.000148244               0.000211364               0.999999991               0.000164144               0.000183009               0.999999991               0.000170639               0.000174903               0.999999991               0.000174985               0.000176981               0.999999991               0.000179465               0.000184777               0.999999991               0.000184901               0.000196026               0.999999991               0.000191386               0.000209449               0.999999991               0.000198989               0.000224225               0.999999991               0.000207638               0.000239953               0.999999991               0.000217265               0.000256594               0.999999991               0.000227789               0.000273755               0.999999991               0.000239032               0.000291022               0.999999991               0.000250794               0.000308186               0.999999991               0.000262886               0.000324914               0.999999991               0.000275154               0.000340644               0.999999991               0.000287507               0.000354964               0.999999991               0.000299985               0.000367540               0.999999991               0.000142489               0.000278263               0.999999991               0.000149569               0.000241403               0.999999991               0.000152100               0.000232150               0.999999991               0.000155010               0.000236138               0.999999991               0.000159422               0.000247263               0.999999991               0.000165473               0.000262561               0.999999991               0.000172817               0.000280358               0.999999991               0.000181312               0.000299882               0.999999991               0.000190787               0.000320758               0.999999991               0.000201052               0.000342687               0.999999991               0.000212002               0.000365083               0.999999991               0.000223484               0.000387564               0.999999991               0.000235181               0.000409748               0.999999991               0.000246954               0.000431360               0.999999991               0.000258710               0.000451997               0.999999991               0.000270429               0.000471488               0.999999991               0.000282254               0.000489878               0.999999991               0.000135287               0.000342081               0.999999991               0.000132263               0.000297928               0.999999991               0.000131275               0.000288374               0.999999991               0.000133502               0.000294727               0.999999991               0.000138541               0.000309365               0.999999991               0.000145695               0.000328693               0.999999991               0.000154233               0.000350811               0.999999991               0.000163807               0.000375105               0.999999991               0.000174282               0.000400937               0.999999991               0.000185437               0.000427715               0.999999991               0.000197028               0.000455039               0.999999991               0.000208790               0.000482306               0.999999991               0.000220542               0.000509219               0.999999991               0.000232188               0.000535615               0.999999991               0.000243596               0.000561122               0.999999991               0.000254869               0.000585882               0.999999991               0.000266114               0.000609860               0.999999991               0.000126771               0.000402159               0.999999991               0.000113302               0.000352381               0.999999991               0.000109688               0.000343327               0.999999991               0.000112136               0.000352222               0.999999991               0.000118445               0.000370443               0.999999991               0.000127053               0.000393719               0.999999991               0.000137003               0.000420140               0.999999991               0.000148011               0.000449009               0.999999991               0.000159761               0.000479369               0.999999991               0.000171872               0.000510759               0.999999991               0.000184083               0.000542627               0.999999991               0.000196117               0.000574381               0.999999991               0.000207864               0.000605723               0.999999991               0.000219188               0.000636569               0.999999991               0.000230172               0.000666752               0.999999991               0.000240895               0.000696280               0.999999991               0.000251287               0.000725064               0.999999991               0.000117121               0.000457953               0.999999991               0.000093676               0.000404643               0.999999991               0.000088603               0.000396664               0.999999991               0.000092242               0.000408106               0.999999991               0.000100355               0.000429687               0.999999991               0.000110811               0.000456826               0.999999991               0.000122495               0.000487410               0.999999991               0.000134988               0.000520547               0.999999991               0.000147831               0.000555339               0.999999991               0.000160705               0.000591078               0.999999991               0.000173220               0.000627135               0.999999991               0.000185179               0.000663051               0.999999991               0.000196539               0.000698515               0.999999991               0.000207351               0.000733486               0.999999991               0.000217708               0.000767889               0.999999991               0.000227642               0.000801661               0.999999991               0.000237193               0.000834605               0.999999991               0.000106824               0.000508598               0.999999991               0.000074027               0.000454721               0.999999991               0.000069290               0.000447858               0.999999991               0.000074806               0.000461654               0.999999991               0.000085110               0.000486386               0.999999991               0.000097480               0.000517276               0.999999991               0.000110714               0.000551953               0.999999991               0.000124468               0.000589331               0.999999991               0.000138181               0.000628351               0.999999991               0.000151314               0.000668101               0.999999991               0.000163711               0.000708040               0.999999991               0.000175179               0.000747712               0.999999991               0.000185904               0.000786949               0.999999991               0.000196079               0.000825690               0.999999991               0.000205979               0.000863882               0.999999991               0.000215575               0.000901364               0.999999991               0.000224937               0.000938137               0.999999991               0.000096618               0.000555911               0.999999991               0.000058658               0.000507926               0.999999991               0.000051450               0.000497143               0.999999991               0.000055469               0.000505870               0.999999991               0.000064507               0.000525703               0.999999991               0.000075724               0.000552323               0.999999991               0.000087793               0.000583135               0.999999991               0.000100174               0.000616942               0.999999991               0.000112746               0.000652754               0.999999991               0.000124835               0.000689663               0.999999991               0.000136299               0.000727084               0.999999991               0.000146781               0.000764635               0.999999991               0.000156217               0.000802065               0.999999991               0.000164917               0.000839276               0.999999991               0.000173237               0.000876146               0.999999991               0.000181537               0.000912730               0.999999991               0.000189945               0.000948726               0.999999991               0.000084999               0.000598585               0.999999991               0.000045307               0.000558797               0.999999991               0.000035739               0.000547000               0.999999991               0.000037841               0.000552021               0.999999991               0.000045138               0.000567623               0.999999991               0.000054875               0.000590143               0.999999991               0.000065457               0.000617357               0.999999991               0.000076355               0.000647866               0.999999991               0.000087583               0.000680591               0.999999991               0.000098664               0.000714741               0.999999991               0.000109127               0.000749601               0.999999991               0.000118540               0.000784773               0.999999991               0.000126798               0.000820080               0.999999991               0.000133938               0.000855347               0.999999991               0.000140282               0.000890602               0.999999991               0.000146271               0.000925829               0.999999991               0.000152292               0.000960990               0.999999991               0.000072411               0.000635659               0.999999991               0.000034012               0.000605897               0.999999991               0.000022832               0.000595360               0.999999991               0.000022931               0.000598424               0.999999991               0.000028267               0.000610886               0.999999991               0.000036062               0.000630030               0.999999991               0.000044894               0.000653923               0.999999991               0.000054229               0.000681348               0.999999991               0.000063875               0.000711312               0.999999991               0.000073626               0.000742973               0.999999991               0.000082837               0.000775703               0.999999991               0.000091076               0.000808941               0.999999991               0.000098119               0.000842355               0.999999991               0.000103713               0.000875814               0.999999991               0.000107960               0.000909334               0.999999991               0.000111155               0.000942982               0.999999991               0.000113733               0.000976788               0.999999991               0.000059000               0.000666684               0.999999991               0.000024658               0.000647480               0.999999991               0.000013047               0.000639958               0.999999991               0.000011508               0.000642669               0.999999991               0.000014809               0.000653376               0.999999991               0.000020564               0.000670133               0.999999991               0.000027475               0.000691416               0.999999991               0.000034935               0.000716239               0.999999991               0.000042822               0.000743866               0.999999991               0.000050888               0.000773454               0.999999991               0.000058602               0.000804435               0.999999991               0.000065514               0.000836242               0.999999991               0.000071276               0.000868368               0.999999991               0.000075478               0.000900681               0.999999991               0.000077767               0.000933043               0.999999991               0.000078226               0.000965514               0.999999991               0.000076891               0.000998121               0.999999991               0.000044890               0.000691320               0.999999991               0.000016943               0.000681916               0.999999991               0.000006426               0.000678252               0.999999991               0.000003970               0.000681839               0.999999991               0.000005603               0.000691929               0.999999991               0.000009441               0.000707297               0.999999991               0.000014331               0.000726933               0.999999991               0.000019800               0.000749915               0.999999991               0.000025680               0.000775725               0.999999991               0.000031856               0.000803701               0.999999991               0.000037833               0.000833361               0.999999991               0.000043228               0.000864240               0.999999991               0.000047651               0.000895785               0.999999991               0.000050599               0.000927688               0.999999991               0.000051552               0.000959757               0.999999991               0.000050051               0.000991904               0.999999991               0.000045609               0.001024079               0.999999991               0.000030248               0.000709223               0.999999991               0.000010528               0.000707708               0.999999991               0.000002572               0.000707806               0.999999991               0.000000160               0.000712806               0.999999991               0.000000682               0.000722982               0.999999991               0.000002875               0.000737815               0.999999991               0.000005938               0.000756533               0.999999991               0.000009465               0.000778379               0.999999991               0.000013394               0.000802979               0.999999991               0.000017566               0.000829907               0.999999991               0.000021597               0.000858736               0.999999991               0.000025194               0.000889051               0.999999991               0.000028131               0.000920441               0.999999991               0.000029973               0.000952540               0.999999991               0.000030199               0.000985086               0.999999991               0.000028106               0.001017779               0.999999991               0.000022933               0.001050327               0.999999991               0.000015224               0.000720193               0.999999991               0.000005016               0.000723753               0.999999991               0.000000748               0.000726501               0.999999991              -0.000000711               0.000732785               0.999999991              -0.000000672               0.000743313               0.999999991               0.000000288               0.000757925               0.999999991               0.000001749               0.000776147               0.999999991               0.000003501               0.000797491               0.999999991               0.000005401               0.000821529               0.999999991               0.000007505               0.000847883               0.999999991               0.000009563               0.000876287               0.999999991               0.000011319               0.000906288               0.999999991               0.000012708               0.000937561               0.999999991               0.000013542               0.000969798               0.999999991               0.000013560               0.001002704               0.999999991               0.000012315               0.001035989               0.999999991               0.000009178               0.001069211               0.999999991               0.000000000               0.000723909               0.999999991               0.000000000               0.000729229               0.999999991               0.000000000               0.000732918               0.999999991              -0.000000000               0.000739706               0.999999991               0.000000000               0.000750468               0.999999991              -0.000000000               0.000765060               0.999999991              -0.000000000               0.000783113               0.999999991              -0.000000000               0.000804279               0.999999991              -0.000000000               0.000828097               0.999999991              -0.000000000               0.000854281               0.999999991              -0.000000000               0.000882574               0.999999991              -0.000000000               0.000912511               0.999999991              -0.000000000               0.000943656               0.999999991               0.000000000               0.000975778               0.999999991               0.000000000               0.001008632               0.999999991               0.000000000               0.001041964               0.999999991              -0.000000000               0.001075455               0.999999991 </DataArray>
<DataArray type="Float64"                                    Name="defo"                                                      NumberOfComponents=" 3" format="ascii">
             -0.000155599               0.000000000               0.999999991              -0.000184085               0.000000000               0.999999991              -0.000197488               0.000000000               0.999999991              -0.000205180               0.000000000               0.999999991              -0.000210970               0.000000000               0.999999991              -0.000216528               0.000000000               0.999999991              -0.000222552              -0.000000000               0.999999991              -0.000229366               0.000000000               0.999999991              -0.000237075               0.000000000               0.999999991              -0.000245719               0.000000000               0.999999991              -0.000255378               0.000000000               0.999999991              -0.000266150               0.000000000               0.999999991              -0.000278018               0.000000000               0.999999991              -0.000290886               0.000000000               0.999999991              -0.000304663               0.000000000               0.999999991              -0.000319172               0.000000000               0.999999991              -0.000334123               0.000000000               0.999999991              -0.000154798               0.000071491               0.999999991              -0.000181820               0.000061854               0.999999991              -0.000194314               0.000058602               0.999999991              -0.000201494               0.000058845               0.999999991              -0.000207060               0.000061106               0.999999991              -0.000212548               0.000064703               0.999999991              -0.000218621               0.000069093               0.999999991              -0.000225523               0.000073969               0.999999991              -0.000233322               0.000079243               0.999999991              -0.000242092               0.000084900               0.999999991              -0.000251890               0.000090778               0.999999991              -0.000262743               0.000096794               0.999999991              -0.000274571               0.000102866               0.999999991              -0.000287282               0.000108859               0.999999991              -0.000300747               0.000114418               0.999999991              -0.000314817               0.000119169               0.999999991              -0.000329320               0.000122671               0.999999991              -0.000152364               0.000142190               0.999999991              -0.000175088               0.000123032               0.999999991              -0.000185140               0.000116960               0.999999991              -0.000191081               0.000117829               0.999999991              -0.000196106               0.000122617               0.999999991              -0.000201456               0.000129942               0.999999991              -0.000207567               0.000138856               0.999999991              -0.000214646               0.000148697               0.999999991              -0.000222752               0.000159273               0.999999991              -0.000231859               0.000170421               0.999999991              -0.000241964               0.000182003               0.999999991              -0.000252979               0.000193831               0.999999991              -0.000264800               0.000205636               0.999999991              -0.000277289               0.000217200               0.999999991              -0.000290214               0.000228018               0.999999991              -0.000303503               0.000237507               0.999999991              -0.000317040               0.000245133               0.999999991              -0.000148244               0.000211364               0.999999991              -0.000164144               0.000183009               0.999999991              -0.000170639               0.000174903               0.999999991              -0.000174985               0.000176981               0.999999991              -0.000179465               0.000184777               0.999999991              -0.000184901               0.000196026               0.999999991              -0.000191386               0.000209449               0.999999991              -0.000198989               0.000224225               0.999999991              -0.000207638               0.000239953               0.999999991              -0.000217265               0.000256594               0.999999991              -0.000227789               0.000273755               0.999999991              -0.000239032               0.000291022               0.999999991              -0.000250794               0.000308186               0.999999991              -0.000262886               0.000324914               0.999999991              -0.000275154               0.000340644               0.999999991              -0.000287507               0.000354964               0.999999991              -0.000299985               0.000367540               0.999999991              -0.000142489               0.000278263               0.999999991              -0.000149569               0.000241403               0.999999991              -0.000152100               0.000232150               0.999999991              -0.000155010               0.000236138               0.999999991              -0.000159422               0.000247263               0.999999991              -0.000165473               0.000262561               0.999999991              -0.000172817               0.000280358               0.999999991              -0.000181312               0.000299882               0.999999991              -0.000190787               0.000320758               0.999999991              -0.000201052               0.000342687               0.999999991              -0.000212002               0.000365083               0.999999991              -0.000223484               0.000387564               0.999999991              -0.000235181               0.000409748               0.999999991              -0.000246954               0.000431360               0.999999991              -0.000258710               0.000451997               0.999999991              -0.000270429               0.000471488               0.999999991              -0.000282254               0.000489878               0.999999991              -0.000135287               0.000342081               0.999999991              -0.000132263               0.000297928               0.999999991              -0.000131275               0.000288374               0.999999991              -0.000133502               0.000294727               0.999999991              -0.000138541               0.000309365               0.999999991              -0.000145695               0.000328693               0.999999991              -0.000154233               0.000350811               0.999999991              -0.000163807               0.000375105               0.999999991              -0.000174282               0.000400937               0.999999991              -0.000185437               0.000427715               0.999999991              -0.000197028               0.000455039               0.999999991              -0.000208790               0.000482306               0.999999991              -0.000220542               0.000509219               0.999999991              -0.000232188               0.000535615               0.999999991              -0.000243596               0.000561122               0.999999991              -0.000254869               0.000585882               0.999999991              -0.000266114               0.000609860               0.999999991              -0.000126771               0.000402159               0.999999991              -0.000113302               0.000352381               0.999999991              -0.000109688               0.000343327               0.999999991              -0.000112136               0.000352222               0.999999991              -0.000118445               0.000370443               0.999999991              -0.000127053               0.000393719               0.999999991              -0.000137003               0.000420140               0.999999991              -0.000148011               0.000449009               0.999999991              -0.000159761               0.000479369               0.999999991              -0.000171872               0.000510759               0.999999991              -0.000184083               0.000542627               0.999999991              -0.000196117               0.000574381               0.999999991              -0.000207864               0.000605723               0.999999991              -0.000219188               0.000636569               0.999999991              -0.000230172               0.000666752               0.999999991              -0.000240895               0.000696280               0.999999991              -0.000251287               0.000725064               0.999999991              -0.000117121               0.000457953               0.999999991              -0.000093676               0.000404643               0.999999991              -0.000088603               0.000396664               0.999999991              -0.000092242               0.000408106               0.999999991              -0.000100355               0.000429687               0.999999991              -0.000110811               0.000456826               0.999999991              -0.000122495               0.000487410               0.999999991              -0.000134988               0.000520547               0.999999991              -0.000147831               0.000555339               0.999999991              -0.000160705               0.000591078               0.999999991              -0.000173220               0.000627135               0.999999991              -0.000185179               0.000663051               0.999999991              -0.000196539               0.000698515               0.999999991              -0.000207351               0.000733486               0.999999991              -0.000217708               0.000767889               0.999999991              -0.000227642               0.000801661               0.999999991              -0.000237193               0.000834605               0.999999991              -0.000106824               0.000508598               0.999999991              -0.000074027               0.000454721               0.999999991              -0.000069290               0.000447858               0.999999991              -0.000074806               0.000461654               0.999999991              -0.000085110               0.000486386               0.999999991              -0.000097480               0.000517276               0.999999991              -0.000110714               0.000551953               0.999999991              -0.000124468               0.000589331               0.999999991              -0.000138181               0.000628351               0.999999991              -0.000151314               0.000668101               0.999999991              -0.000163711               0.000708040               0.999999991              -0.000175179               0.000747712               0.999999991              -0.000185904               0.000786949               0.999999991              -0.000196079               0.000825690               0.999999991              -0.000205979               0.000863882               0.999999991              -0.000215575               0.000901364               0.999999991              -0.000224937               0.000938137               0.999999991              -0.000096618               0.000555911               0.999999991              -0.000058658               0.000507926               0.999999991              -0.000051450               0.000497143               0.999999991              -0.000055469               0.000505870               0.999999991              -0.000064507               0.000525703               0.999999991              -0.000075724               0.000552323               0.999999991              -0.000087793               0.000583135               0.999999991              -0.000100174               0.000616942               0.999999991              -0.000112746               0.000652754               0.999999991              -0.000124835               0.000689663               0.999999991              -0.000136299               0.000727084               0.999999991              -0.000146781               0.000764635               0.999999991              -0.000156217               0.000802065               0.999999991              -0.000164917               0.000839276               0.999999991              -0.000173237               0.000876146               0.999999991              -0.000181537               0.000912730               0.999999991              -0.000189945               0.000948726               0.999999991              -0.000084999               0.000598585               0.999999991              -0.000045307               0.000558797               0.999999991              -0.000035739               0.000547000               0.999999991              -0.000037841               0.000552021               0.999999991              -0.000045138               0.000567623               0.999999991              -0.000054875               0.000590143               0.999999991              -0.000065457               0.000617357               0.999999991              -0.000076355               0.000647866               0.999999991              -0.000087583               0.000680591               0.999999991              -0.000098664               0.000714741               0.999999991              -0.000109127               0.000749601               0.999999991              -0.000118540               0.000784773               0.999999991              -0.000126798               0.000820080               0.999999991              -0.000133938               0.000855347               0.999999991              -0.000140282               0.000890602               0.999999991              -0.000146271               0.000925829               0.999999991              -0.000152292               0.000960990               0.999999991              -0.000072411               0.000635659               0.999999991              -0.000034012               0.000605897               0.999999991              -0.000022832               0.000595360               0.999999991              -0.000022931               0.000598424               0.999999991              -0.000028267               0.000610886               0.999999991              -0.000036062               0.000630030               0.999999991              -0.000044894               0.000653923               0.999999991              -0.000054229               0.000681348               0.999999991              -0.000063875               0.000711312               0.999999991              -0.000073626               0.000742973               0.999999991              -0.000082837               0.000775703               0.999999991              -0.000091076               0.000808941               0.999999991              -0.000098119               0.000842355               0.999999991              -0.000103713               0.000875814               0.999999991              -0.000107960               0.000909334               0.999999991              -0.000111155               0.000942982               0.999999991              -0.000113733               0.000976788               0.999999991              -0.000059000               0.000666684               0.999999991              -0.000024658               0.000647480               0.999999991              -0.000013047               0.000639958               0.999999991              -0.000011508               0.000642669               0.999999991              -0.000014809               0.000653376               0.999999991              -0.000020564               0.000670133               0.999999991              -0.000027475               0.000691416               0.999999991              -0.000034935               0.000716239               0.999999991              -0.000042822               0.000743866               0.999999991              -0.000050888               0.000773454               0.999999991              -0.000058602               0.000804435               0.999999991              -0.000065514               0.000836242               0.999999991              -0.000071276               0.000868368               0.999999991              -0.000075478               0.000900681               0.999999991              -0.000077767               0.000933043               0.999999991              -0.000078226               0.000965514               0.999999991              -0.000076891               0.000998121               0.999999991              -0.000044890               0.000691320               0.999999991              -0.000016943               0.000681916               0.999999991              -0.000006426               0.000678252               0.999999991              -0.000003970               0.000681839               0.999999991              -0.000005603               0.000691929               0.999999991              -0.000009441               0.000707297               0.999999991              -0.000014331               0.000726933               0.999999991              -0.000019800               0.000749915               0.999999991              -0.000025680               0.000775725               0.999999991              -0.000031856               0.000803701               0.999999991              -0.000037833               0.000833361               0.999999991              -0.000043228               0.000864240               0.999999991              -0.000047651               0.000895785               0.999999991              -0.000050599               0.000927688               0.999999991              -0.000051552               0.000959757               0.999999991              -0.000050051               0.000991904               0.999999991              -0.000045609               0.001024079               0.999999991              -0.000030248               0.000709223               0.999999991              -0.000010528               0.000707708               0.999999991              -0.000002572               0.000707806               0.999999991              -0.000000160               0.000712806               0.999999991              -0.000000682               0.000722982               0.999999991              -0.000002875               0.000737815               0.999999991              -0.000005938               0.000756533               0.999999991              -0.000009465               0.000778379               0.999999991              -0.000013394               0.000802979               0.999999991              -0.000017566               0.000829907               0.999999991              -0.000021597               0.000858736               0.999999991              -0.000025194               0.000889051               0.999999991              -0.000028131               0.000920441               0.999999991              -0.000029973               0.000952540               0.999999991              -0.000030199               0.000985086               0.999999991              -0.000028106               0.001017779               0.999999991              -0.000022933               0.001050327               0.999999991              -0.000015224               0.000720193               0.999999991              -0.000005016               0.000723753               0.999999991              -0.000000748               0.000726501               0.999999991               0.000000711               0.000732785               0.999999991               0.000000672               0.000743313               0.999999991              -0.000000288               0.000757925               0.999999991              -0.000001749               0.000776147               0.999999991              -0.000003501               0.000797491               0.999999991              -0.000005401               0.000821529               0.999999991              -0.000007505               0.000847883               0.999999991              -0.000009563               0.000876287               0.999999991              -0.000011319               0.000906288               0.999999991              -0.000012708               0.000937561               0.999999991              -0.000013542               0.000969798               0.999999991              -0.000013560               0.001002704               0.999999991              -0.000012315               0.001035989               0.999999991              -0.000009178               0.001069211               0.999999991               0.000000000               0.000723909               0.999999991               0.000000000               0.000729229               0.999999991               0.000000000               0.000732918               0.999999991              -0.000000000               0.000739706               0.999999991               0.000000000               0.000750468               0.999999991              -0.000000000               0.000765060               0.999999991              -0.000000000               0.000783113               0.999999991              -0.000000000               0.000804279               0.999999991              -0.000000000               0.000828097               0.999999991              -0.000000000               0.000854281               0.999999991              -0.000000000               0.000882574               0.999999991              -0.000000000               0.000912511               0.999999991              -0.000000000               0.000943656               0.999999991               0.000000000               0.000975778               0.999999991               0.000000000               0.001008632               0.999999991               0.000000000               0.001041964               0.999999991              -0.000000000               0.001075455               0.999999991              -0.000155599               0.000000000               0.999999991              -0.000184085               0.000000000               0.999999991              -0.000197488               0.000000000               0.999999991              -0.000205180               0.000000000               0.999999991              -0.000210970               0.000000000               0.999999991              -0.000216528               0.000000000               0.999999991              -0.000222552              -0.000000000               0.999999991              -0.000229366               0.000000000               0.999999991              -0.000237075               0.000000000               0.999999991              -0.000245719               0.000000000               0.999999991              -0.000255378               0.000000000               0.999999991              -0.000266150               0.000000000               0.999999991              -0.000278018               0.000000000               0.999999991              -0.000290886               0.000000000               0.999999991              -0.000304663               0.000000000               0.999999991              -0.000319172               0.000000000               0.999999991              -0.000334123               0.000000000               0.999999991              -0.000154798              -0.000071491               0.999999991              -0.000181820              -0.000061854               0.999999991              -0.000194314              -0.000058602               0.999999991              -0.000201494              -0.000058845               0.999999991              -0.000207060              -0.000061106               0.999999991              -0.000212548              -0.000064703               0.999999991              -0.000218621              -0.000069093               0.999999991              -0.000225523              -0.000073969               0.999999991              -0.000233322              -0.000079243               0.999999991              -0.000242092              -0.000084900               0.999999991              -0.000251890              -0.000090778               0.999999991              -0.000262743              -0.000096794               0.999999991              -0.000274571              -0.000102866               0.999999991              -0.000287282              -0.000108859               0.999999991              -0.000300747              -0.000114418               0.999999991              -0.000314817              -0.000119169               0.999999991              -0.000329320              -0.000122671               0.999999991              -0.000152364              -0.000142190               0.999999991              -0.000175088              -0.000123032               0.999999991              -0.000185140              -0.000116960               0.999999991              -0.000191081              -0.000117829               0.999999991              -0.000196106              -0.000122617               0.999999991              -0.000201456              -0.000129942               0.999999991              -0.000207567              -0.000138856               0.999999991              -0.000214646              -0.000148697               0.999999991              -0.000222752              -0.000159273               0.999999991              -0.000231859              -0.000170421               0.999999991              -0.000241964              -0.000182003               0.999999991              -0.000252979              -0.000193831               0.999999991              -0.000264800              -0.000205636               0.999999991              -0.000277289              -0.000217200               0.999999991              -0.000290214              -0.000228018               0.999999991              -0.000303503              -0.000237507               0.999999991              -0.000317040              -0.000245133               0.999999991              -0.000148244              -0.000211364               0.999999991              -0.000164144              -0.000183009               0.999999991              -0.000170639              -0.000174903               0.999999991              -0.000174985              -0.000176981               0.999999991              -0.000179465              -0.000184777               0.999999991              -0.000184901              -0.000196026               0.999999991              -0.000191386              -0.000209449               0.999999991              -0.000198989              -0.000224225               0.999999991              -0.000207638              -0.000239953               0.999999991              -0.000217265              -0.000256594               0.999999991              -0.000227789              -0.000273755               0.999999991              -0.000239032              -0.000291022               0.999999991              -0.000250794              -0.000308186               0.999999991              -0.000262886              -0.000324914               0.999999991              -0.000275154              -0.000340644               0.999999991              -0.000287507              -0.000354964               0.999999991              -0.000299985              -0.000367540               0.999999991              -0.000142489              -0.000278263               0.999999991              -0.000149569              -0.000241403               0.999999991              -0.000152100              -0.000232150               0.999999991              -0.000155010              -0.000236138               0.999999991              -0.000159422              -0.000247263               0.999999991              -0.000165473              -0.000262561               0.999999991              -0.000172817              -0.000280358               0.999999991              -0.000181312              -0.000299882               0.999999991              -0.000190787              -0.000320758               0.999999991              -0.000201052              -0.000342687               0.999999991              -0.000212002              -0.000365083               0.999999991              -0.000223484              -0.000387564               0.999999991              -0.000235181              -0.000409748               0.999999991              -0.000246954              -0.000431360               0.999999991              -0.000258710              -0.000451997               0.999999991              -0.000270429              -0.000471488               0.999999991              -0.000282254              -0.000489878               0.999999991              -0.000135287              -0.000342081               0.999999991              -0.000132263              -0.000297928               0.999999991              -0.000131275              -0.000288374               0.999999991              -0.000133502              -0.000294727               0.999999991              -0.000138541              -0.000309365               0.999999991              -0.000145695              -0.000328693               0.999999991              -0.000154233              -0.000350811               0.999999991              -0.000163807              -0.000375105               0.999999991              -0.000174282              -0.000400937               0.999999991              -0.000185437              -0.000427715               0.999999991              -0.000197028              -0.000455039               0.999999991              -0.000208790              -0.000482306               0.999999991              -0.000220542              -0.000509219               0.999999991              -0.000232188              -0.000535615               0.999999991              -0.000243596              -0.000561122               0.999999991              -0.000254869              -0.000585882               0.999999991              -0.000266114              -0.000609860               0.999999991              -0.000126771              -0.000402159               0.999999991              -0.000113302              -0.000352381               0.999999991              -0.000109688              -0.000343327               0.999999991              -0.000112136              -0.000352222               0.999999991              -0.000118445              -0.000370443               0.999999991              -0.000127053              -0.000393719               0.999999991              -0.000137003              -0.000420140               0.999999991              -0.000148011              -0.000449009               0.999999991              -0.000159761              -0.000479369               0.999999991              -0.000171872              -0.000510759               0.999999991              -0.000184083              -0.000542627               0.999999991              -0.000196117              -0.000574381               0.999999991              -0.000207864              -0.000605723               0.999999991              -0.000219188              -0.000636569               0.999999991              -0.000230172              -0.000666752               0.999999991              -0.000240895              -0.000696280               0.999999991              -0.000251287              -0.000725064               0.999999991              -0.000117121              -0.000457953               0.999999991              -0.000093676              -0.000404643               0.999999991              -0.000088603              -0.000396664               0.999999991              -0.000092242              -0.000408106               0.999999991              -0.000100355              -0.000429687               0.999999991              -0.000110811              -0.000456826               0.999999991              -0.000122495              -0.000487410               0.999999991              -0.000134988              -0.000520547               0.999999991              -0.000147831              -0.000555339               0.999999991              -0.000160705              -0.000591078               0.999999991              -0.000173220              -0.000627135               0.999999991              -0.000185179              -0.000663051               0.999999991              -0.000196539              -0.000698515               0.999999991              -0.000207351              -0.000733486               0.999999991              -0.000217708              -0.000767889               0.999999991              -0.000227642              -0.000801661               0.999999991              -0.000237193              -0.000834605               0.999999991              -0.000106824              -0.000508598               0.999999991              -0.000074027              -0.000454721               0.999999991              -0.000069290              -0.000447858               0.999999991              -0.000074806              -0.000461654               0.999999991              -0.000085110              -0.000486386               0.999999991              -0.000097480              -0.000517276               0.999999991              -0.000110714              -0.000551953               0.999999991              -0.000124468              -0.000589331               0.999999991              -0.000138181              -0.000628351               0.999999991              -0.000151314              -0.000668101               0.999999991              -0.000163711              -0.000708040               0.999999991              -0.000175179              -0.000747712               0.999999991              -0.000185904              -0.000786949               0.999999991              -0.000196079              -0.000825690               0.999999991              -0.000205979              -0.000863882               0.999999991              -0.000215575              -0.000901364               0.999999991              -0.000224937              -0.000938137               0.999999991              -0.000096618              -0.000555911               0.999999991              -0.000058658              -0.000507926               0.999999991              -0.000051450              -0.000497143               0.999999991              -0.000055469              -0.000505870               0.999999991              -0.000064507              -0.000525703               0.999999991              -0.000075724              -0.000552323               0.999999991              -0.000087793              -0.000583135               0.999999991              -0.000100174              -0.000616942               0.999999991              -0.000112746              -0.000652754               0.999999991              -0.000124835              -0.000689663               0.999999991              -0.000136299              -0.000727084               0.999999991              -0.000146781              -0.000764635               0.999999991              -0.000156217              -0.000802065               0.999999991              -0.000164917              -0.000839276               0.999999991              -0.000173237              -0.000876146               0.999999991              -0.000181537              -0.000912730               0.999999991              -0.000189945              -0.000948726               0.999999991              -0.000084999              -0.000598585               0.999999991              -0.000045307              -0.000558797               0.999999991              -0.000035739              -0.000547000               0.999999991              -0.000037841              -0.000552021               0.999999991              -0.000045138              -0.000567623               0.999999991              -0.000054875              -0.000590143               0.999999991              -0.000065457              -0.000617357               0.999999991              -0.000076355              -0.000647866               0.999999991              -0.000087583              -0.000680591               0.999999991              -0.000098664              -0.000714741               0.999999991              -0.000109127              -0.000749601               0.999999991              -0.000118540              -0.000784773               0.999999991              -0.000126798              -0.000820080               0.999999991              -0.000133938              -0.000855347               0.999999991              -0.000140282              -0.000890602               0.999999991              -0.000146271              -0.000925829               0.999999991              -0.000152292              -0.000960990               0.999999991              -0.000072411              -0.000635659               0.999999991              -0.000034012              -0.000605897               0.999999991              -0.000022832              -0.000595360               0.999999991              -0.000022931              -0.000598424               0.999999991              -0.000028267              -0.000610886               0.999999991              -0.000036062              -0.000630030               0.999999991              -0.000044894              -0.000653923               0.999999991              -0.000054229              -0.000681348               0.999999991              -0.000063875              -0.000711312               0.999999991              -0.000073626              -0.000742973               0.999999991              -0.000082837              -0.000775703               0.999999991              -0.000091076              -0.000808941               0.999999991              -0.000098119              -0.000842355               0.999999991              -0.000103713              -0.000875814               0.999999991              -0.000107960              -0.000909334               0.999999991              -0.000111155              -0.000942982               0.999999991              -0.000113733              -0.000976788               0.999999991              -0.000059000              -0.000666684               0.999999991              -0.000024658              -0.000647480               0.999999991              -0.000013047              -0.000639958               0.999999991              -0.000011508              -0.000642669               0.999999991              -0.000014809              -0.000653376               0.999999991              -0.000020564              -0.000670133               0.999999991              -0.000027475              -0.000691416               0.999999991              -0.000034935              -0.000716239               0.999999991              -0.000042822              -0.000743866               0.999999991              -0.000050888              -0.000773454               0.999999991              -0.000058602              -0.000804435               0.999999991              -0.000065514              -0.000836242               0.999999991              -0.000071276              -0.000868368               0.999999991              -0.000075478              -0.000900681               0.999999991              -0.000077767              -0.000933043               0.999999991              -0.000078226              -0.000965514               0.999999991              -0.000076891              -0.000998121               0.999999991              -0.000044890              -0.000691320               0.999999991              -0.000016943              -0.000681916               0.999999991              -0.000006426              -0.000678252               0.999999991              -0.000003970              -0.000681839               0.999999991              -0.000005603              -0.000691929               0.999999991              -0.000009441              -0.000707297               0.999999991              -0.000014331              -0.000726933               0.999999991              -0.000019800              -0.000749915               0.999999991              -0.000025680              -0.000775725               0.999999991              -0.000031856              -0.000803701               0.999999991              -0.000037833              -0.000833361               0.999999991              -0.000043228              -0.000864240               0.999999991              -0.000047651              -0.000895785               0.999999991              -0.000050599              -0.000927688               0.999999991              -0.000051552              -0.000959757               0.999999991              -0.000050051              -0.000991904               0.999999991              -0.000045609              -0.001024079               0.999999991              -0.000030248              -0.000709223               0.999999991              -0.000010528              -0.000707708               0.999999991              -0.000002572              -0.000707806               0.999999991              -0.000000160              -0.000712806               0.999999991              -0.000000682              -0.000722982               0.999999991              -0.000002875              -0.000737815               0.999999991              -0.000005938              -0.000756533               0.999999991              -0.000009465              -0.000778379               0.999999991              -0.000013394              -0.000802979               0.999999991              -0.000017566              -0.000829907               0.999999991              -0.000021597              -0.000858736               0.999999991              -0.000025194              -0.000889051               0.999999991              -0.000028131              -0.000920441               0.999999991              -0.000029973              -0.000952540               0.999999991              -0.000030199              -0.000985086               0.999999991              -0.000028106              -0.001017779               0.999999991              -0.000022933              -0.001050327               0.999999991              -0.000015224              -0.000720193               0.999999991              -0.000005016              -0.000723753               0.999999991              -0.000000748              -0.000726501               0.999999991               0.000000711              -0.000732785               0.999999991               0.000000672              -0.000743313               0.999999991              -0.000000288              -0.000757925               0.999999991              -0.000001749              -0.000776147               0.999999991              -0.000003501              -0.000797491               0.999999991              -0.000005401              -0.000821529               0.999999991              -0.000007505              -0.000847883               0.999999991              -0.000009563              -0.000876287               0.999999991              -0.000011319              -0.000906288               0.999999991              -0.000012708              -0.000937561               0.999999991              -0.000013542              -0.000969798               0.999999991              -0.000013560              -0.001002704               0.999999991              -0.000012315              -0.001035989               0.999999991              -0.000009178              -0.001069211               0.999999991               0.000000000              -0.000723909               0.999999991               0.000000000              -0.000729229               0.999999991              -0.000000000              -0.000732918               0.999999991              -0.000000000              -0.000739706               0.999999991               0.000000000              -0.000750468               0.999999991              -0.000000000              -0.000765060               0.999999991               0.000000000              -0.000783113               0.999999991              -0.000000000              -0.000804279               0.999999991              -0.000000000              -0.000828097               0.999999991              -0.000000000              -0.000854281               0.999999991              -0.000000000              -0.000882574               0.999999991               0.000000000              -0.000912511               0.999999991               0.000000000              -0.000943656               0.999999991               0.000000000              -0.000975778               0.999999991               0.000000000              -0.001008632               0.999999991               0.000000000              -0.001041964               0.999999991               0.000000000              -0.001075455               0.999999991               0.000155599               0.000000000               0.999999991               0.000184085              -0.000000000               0.999999991               0.000197488               0.000000000               0.999999991               0.000205180               0.000000000               0.999999991               0.000210970               0.000000000               0.999999991               0.000216528              -0.000000000               0.999999991               0.000222552              -0.000000000               0.999999991               0.000229366               0.000000000               0.999999991               0.000237075              -0.000000000               0.999999991               0.000245719               0.000000000               0.999999991               0.000255378               0.000000000               0.999999991               0.000266150               0.000000000               0.999999991               0.000278018               0.000000000               0.999999991               0.000290886               0.000000000               0.999999991               0.000304663               0.000000000               0.999999991               0.000319172               0.000000000               0.999999991               0.000334123               0.000000000               0.999999991               0.000154798              -0.000071491               0.999999991               0.000181820              -0.000061854               0.999999991               0.000194314              -0.000058602               0.999999991               0.000201494              -0.000058845               0.999999991               0.000207060              -0.000061106               0.999999991               0.000212548              -0.000064703               0.999999991               0.000218621              -0.000069093               0.999999991               0.000225523              -0.000073969               0.999999991               0.000233322              -0.000079243               0.999999991               0.000242092              -0.000084900               0.999999991               0.000251890              -0.000090778               0.999999991               0.000262743              -0.000096794               0.999999991               0.000274571              -0.000102866               0.999999991               0.000287282              -0.000108859               0.999999991               0.000300747              -0.000114418               0.999999991               0.000314817              -0.000119169               0.999999991               0.000329320              -0.000122671               0.999999991               0.000152364              -0.000142190               0.999999991               0.000175088              -0.000123032               0.999999991               0.000185140              -0.000116960               0.999999991               0.000191081              -0.000117829               0.999999991               0.000196106              -0.000122617               0.999999991               0.000201456              -0.000129942               0.999999991               0.000207567              -0.000138856               0.999999991               0.000214646              -0.000148697               0.999999991               0.000222752              -0.000159273               0.999999991               0.000231859              -0.000170421               0.999999991               0.000241964              -0.000182003               0.999999991               0.000252979              -0.000193831               0.999999991               0.000264800              -0.000205636               0.999999991               0.000277289              -0.000217200               0.999999991               0.000290214              -0.000228018               0.999999991               0.000303503              -0.000237507               0.999999991               0.000317040              -0.000245133               0.999999991               0.000148244              -0.000211364               0.999999991               0.000164144              -0.000183009               0.999999991               0.000170639              -0.000174903               0.999999991               0.000174985              -0.000176981               0.999999991               0.000179465              -0.000184777               0.999999991               0.000184901              -0.000196026               0.999999991               0.000191386              -0.000209449               0.999999991               0.000198989              -0.000224225               0.999999991               0.000207638              -0.000239953               0.999999991               0.000217265              -0.000256594               0.999999991               0.000227789              -0.000273755               0.999999991               0.000239032              -0.000291022               0.999999991               0.000250794              -0.000308186               0.999999991               0.000262886              -0.000324914               0.999999991               0.000275154              -0.000340644               0.999999991               0.000287507              -0.000354964               0.999999991               0.000299985              -0.000367540               0.999999991               0.000142489              -0.000278263               0.999999991               0.000149569              -0.000241403               0.999999991               0.000152100              -0.000232150               0.999999991               0.000155010              -0.000236138               0.999999991               0.000159422              -0.000247263               0.999999991               0.000165473              -0.000262561               0.999999991               0.000172817              -0.000280358               0.999999991               0.000181312              -0.000299882               0.999999991               0.000190787              -0.000320758               0.999999991               0.000201052              -0.000342687               0.999999991               0.000212002              -0.000365083               0.999999991               0.000223484              -0.000387564               0.999999991               0.000235181              -0.000409748               0.999999991               0.000246954              -0.000431360               0.999999991               0.000258710              -0.000451997               0.999999991               0.000270429              -0.000471488               0.999999991               0.000282254              -0.000489878               0.999999991               0.000135287              -0.000342081               0.999999991               0.000132263              -0.000297928               0.999999991               0.000131275              -0.000288374               0.999999991               0.000133502              -0.000294727               0.999999991               0.000138541              -0.000309365               0.999999991               0.000145695              -0.000328693               0.999999991               0.000154233              -0.000350811               0.999999991               0.000163807              -0.000375105               0.999999991               0.000174282              -0.000400937               0.999999991               0.000185437              -0.000427715               0.999999991               0.000197028              -0.000455039               0.999999991               0.000208790              -0.000482306               0.999999991               0.000220542              -0.000509219               0.999999991               0.000232188              -0.000535615               0.999999991               0.000243596              -0.000561122               0.999999991               0.000254869              -0.000585882               0.999999991               0.000266114              -0.000609860               0.999999991               0.000126771              -0.000402159               0.999999991               0.000113302              -0.000352381               0.999999991               0.000109688              -0.000343327               0.999999991               0.000112136              -0.000352222               0.999999991               0.000118445              -0.000370443               0.999999991               0.000127053              -0.000393719               0.999999991               0.000137003              -0.000420140               0.999999991               0.000148011              -0.000449009               0.999999991               0.000159761              -0.000479369               0.999999991               0.000171872              -0.000510759               0.999999991               0.000184083              -0.000542627               0.999999991               0.000196117              -0.000574381               0.999999991               0.000207864              -0.000605723               0.999999991               0.000219188              -0.000636569               0.999999991               0.000230172              -0.000666752               0.999999991               0.000240895              -0.000696280               0.999999991               0.000251287              -0.000725064               0.999999991               0.000117121              -0.000457953               0.999999991               0.000093676              -0.000404643               0.999999991               0.000088603              -0.000396664               0.999999991               0.000092242              -0.000408106               0.999999991               0.000100355              -0.000429687               0.999999991               0.000110811              -0.000456826               0.999999991               0.000122495              -0.000487410               0.999999991               0.000134988              -0.000520547               0.999999991               0.000147831              -0.000555339               0.999999991               0.000160705              -0.000591078               0.999999991               0.000173220              -0.000627135               0.999999991               0.000185179              -0.000663051               0.999999991               0.000196539              -0.000698515               0.999999991               0.000207351              -0.000733486               0.999999991               0.000217708              -0.000767889               0.999999991               0.000227642              -0.000801661               0.999999991               0.000237193              -0.000834605               0.999999991               0.000106824              -0.000508598               0.999999991               0.000074027              -0.000454721               0.999999991               0.000069290              -0.000447858               0.999999991               0.000074806              -0.000461654               0.999999991               0.000085110              -0.000486386               0.999999991               0.000097480              -0.000517276               0.999999991               0.000110714              -0.000551953               0.999999991               0.000124468              -0.000589331               0.999999991               0.000138181              -0.000628351               0.999999991               0.000151314              -0.000668101               0.999999991               0.000163711              -0.000708040               0.999999991               0.000175179              -0.000747712               0.999999991               0.000185904              -0.000786949               0.999999991               0.000196079              -0.000825690               0.999999991               0.000205979              -0.000863882               0.999999991               0.000215575              -0.000901364               0.999999991               0.000224937              -0.000938137               0.999999991               0.000096618              -0.000555911               0.999999991               0.000058658              -0.000507926               0.999999991               0.000051450              -0.000497143               0.999999991               0.000055469              -0.000505870               0.999999991               0.000064507              -0.000525703               0.999999991               0.000075724              -0.000552323               0.999999991               0.000087793              -0.000583135               0.999999991               0.000100174              -0.000616942               0.999999991               0.000112746              -0.000652754               0.999999991               0.000124835              -0.000689663               0.999999991               0.000136299              -0.000727084               0.999999991               0.000146781              -0.000764635               0.999999991               0.000156217              -0.000802065               0.999999991               0.000164917              -0.000839276               0.999999991               0.000173237              -0.000876146               0.999999991               0.000181537              -0.000912730               0.999999991               0.000189945              -0.000948726               0.999999991               0.000084999              -0.000598585               0.999999991               0.000045307              -0.000558797               0.999999991               0.000035739              -0.000547000               0.999999991               0.000037841              -0.000552021               0.999999991               0.000045138              -0.000567623               0.999999991               0.000054875              -0.000590143               0.999999991               0.000065457              -0.000617357               0.999999991               0.000076355              -0.000647866               0.999999991               0.000087583              -0.000680591               0.999999991               0.000098664              -0.000714741               0.999999991               0.000109127              -0.000749601               0.999999991               0.000118540              -0.000784773               0.999999991               0.000126798              -0.000820080               0.999999991               0.000133938              -0.000855347               0.999999991               0.000140282              -0.000890602               0.999999991               0.000146271              -0.000925829               0.999999991               0.000152292              -0.000960990               0.999999991               0.000072411              -0.000635659               0.999999991               0.000034012              -0.000605897               0.999999991               0.000022832              -0.000595360               0.999999991               0.000022931              -0.000598424               0.999999991               0.000028267              -0.000610886               0.999999991               0.000036062              -0.000630030               0.999999991               0.000044894              -0.000653923               0.999999991               0.000054229              -0.000681348               0.999999991               0.000063875              -0.000711312               0.999999991               0.000073626              -0.000742973               0.999999991               0.000082837              -0.000775703               0.999999991               0.000091076              -0.000808941               0.999999991               0.000098119              -0.000842355               0.999999991               0.000103713              -0.000875814               0.999999991               0.000107960              -0.000909334               0.999999991               0.000111155              -0.000942982               0.999999991               0.000113733              -0.000976788               0.999999991               0.000059000              -0.000666684               0.999999991               0.000024658              -0.000647480               0.999999991               0.000013047              -0.000639958               0.999999991               0.000011508              -0.000642669               0.999999991               0.000014809              -0.000653376               0.999999991               0.000020564              -0.000670133               0.999999991               0.000027475              -0.000691416               0.999999991               0.000034935              -0.000716239               0.999999991               0.000042822              -0.000743866               0.999999991               0.000050888              -0.000773454               0.999999991               0.000058602              -0.000804435               0.999999991               0.000065514              -0.000836242               0.999999991               0.000071276              -0.000868368               0.999999991               0.000075478              -0.000900681               0.999999991               0.000077767              -0.000933043               0.999999991               0.000078226              -0.000965514               0.999999991               0.000076891              -0.000998121               0.999999991               0.000044890              -0.000691320               0.999999991               0.000016943              -0.000681916               0.999999991               0.000006426              -0.000678252               0.999999991               0.000003970              -0.000681839               0.999999991               0.000005603              -0.000691929               0.999999991               0.000009441              -0.000707297               0.999999991               0.000014331              -0.000726933               0.999999991               0.000019800              -0.000749915               0.999999991               0.000025680              -0.000775725               0.999999991               0.000031856              -0.000803701               0.999999991               0.000037833              -0.000833361               0.999999991               0.000043228              -0.000864240               0.999999991               0.000047651              -0.000895785               0.999999991               0.000050599              -0.000927688               0.999999991               0.000051552              -0.000959757               0.999999991               0.000050051              -0.000991904               0.999999991               0.000045609              -0.001024079               0.999999991               0.000030248              -0.000709223               0.999999991               0.000010528              -0.000707708               0.999999991               0.000002572              -0.000707806               0.999999991               0.000000160              -0.000712806               0.999999991               0.000000682              -0.000722982               0.999999991               0.000002875              -0.000737815               0.999999991               0.000005938              -0.000756533               0.999999991               0.000009465              -0.000778379               0.999999991               0.000013394              -0.000802979               0.999999991               0.000017566              -0.000829907               0.999999991               0.000021597              -0.000858736               0.999999991               0.000025194              -0.000889051               0.999999991               0.000028131              -0.000920441               0.999999991               0.000029973              -0.000952540               0.999999991               0.000030199              -0.000985086               0.999999991               0.000028106              -0.001017779               0.999999991               0.000022933              -0.001050327               0.999999991               0.000015224              -0.000720193               0.999999991               0.000005016              -0.000723753               0.999999991               0.000000748              -0.000726501               0.999999991              -0.000000711              -0.000732785               0.999999991              -0.000000672              -0.000743313               0.999999991               0.000000288              -0.000757925               0.999999991               0.000001749              -0.000776147               0.999999991               0.000003501              -0.000797491               0.999999991               0.000005401              -0.000821529               0.999999991               0.000007505              -0.000847883               0.999999991               0.000009563              -0.000876287               0.999999991               0.000011319              -0.000906288               0.999999991               0.000012708              -0.000937561               0.999999991               0.000013542              -0.000969798               0.999999991               0.000013560              -0.001002704               0.999999991               0.000012315              -0.001035989               0.999999991               0.000009178              -0.001069211               0.999999991               0.000000000              -0.000723909               0.999999991               0.000000000              -0.000729229               0.999999991              -0.000000000              -0.000732918               0.999999991              -0.000000000              -0.000739706               0.999999991               0.000000000              -0.000750468               0.999999991              -0.000000000              -0.000765060               0.999999991               0.000000000              -0.000783113               0.999999991              -0.000000000              -0.000804279               0.999999991              -0.000000000              -0.000828097               0.999999991              -0.000000000              -0.000854281               0.999999991              -0.000000000              -0.000882574               0.999999991               0.000000000              -0.000912511               0.999999991               0.000000000              -0.000943656               0.999999991               0.000000000              -0.000975778               0.999999991               0.000000000              -0.001008632               0.999999991               0.000000000              -0.001041964               0.999999991               0.000000000              -0.001075455               0.999999991               0.000155599               0.000000000               0.999999991               0.000184085              -0.000000000               0.999999991               0.000197488               0.000000000               0.999999991               0.000205180               0.000000000               0.999999991               0.000210970               0.000000000               0.999999991               0.000216528              -0.000000000               0.999999991               0.000222552              -0.000000000               0.999999991               0.000229366               0.000000000               0.999999991               0.000237075              -0.000000000               0.999999991               0.000245719               0.000000000               0.999999991               0.000255378               0.000000000               0.999999991               0.000266150               0.000000000               0.999999991               0.000278018               0.000000000               0.999999991               0.000290886               0.000000000               0.999999991               0.000304663               0.000000000               0.999999991               0.000319172               0.000000000               0.999999991               0.000334123               0.000000000               0.999999991               0.000154798               0.000071491               0.999999991               0.000181820               0.000061854               0.999999991               0.000194314               0.000058602               0.999999991               0.000201494               0.000058845               0.999999991               0.000207060               0.000061106               0.999999991               0.000212548               0.000064703               0.999999991               0.000218621               0.000069093               0.999999991               0.000225523               0.000073969               0.999999991               0.000233322               0.000079243               0.999999991               0.000242092               0.000084900               0.999999991               0.000251890               0.000090778               0.999999991               0.000262743               0.000096794               0.999999991               0.000274571               0.000102866               0.999999991               0.000287282               0.000108859               0.999999991               0.000300747               0.000114418               0.999999991               0.000314817               0.000119169               0.999999991               0.000329320               0.000122671               0.999999991               0.000152364               0.000142190               0.999999991               0.000175088               0.000123032               0.999999991               0.000185140               0.000116960               0.999999991               0.000191081               0.000117829               0.999999991               0.000196106               0.000122617               0.999999991               0.000201456               0.000129942               0.999999991               0.000207567               0.000138856               0.999999991               0.000214646               0.000148697               0.999999991               0.000222752               0.000159273               0.999999991               0.000231859               0.000170421               0.999999991               0.000241964               0.000182003               0.999999991               0.000252979               0.000193831               0.999999991               0.000264800               0.000205636               0.999999991               0.000277289               0.000217200               0.999999991               0.000290214               0.000228018               0.999999991               0.000303503               0.000237507               0.999999991               0.000317040               0.000245133               0.999999991               0.000148244               0.000211364               0.999999991               0.000164144               0.000183009               0.999999991               0.000170639               0.000174903               0.999999991               0.000174985               0.000176981               0.999999991               0.000179465               0.000184777               0.999999991               0.000184901               0.000196026               0.999999991               0.000191386               0.000209449               0.999999991               0.000198989               0.000224225               0.999999991               0.000207638               0.000239953               0.999999991               0.000217265               0.000256594               0.999999991               0.000227789               0.000273755               0.999999991               0.000239032               0.000291022               0.999999991               0.000250794               0.000308186               0.999999991               0.000262886               0.000324914               0.999999991               0.000275154               0.000340644               0.999999991               0.000287507               0.000354964               0.999999991               0.000299985               0.000367540               0.999999991               0.000142489               0.000278263               0.999999991               0.000149569               0.000241403               0.999999991               0.000152100               0.000232150               0.999999991               0.000155010               0.000236138               0.999999991               0.000159422               0.000247263               0.999999991               0.000165473               0.000262561               0.999999991               0.000172817               0.000280358               0.999999991               0.000181312               0.000299882               0.999999991               0.000190787               0.000320758               0.999999991               0.000201052               0.000342687               0.999999991               0.000212002               0.000365083               0.999999991               0.000223484               0.000387564               0.999999991               0.000235181               0.000409748               0.999999991               0.000246954               0.000431360               0.999999991               0.000258710               0.000451997               0.999999991               0.000270429               0.000471488               0.999999991               0.000282254               0.000489878               0.999999991               0.000135287               0.000342081               0.999999991               0.000132263               0.000297928               0.999999991               0.000131275               0.000288374               0.999999991               0.000133502               0.000294727               0.999999991               0.000138541               0.000309365               0.999999991               0.000145695               0.000328693               0.999999991               0.000154233               0.000350811               0.999999991               0.000163807               0.000375105               0.999999991               0.000174282               0.000400937               0.999999991               0.000185437               0.000427715               0.999999991               0.000197028               0.000455039               0.999999991               0.000208790               0.000482306               0.999999991               0.000220542               0.000509219               0.999999991               0.000232188               0.000535615               0.999999991               0.000243596               0.000561122               0.999999991               0.000254869               0.000585882               0.999999991               0.000266114               0.000609860               0.999999991               0.000126771               0.000402159               0.999999991               0.000113302               0.000352381               0.999999991               0.000109688               0.000343327               0.999999991               0.000112136               0.000352222               0.999999991               0.000118445               0.000370443               0.999999991               0.000127053               0.000393719               0.999999991               0.000137003               0.000420140               0.999999991               0.000148011               0.000449009               0.999999991               0.000159761               0.000479369               0.999999991               0.000171872               0.000510759               0.999999991               0.000184083               0.000542627               0.999999991               0.000196117               0.000574381               0.999999991               0.000207864               0.000605723               0.999999991               0.000219188               0.000636569               0.999999991               0.000230172               0.000666752               0.999999991               0.000240895               0.000696280               0.999999991               0.000251287               0.000725064               0.999999991               0.000117121               0.000457953               0.999999991               0.000093676               0.000404643               0.999999991               0.000088603               0.000396664               0.999999991               0.000092242               0.000408106               0.999999991               0.000100355               0.000429687               0.999999991               0.000110811               0.000456826               0.999999991               0.000122495               0.000487410               0.999999991               0.000134988               0.000520547               0.999999991               0.000147831               0.000555339               0.999999991               0.000160705               0.000591078               0.999999991               0.000173220               0.000627135               0.999999991               0.000185179               0.000663051               0.999999991               0.000196539               0.000698515               0.999999991               0.000207351               0.000733486               0.999999991               0.000217708               0.000767889               0.999999991               0.000227642               0.000801661               0.999999991               0.000237193               0.000834605               0.999999991               0.000106824               0.000508598               0.999999991               0.000074027               0.000454721               0.999999991               0.000069290               0.000447858               0.999999991               0.000074806               0.000461654               0.999999991               0.000085110               0.000486386               0.999999991               0.000097480               0.000517276               0.999999991               0.000110714               0.000551953               0.999999991               0.000124468               0.000589331               0.999999991               0.000138181               0.000628351               0.999999991               0.000151314               0.000668101               0.999999991               0.000163711               0.000708040               0.999999991               0.000175179               0.000747712               0.999999991               0.000185904               0.000786949               0.999999991               0.000196079               0.000825690               0.999999991               0.000205979               0.000863882               0.999999991               0.000215575               0.000901364               0.999999991               0.000224937               0.000938137               0.999999991               0.000096618               0.000555911               0.999999991               0.000058658               0.000507926               0.999999991               0.000051450               0.000497143               0.999999991               0.000055469               0.000505870               0.999999991               0.000064507               0.000525703               0.999999991               0.000075724               0.000552323               0.999999991               0.000087793               0.000583135               0.999999991               0.000100174               0.000616942               0.999999991               0.000112746               0.000652754               0.999999991               0.000124835               0.000689663               0.999999991               0.000136299               0.000727084               0.999999991               0.000146781               0.000764635               0.999999991               0.000156217               0.000802065               0.999999991               0.000164917               0.000839276               0.999999991               0.000173237               0.000876146               0.999999991               0.000181537               0.000912730               0.999999991               0.000189945               0.000948726               0.999999991               0.000084999               0.000598585               0.999999991               0.000045307               0.000558797               0.999999991               0.000035739               0.000547000               0.999999991               0.000037841               0.000552021               0.999999991               0.000045138               0.000567623               0.999999991               0.000054875               0.000590143               0.999999991               0.000065457               0.000617357               0.999999991               0.000076355               0.000647866               0.999999991               0.000087583               0.000680591               0.999999991               0.000098664               0.000714741               0.999999991               0.000109127               0.000749601               0.999999991               0.000118540               0.000784773               0.999999991               0.000126798               0.000820080               0.999999991               0.000133938               0.000855347               0.999999991               0.000140282               0.000890602               0.999999991               0.000146271               0.000925829               0.999999991               0.000152292               0.000960990               0.999999991               0.000072411               0.000635659               0.999999991               0.000034012               0.000605897               0.999999991               0.000022832               0.000595360               0.999999991               0.000022931               0.000598424               0.999999991               0.000028267               0.000610886               0.999999991               0.000036062               0.000630030               0.999999991               0.000044894               0.000653923               0.999999991               0.000054229               0.000681348               0.999999991               0.000063875               0.000711312               0.999999991               0.000073626               0.000742973               0.999999991               0.000082837               0.000775703               0.999999991               0.000091076               0.000808941               0.999999991               0.000098119               0.000842355               0.999999991               0.000103713               0.000875814               0.999999991               0.000107960               0.000909334               0.999999991               0.000111155               0.000942982               0.999999991               0.000113733               0.000976788               0.999999991               0.000059000               0.000666684               0.999999991               0.000024658               0.000647480               0.999999991               0.000013047               0.000639958               0.999999991               0.000011508               0.000642669               0.999999991               0.000014809               0.000653376               0.999999991               0.000020564               0.000670133               0.999999991               0.000027475               0.000691416               0.999999991               0.000034935               0.000716239               0.999999991               0.000042822               0.000743866               0.999999991               0.000050888               0.000773454               0.999999991               0.000058602               0.000804435               0.999999991               0.000065514               0.000836242               0.999999991               0.000071276               0.000868368               0.999999991               0.000075478               0.000900681               0.999999991               0.000077767               0.000933043               0.999999991               0.000078226               0.000965514               0.999999991               0.000076891               0.000998121               0.999999991               0.000044890               0.000691320               0.999999991               0.000016943               0.000681916               0.999999991               0.000006426               0.000678252               0.999999991               0.000003970               0.000681839               0.999999991               0.000005603               0.000691929               0.999999991               0.000009441               0.000707297               0.999999991               0.000014331               0.000726933               0.999999991               0.000019800               0.000749915               0.999999991               0.000025680               0.000775725               0.999999991               0.000031856               0.000803701               0.999999991               0.000037833               0.000833361               0.999999991               0.000043228               0.000864240               0.999999991               0.000047651               0.000895785               0.999999991               0.000050599               0.000927688               0.999999991               0.000051552               0.000959757               0.999999991               0.000050051               0.000991904               0.999999991               0.000045609               0.001024079               0.999999991               0.000030248               0.000709223               0.999999991               0.000010528               0.000707708               0.999999991               0.000002572               0.000707806               0.999999991               0.000000160               0.000712806               0.999999991               0.000000682               0.000722982               0.999999991               0.000002875               0.000737815               0.999999991               0.000005938               0.000756533               0.999999991               0.000009465               0.000778379               0.999999991               0.000013394               0.000802979               0.999999991               0.000017566               0.000829907               0.999999991               0.000021597               0.000858736               0.999999991               0.000025194               0.000889051               0.999999991               0.000028131               0.000920441               0.999999991               0.000029973               0.000952540               0.999999991               0.000030199               0.000985086               0.999999991               0.000028106               0.001017779               0.999999991               0.000022933               0.001050327               0.999999991               0.000015224               0.000720193               0.999999991               0.000005016               0.000723753               0.999999991               0.000000748               0.000726501               0.999999991              -0.000000711               0.000732785               0.999999991              -0.000000672               0.000743313               0.999999991               0.000000288               0.000757925               0.999999991               0.000001749               0.000776147               0.999999991               0.000003501               0.000797491               0.999999991               0.000005401               0.000821529               0.999999991               0.000007505               0.000847883               0.999999991               0.000009563               0.000876287               0.999999991               0.000011319               0.000906288               0.999999991               0.000012708               0.000937561               0.999999991               0.000013542               0.000969798               0.999999991               0.000013560               0.001002704               0.999999991               0.000012315               0.001035989               0.999999991               0.000009178               0.001069211               0.999999991               0.000000000               0.000723909               0.999999991               0.000000000               0.000729229               0.999999991               0.000000000               0.000732918               0.999999991              -0.000000000               0.000739706               0.999999991               0.000000000               0.000750468               0.999999991              -0.000000000               0.000765060               0.999999991              -0.000000000               0.000783113               0.999999991              -0.000000000               0.000804279               0.999999991              -0.000000000               0.000828097               0.999999991              -0.000000000               0.000854281               0.999999991              -0.000000000               0.000882574               0.999999991              -0.000000000               0.000912511               0.999999991              -0.000000000               0.000943656               0.999999991               0.000000000               0.000975778               0.999999991               0.000000000               0.001008632               0.999999991               0.000000000               0.001041964               0.999999991              -0.000000000               0.001075455               0.999999991 </DataArray>
<DataArray type="Float64"                                    Name="stress"                                                      NumberOfComponents="10" format="ascii">
              0.001173234               0.013292484               0.000000000              -0.001221595               0.004837982               0.003616387               0.000000000               0.000000000               0.000000000               0.000000000               0.001253649               0.010794578               0.000000000              -0.000879201               0.003891224               0.003012022               0.000000000               0.000000000               0.000000000               0.000000000               0.001726528               0.008774935              -0.000000000              -0.000449418               0.003074755               0.002625337               0.000000000               0.000000000               0.000000000               0.000000000               0.001769573               0.007657185               0.000000000              -0.000293558               0.002650222               0.002356664               0.000000000               0.000000000               0.000000000               0.000000000               0.001658352               0.006987662              -0.000000000              -0.000251575               0.002413056               0.002161481               0.000000000               0.000000000               0.000000000               0.000000000               0.001498885               0.006565661              -0.000000000              -0.000258625               0.002274740               0.002016115               0.000000000               0.000000000               0.000000000               0.000000000               0.001329747               0.006282493               0.000000000              -0.000286656               0.002189695               0.001903039               0.000000000               0.000000000               0.000000000               0.000000000               0.001165514               0.006081357               0.000000000              -0.000323101               0.002134799               0.001811698               0.000000000               0.000000000               0.000000000               0.000000000               0.001011568               0.005936473               0.000000000              -0.000362720               0.002099711               0.001736991               0.000000000               0.000000000               0.000000000               0.000000000               0.000863424               0.005831001               0.000000000              -0.000405090               0.002078678               0.001673587               0.000000000               0.000000000               0.000000000               0.000000000               0.000713766               0.005747083              -0.000000000              -0.000450722               0.002065916               0.001615194               0.000000000               0.000000000               0.000000000               0.000000000               0.000566155               0.005676121              -0.000000000              -0.000497206               0.002057757               0.001560551               0.000000000               0.000000000               0.000000000               0.000000000               0.000428789               0.005613757              -0.000000000              -0.000540922               0.002051541               0.001510619               0.000000000               0.000000000               0.000000000               0.000000000               0.000302580               0.005551214              -0.000000000              -0.000580433               0.002043864               0.001463431               0.000000000               0.000000000               0.000000000               0.000000000               0.000186829               0.005473709               0.000000000              -0.000614151               0.002029269               0.001415117               0.000000000               0.000000000               0.000000000               0.000000000               0.000086020               0.005368464               0.000000000              -0.000638799               0.002002403               0.001363604               0.000000000               0.000000000               0.000000000               0.000000000               0.000031768               0.005281679               0.000000000              -0.000648295               0.001976641               0.001328345               0.000000000               0.000000000               0.000000000               0.000000000               0.001235829               0.013047598              -0.000972229              -0.001167511               0.004738326               0.003570815               0.000000000               0.000000000               0.000000000               0.000000000               0.001260128               0.010625300              -0.000580032              -0.000855612               0.003826935               0.002971323               0.000000000               0.000000000               0.000000000               0.000000000               0.001673235               0.008689702              -0.000179690              -0.000458748               0.003049454               0.002590706               0.000000000               0.000000000               0.000000000               0.000000000               0.001690017               0.007616964               0.000001242              -0.000318363               0.002645084               0.002326720               0.000000000               0.000000000               0.000000000               0.000000000               0.001569670               0.006970417               0.000085155              -0.000282675               0.002417674               0.002134999               0.000000000               0.000000000               0.000000000               0.000000000               0.001409630               0.006559365               0.000122786              -0.000291309               0.002283536               0.001992227               0.000000000               0.000000000               0.000000000               0.000000000               0.001244364               0.006282982               0.000135203              -0.000318735               0.002200552               0.001881816               0.000000000               0.000000000               0.000000000               0.000000000               0.001086320               0.006085852               0.000137040              -0.000353361               0.002146384               0.001793023               0.000000000               0.000000000               0.000000000               0.000000000               0.000937697               0.005941056               0.000136087              -0.000390995               0.002110664               0.001719669               0.000000000               0.000000000               0.000000000               0.000000000               0.000793395               0.005830492               0.000132512              -0.000431287               0.002087240               0.001655953               0.000000000               0.000000000               0.000000000               0.000000000               0.000650989               0.005741908               0.000126382              -0.000473616               0.002071822               0.001598206               0.000000000               0.000000000               0.000000000               0.000000000               0.000514643               0.005667113               0.000119855              -0.000515397               0.002060818               0.001545421               0.000000000               0.000000000               0.000000000               0.000000000               0.000388843               0.005598938               0.000112693              -0.000554050               0.002050977               0.001496928               0.000000000               0.000000000               0.000000000               0.000000000               0.000275252               0.005530510               0.000100218              -0.000588093               0.002039516               0.001451423               0.000000000               0.000000000               0.000000000               0.000000000               0.000172473               0.005451049               0.000078180              -0.000616702               0.002022566               0.001405863               0.000000000               0.000000000               0.000000000               0.000000000               0.000080202               0.005350304               0.000044350              -0.000638711               0.001996320               0.001357610               0.000000000               0.000000000               0.000000000               0.000000000               0.000029757               0.005271963               0.000026449              -0.000647835               0.001973248               0.001325413               0.000000000               0.000000000               0.000000000               0.000000000               0.001400741               0.012347790              -0.001825849              -0.001018194               0.004455287               0.003437092               0.000000000               0.000000000               0.000000000               0.000000000               0.001266731               0.010145519              -0.001089948              -0.000793164               0.003646194               0.002853030               0.000000000               0.000000000               0.000000000               0.000000000               0.001510454               0.008448025              -0.000345440              -0.000489582               0.002979174               0.002489592               0.000000000               0.000000000               0.000000000               0.000000000               0.001460686               0.007498952              -0.000017918              -0.000389611               0.002629496               0.002239885               0.000000000               0.000000000               0.000000000               0.000000000               0.001323276               0.006918351               0.000131233              -0.000368564               0.002428949               0.002060384               0.000000000               0.000000000               0.000000000               0.000000000               0.001169003               0.006537489               0.000198096              -0.000378809               0.002305411               0.001926602               0.000000000               0.000000000               0.000000000               0.000000000               0.001017992               0.006273236               0.000221496              -0.000402407               0.002225193               0.001822787               0.000000000               0.000000000               0.000000000               0.000000000               0.000873896               0.006079735               0.000225173              -0.000432255               0.002170643               0.001738388               0.000000000               0.000000000               0.000000000               0.000000000               0.000739486               0.005932552               0.000223429              -0.000464261               0.002132251               0.001667990               0.000000000               0.000000000               0.000000000               0.000000000               0.000612494               0.005818123               0.000218334              -0.000497579               0.002105214               0.001607636               0.000000000               0.000000000               0.000000000               0.000000000               0.000492410               0.005723564               0.000209710              -0.000530791               0.002084766               0.001553975               0.000000000               0.000000000               0.000000000               0.000000000               0.000381618               0.005638552               0.000198444              -0.000561711               0.002066736               0.001505025               0.000000000               0.000000000               0.000000000               0.000000000               0.000281688               0.005558086               0.000184577              -0.000589126               0.002049052               0.001459926               0.000000000               0.000000000               0.000000000               0.000000000               0.000196864               0.005478835               0.000162342              -0.000611029               0.002029936               0.001418908               0.000000000               0.000000000               0.000000000               0.000000000               0.000123341               0.005396226               0.000124793              -0.000628274               0.002008149               0.001379875               0.000000000               0.000000000               0.000000000               0.000000000               0.000056166               0.005309260               0.000070280              -0.000642594               0.001983934               0.001341340               0.000000000               0.000000000               0.000000000               0.000000000               0.000019854               0.005252478               0.000041539              -0.000649113               0.001967179               0.001318067               0.000000000               0.000000000               0.000000000               0.000000000               0.001609333               0.011278496              -0.002473756              -0.000806312               0.004028231               0.003221919               0.000000000               0.000000000               0.000000000               0.000000000               0.001252253               0.009423477              -0.001483811              -0.000708339               0.003377240               0.002668902               0.000000000               0.000000000               0.000000000               0.000000000               0.001254534               0.008082113              -0.000492359              -0.000539813               0.002873948               0.002334136               0.000000000               0.000000000               0.000000000               0.000000000               0.001120343               0.007309199              -0.000071164              -0.000493520               0.002600882               0.002107362               0.000000000               0.000000000               0.000000000               0.000000000               0.000967745               0.006816263               0.000114319              -0.000489127               0.002435108               0.001945980               0.000000000               0.000000000               0.000000000               0.000000000               0.000828062               0.006473806               0.000194298              -0.000498701               0.002324147               0.001825446               0.000000000               0.000000000               0.000000000               0.000000000               0.000702972               0.006220206               0.000224508              -0.000513910               0.002244684               0.001730774               0.000000000               0.000000000               0.000000000               0.000000000               0.000587723               0.006029390               0.000232342              -0.000533276               0.002187535               0.001654259               0.000000000               0.000000000               0.000000000               0.000000000               0.000483950               0.005885299               0.000235367              -0.000554180               0.002146473               0.001592294               0.000000000               0.000000000               0.000000000               0.000000000               0.000386906               0.005770993               0.000234663              -0.000576283               0.002115739               0.001539457               0.000000000               0.000000000               0.000000000               0.000000000               0.000297045               0.005670296               0.000226025              -0.000597394               0.002089211               0.001491818               0.000000000               0.000000000               0.000000000               0.000000000               0.000221099               0.005577876               0.000212589              -0.000614321               0.002064047               0.001449726               0.000000000               0.000000000               0.000000000               0.000000000               0.000158904               0.005490513               0.000195967              -0.000626724               0.002039060               0.001412337               0.000000000               0.000000000               0.000000000               0.000000000               0.000109045               0.005406915               0.000168727              -0.000634971               0.002013944               0.001378973               0.000000000               0.000000000               0.000000000               0.000000000               0.000069293               0.005329915               0.000126201              -0.000640253               0.001990038               0.001349785               0.000000000               0.000000000               0.000000000               0.000000000               0.000032927               0.005266172               0.000070026              -0.000645922               0.001970681               0.001324758               0.000000000               0.000000000               0.000000000               0.000000000               0.000013519               0.005235633               0.000039879              -0.000649383               0.001961655               0.001312272               0.000000000               0.000000000               0.000000000               0.000000000               0.001793052               0.009950922              -0.002872225              -0.000571472               0.003507431               0.002935959               0.000000000               0.000000000               0.000000000               0.000000000               0.001197529               0.008542006              -0.001749245              -0.000618677               0.003053532               0.002434855               0.000000000               0.000000000               0.000000000               0.000000000               0.000941713               0.007628706              -0.000634209              -0.000600445               0.002743025               0.002142580               0.000000000               0.000000000               0.000000000               0.000000000               0.000733201               0.007050275              -0.000177926              -0.000606333               0.002552179               0.001945846               0.000000000               0.000000000               0.000000000               0.000000000               0.000576933               0.006646763               0.000018877              -0.000614494               0.002420397               0.001805903               0.000000000               0.000000000               0.000000000               0.000000000               0.000464450               0.006345573               0.000104857              -0.000619026               0.002321512               0.001702486               0.000000000               0.000000000               0.000000000               0.000000000               0.000379057               0.006112128               0.000144589              -0.000621868               0.002244645               0.001622777               0.000000000               0.000000000               0.000000000               0.000000000               0.000304839               0.005935302               0.000166010              -0.000627597               0.002187613               0.001560017               0.000000000               0.000000000               0.000000000               0.000000000               0.000241612               0.005798541               0.000179572              -0.000634212               0.002144232               0.001510020               0.000000000               0.000000000               0.000000000               0.000000000               0.000182942               0.005679435               0.000185334              -0.000641325               0.002106901               0.001465576               0.000000000               0.000000000               0.000000000               0.000000000               0.000128115               0.005571360               0.000180994              -0.000648375               0.002073227               0.001424851               0.000000000               0.000000000               0.000000000               0.000000000               0.000087262               0.005473287               0.000169946              -0.000651436               0.002041556               0.001390120               0.000000000               0.000000000               0.000000000               0.000000000               0.000061026               0.005383871               0.000153590              -0.000650097               0.002011305               0.001361207               0.000000000               0.000000000               0.000000000               0.000000000               0.000043697               0.005304414               0.000127096              -0.000646664               0.001983675               0.001337011               0.000000000               0.000000000               0.000000000               0.000000000               0.000031611               0.005239044               0.000090272              -0.000643025               0.001960672               0.001317647               0.000000000               0.000000000               0.000000000               0.000000000               0.000016543               0.005193925               0.000047725              -0.000643035               0.001945636               0.001302601               0.000000000               0.000000000               0.000000000               0.000000000               0.000006758               0.005176437               0.000025847              -0.000644519               0.001940302               0.001295783               0.000000000               0.000000000               0.000000000               0.000000000               0.001892222               0.008497598              -0.003017282              -0.000352619               0.002950043               0.002597424               0.000000000               0.000000000               0.000000000               0.000000000               0.001092350               0.007590793              -0.001894760              -0.000539218               0.002709978               0.002170760               0.000000000               0.000000000               0.000000000               0.000000000               0.000607439               0.007130379              -0.000780926              -0.000663506               0.002597938               0.001934432               0.000000000               0.000000000               0.000000000               0.000000000               0.000358174               0.006738738              -0.000332344              -0.000708025               0.002482232               0.001774207               0.000000000               0.000000000               0.000000000               0.000000000               0.000222593               0.006423864              -0.000135079              -0.000719509               0.002381103               0.001661594               0.000000000               0.000000000               0.000000000               0.000000000               0.000150397               0.006167721              -0.000039989              -0.000714565               0.002294075               0.001579510               0.000000000               0.000000000               0.000000000               0.000000000               0.000111347               0.005965598               0.000015868              -0.000703943               0.002223160               0.001519217               0.000000000               0.000000000               0.000000000               0.000000000               0.000080638               0.005806716               0.000053308              -0.000695598               0.002167419               0.001471820               0.000000000               0.000000000               0.000000000               0.000000000               0.000052281               0.005668895               0.000077485              -0.000689005               0.002119281               0.001430276               0.000000000               0.000000000               0.000000000               0.000000000               0.000028961               0.005544999               0.000092761              -0.000682263               0.002075735               0.001393473               0.000000000               0.000000000               0.000000000               0.000000000               0.000013092               0.005433540               0.000097418              -0.000674281               0.002035922               0.001361641               0.000000000               0.000000000               0.000000000               0.000000000               0.000005088               0.005331139               0.000093553              -0.000664483               0.001998523               0.001334040               0.000000000               0.000000000               0.000000000               0.000000000               0.000003696               0.005239439               0.000085474              -0.000653542               0.001964309               0.001310767               0.000000000               0.000000000               0.000000000               0.000000000               0.000007973               0.005161796               0.000069396              -0.000642233               0.001934659               0.001292426               0.000000000               0.000000000               0.000000000               0.000000000               0.000012032               0.005100192               0.000047290              -0.000633010               0.001911050               0.001278040               0.000000000               0.000000000               0.000000000               0.000000000               0.000007552               0.005052960               0.000024271              -0.000628786               0.001893898               0.001265112               0.000000000               0.000000000               0.000000000               0.000000000              -0.000000616               0.005026897               0.000014401              -0.000628592               0.001885146               0.001256555               0.000000000               0.000000000               0.000000000               0.000000000               0.001863170               0.007046098              -0.002941548              -0.000182077               0.002409367               0.002227290               0.000000000               0.000000000               0.000000000               0.000000000               0.000938910               0.006651481              -0.001939493              -0.000479345               0.002376919               0.001897575               0.000000000               0.000000000               0.000000000               0.000000000               0.000289761               0.006624161              -0.000930997              -0.000719358               0.002447818               0.001728459               0.000000000               0.000000000               0.000000000               0.000000000               0.000041221               0.006400752              -0.000514241              -0.000784634               0.002395107               0.001610473               0.000000000               0.000000000               0.000000000               0.000000000              -0.000051684               0.006166049              -0.000315745              -0.000790136               0.002318708               0.001528572               0.000000000               0.000000000               0.000000000               0.000000000              -0.000072733               0.005958144              -0.000208445              -0.000772041               0.002243375               0.001471334               0.000000000               0.000000000               0.000000000               0.000000000              -0.000070571               0.005785735              -0.000135494              -0.000749679               0.002178452               0.001428773               0.000000000               0.000000000               0.000000000               0.000000000              -0.000069304               0.005636733              -0.000081809              -0.000730579               0.002122419               0.001391840               0.000000000               0.000000000               0.000000000               0.000000000              -0.000066187               0.005502700              -0.000042380              -0.000712656               0.002071767               0.001359111               0.000000000               0.000000000               0.000000000               0.000000000              -0.000058451               0.005380653              -0.000011583              -0.000694499               0.002025033               0.001330534               0.000000000               0.000000000               0.000000000               0.000000000              -0.000047216               0.005265482               0.000008513              -0.000675890               0.001980440               0.001304550               0.000000000               0.000000000               0.000000000               0.000000000              -0.000033963               0.005159497               0.000018706              -0.000657672               0.001939039               0.001281367               0.000000000               0.000000000               0.000000000               0.000000000              -0.000020198               0.005063893               0.000025009              -0.000640559               0.001901467               0.001260908               0.000000000               0.000000000               0.000000000               0.000000000              -0.000008516               0.004980081               0.000026189              -0.000625702               0.001868578               0.001242876               0.000000000               0.000000000               0.000000000               0.000000000              -0.000003404               0.004909405               0.000021655              -0.000614951               0.001841435               0.001226485               0.000000000               0.000000000               0.000000000               0.000000000              -0.000002007               0.004848311               0.000014347              -0.000606790               0.001818351               0.001211561               0.000000000               0.000000000               0.000000000               0.000000000              -0.000007496               0.004809075               0.000013671              -0.000603944               0.001804324               0.001200380               0.000000000               0.000000000               0.000000000               0.000000000               0.001707917               0.005686996              -0.002691445              -0.000070409               0.001919115               0.001848706               0.000000000               0.000000000               0.000000000               0.000000000               0.000744724               0.005780168              -0.001907210              -0.000443250               0.002074453               0.001631203               0.000000000               0.000000000               0.000000000               0.000000000               0.000024307               0.006123430              -0.001084500              -0.000756312               0.002293227               0.001536914               0.000000000               0.000000000               0.000000000               0.000000000              -0.000183336               0.006043537              -0.000707565              -0.000824191               0.002289223               0.001465031               0.000000000               0.000000000               0.000000000               0.000000000              -0.000223758               0.005881785              -0.000501371              -0.000819130               0.002233619               0.001414488               0.000000000               0.000000000               0.000000000               0.000000000              -0.000200798               0.005721417              -0.000375488              -0.000790474               0.002170611               0.001380137               0.000000000               0.000000000               0.000000000               0.000000000              -0.000168239               0.005577845              -0.000282563              -0.000760318               0.002112702               0.001352384               0.000000000               0.000000000               0.000000000               0.000000000              -0.000141331               0.005445294              -0.000207803              -0.000733659               0.002059633               0.001325974               0.000000000               0.000000000               0.000000000               0.000000000              -0.000115150               0.005320504              -0.000148525              -0.000708243               0.002009564               0.001301322               0.000000000               0.000000000               0.000000000               0.000000000              -0.000090960               0.005196406              -0.000099166              -0.000683659               0.001960004               0.001276345               0.000000000               0.000000000               0.000000000               0.000000000              -0.000065729               0.005075642              -0.000060299              -0.000659102               0.001911564               0.001252462               0.000000000               0.000000000               0.000000000               0.000000000              -0.000045486               0.004961583              -0.000031411              -0.000637254               0.001866262               0.001229009               0.000000000               0.000000000               0.000000000               0.000000000              -0.000032423               0.004857228              -0.000009432              -0.000619311               0.001825497               0.001206186               0.000000000               0.000000000               0.000000000               0.000000000              -0.000025598               0.004763243               0.000005990              -0.000605003               0.001789400               0.001184396               0.000000000               0.000000000               0.000000000               0.000000000              -0.000020219               0.004680773               0.000013298              -0.000592677               0.001757801               0.001165124               0.000000000               0.000000000               0.000000000               0.000000000              -0.000012972               0.004607663               0.000012715              -0.000580821               0.001729479               0.001148658               0.000000000               0.000000000               0.000000000               0.000000000              -0.000013277               0.004561822               0.000013842              -0.000575205               0.001712327               0.001137122               0.000000000               0.000000000               0.000000000               0.000000000               0.001476992               0.004514932              -0.002330748              -0.000010498               0.001508461               0.001497963               0.000000000               0.000000000               0.000000000               0.000000000               0.000562654               0.005001705              -0.001840655              -0.000414219               0.001805290               0.001391072               0.000000000               0.000000000               0.000000000               0.000000000              -0.000152280               0.005652622              -0.001261883              -0.000763681               0.002138749               0.001375067               0.000000000               0.000000000               0.000000000               0.000000000              -0.000306342               0.005716770              -0.000916931              -0.000829473               0.002182062               0.001352589               0.000000000               0.000000000               0.000000000               0.000000000              -0.000306844               0.005636402              -0.000694813              -0.000819615               0.002151987               0.001332372               0.000000000               0.000000000               0.000000000               0.000000000              -0.000257272               0.005525309              -0.000540930              -0.000787139               0.002104131               0.001316992               0.000000000               0.000000000               0.000000000               0.000000000              -0.000207108               0.005414707              -0.000424068              -0.000754502               0.002056385               0.001301883               0.000000000               0.000000000               0.000000000               0.000000000              -0.000166479               0.005305770              -0.000330030              -0.000725649               0.002010455               0.001284806               0.000000000               0.000000000               0.000000000               0.000000000              -0.000123628               0.005190338              -0.000252935              -0.000695151               0.001961812               0.001266661               0.000000000               0.000000000               0.000000000               0.000000000              -0.000087258               0.005065303              -0.000186314              -0.000665883               0.001910378               0.001244495               0.000000000               0.000000000               0.000000000               0.000000000              -0.000056066               0.004938072              -0.000129713              -0.000638282               0.001858768               0.001220486               0.000000000               0.000000000               0.000000000               0.000000000              -0.000036795               0.004813565              -0.000081650              -0.000615492               0.001809670               0.001194177               0.000000000               0.000000000               0.000000000               0.000000000              -0.000034411               0.004697054              -0.000042762              -0.000600034               0.001765680               0.001165646               0.000000000               0.000000000               0.000000000               0.000000000              -0.000044491               0.004589147              -0.000014621              -0.000590326               0.001726476               0.001136149               0.000000000               0.000000000               0.000000000               0.000000000              -0.000055385               0.004490342               0.000001819              -0.000582061               0.001690786               0.001108725               0.000000000               0.000000000               0.000000000               0.000000000              -0.000056250               0.004402815               0.000006661              -0.000571444               0.001658072               0.001086628               0.000000000               0.000000000               0.000000000               0.000000000              -0.000052109               0.004356025               0.000007299              -0.000564043               0.001640008               0.001075965               0.000000000               0.000000000               0.000000000               0.000000000               0.001149022               0.003400024              -0.001923714               0.000005878               0.001131370               0.001137247               0.000000000               0.000000000               0.000000000               0.000000000               0.000430563               0.004113642              -0.001759817              -0.000352745               0.001488781               0.001136036               0.000000000               0.000000000               0.000000000               0.000000000              -0.000206295               0.004984507              -0.001463996              -0.000700423               0.001894960               0.001194537               0.000000000               0.000000000               0.000000000               0.000000000              -0.000334775               0.005233698              -0.001161949              -0.000779751               0.002004465               0.001224714               0.000000000               0.000000000               0.000000000               0.000000000              -0.000328281               0.005276483              -0.000923765              -0.000782664               0.002019698               0.001237034               0.000000000               0.000000000               0.000000000               0.000000000              -0.000278554               0.005245044              -0.000739495              -0.000760087               0.002001693               0.001241606               0.000000000               0.000000000               0.000000000               0.000000000              -0.000224870               0.005193057              -0.000595586              -0.000733457               0.001975487               0.001242031               0.000000000               0.000000000               0.000000000               0.000000000              -0.000181734               0.005130796              -0.000483117              -0.000709498               0.001946747               0.001237249               0.000000000               0.000000000               0.000000000               0.000000000              -0.000139864               0.005047946              -0.000390770              -0.000683440               0.001910445               0.001227005               0.000000000               0.000000000               0.000000000               0.000000000              -0.000098081               0.004947505              -0.000310124              -0.000655217               0.001867557               0.001212341               0.000000000               0.000000000               0.000000000               0.000000000              -0.000065123               0.004835125              -0.000235489              -0.000628810               0.001821296               0.001192485               0.000000000               0.000000000               0.000000000               0.000000000              -0.000045853               0.004719319              -0.000163725              -0.000607108               0.001775460               0.001168352               0.000000000               0.000000000               0.000000000               0.000000000              -0.000044626               0.004606651              -0.000101256              -0.000592565               0.001733057               0.001140492               0.000000000               0.000000000               0.000000000               0.000000000              -0.000061929               0.004498044              -0.000052545              -0.000585478               0.001694492               0.001109015               0.000000000               0.000000000               0.000000000               0.000000000              -0.000089905               0.004399930              -0.000019919              -0.000583704               0.001661197               0.001077492               0.000000000               0.000000000               0.000000000               0.000000000              -0.000118558               0.004308281              -0.000003368              -0.000582993               0.001630410               0.001047418               0.000000000               0.000000000               0.000000000               0.000000000              -0.000131620               0.004259384               0.000001778              -0.000581779               0.001613707               0.001031928               0.000000000               0.000000000               0.000000000               0.000000000               0.000672495               0.002368978              -0.001486679              -0.000043939               0.000804297               0.000760358               0.000000000               0.000000000               0.000000000               0.000000000               0.000282496               0.003229434              -0.001630287              -0.000297744               0.001175715               0.000877970               0.000000000               0.000000000               0.000000000               0.000000000              -0.000188061               0.004237078              -0.001619321              -0.000600157               0.001612397               0.001012240               0.000000000               0.000000000               0.000000000               0.000000000              -0.000293853               0.004660740              -0.001395648              -0.000692786               0.001784493               0.001091706               0.000000000               0.000000000               0.000000000               0.000000000              -0.000293343               0.004838635              -0.001163658              -0.000714832               0.001851139               0.001136307               0.000000000               0.000000000               0.000000000               0.000000000              -0.000256281               0.004908791              -0.000960406              -0.000709703               0.001872815               0.001163112               0.000000000               0.000000000               0.000000000               0.000000000              -0.000208626               0.004933514              -0.000792721              -0.000694923               0.001876129               0.001181206               0.000000000               0.000000000               0.000000000               0.000000000              -0.000165479               0.004928178              -0.000664030              -0.000678075               0.001868735               0.001190659               0.000000000               0.000000000               0.000000000               0.000000000              -0.000128534               0.004892596              -0.000561518              -0.000659773               0.001850773               0.001191000               0.000000000               0.000000000               0.000000000               0.000000000              -0.000089347               0.004831767              -0.000470483              -0.000637475               0.001823064               0.001185590               0.000000000               0.000000000               0.000000000               0.000000000              -0.000058381               0.004749259              -0.000381299              -0.000615549               0.001788253               0.001172705               0.000000000               0.000000000               0.000000000               0.000000000              -0.000037973               0.004657187              -0.000292831              -0.000596387               0.001751176               0.001154789               0.000000000               0.000000000               0.000000000               0.000000000              -0.000032370               0.004560909              -0.000208851              -0.000582251               0.001714371               0.001132120               0.000000000               0.000000000               0.000000000               0.000000000              -0.000049386               0.004465466              -0.000133003              -0.000576701               0.001680708               0.001104006               0.000000000               0.000000000               0.000000000               0.000000000              -0.000089256               0.004378557              -0.000071479              -0.000580789               0.001653101               0.001072312               0.000000000               0.000000000               0.000000000               0.000000000              -0.000149547               0.004296182              -0.000026283              -0.000593102               0.001629747               0.001036645               0.000000000               0.000000000               0.000000000               0.000000000              -0.000194698               0.004247763              -0.000003424              -0.000603981               0.001617234               0.001013253               0.000000000               0.000000000               0.000000000               0.000000000               0.000085896               0.001492335              -0.001043730              -0.000154332               0.000548883               0.000394552               0.000000000               0.000000000               0.000000000               0.000000000               0.000078379               0.002391549              -0.001424962              -0.000269552               0.000887025               0.000617473               0.000000000               0.000000000               0.000000000               0.000000000              -0.000138784               0.003415508              -0.001653992              -0.000478983               0.001298151               0.000819169               0.000000000               0.000000000               0.000000000               0.000000000              -0.000188333               0.003963132              -0.001532151              -0.000566016               0.001509702               0.000943686               0.000000000               0.000000000               0.000000000               0.000000000              -0.000183732               0.004270918              -0.001336132              -0.000602763               0.001624546               0.001021782               0.000000000               0.000000000               0.000000000               0.000000000              -0.000159233               0.004450605              -0.001139481              -0.000616037               0.001688866               0.001072829               0.000000000               0.000000000               0.000000000               0.000000000              -0.000124363               0.004560144              -0.000966518              -0.000616653               0.001725584               0.001108931               0.000000000               0.000000000               0.000000000               0.000000000              -0.000089566               0.004627319              -0.000827349              -0.000612001               0.001746425               0.001134424               0.000000000               0.000000000               0.000000000               0.000000000              -0.000061525               0.004655704              -0.000717253              -0.000605034               0.001753564               0.001148530               0.000000000               0.000000000               0.000000000               0.000000000              -0.000035026               0.004650513              -0.000619127              -0.000594447               0.001748304               0.001153857               0.000000000               0.000000000               0.000000000               0.000000000              -0.000010788               0.004617745              -0.000522983              -0.000581262               0.001732987               0.001151725               0.000000000               0.000000000               0.000000000               0.000000000               0.000007394               0.004561612              -0.000428948              -0.000567428               0.001709665               0.001142237               0.000000000               0.000000000               0.000000000               0.000000000               0.000015213               0.004492685              -0.000333539              -0.000555880               0.001682840               0.001126960               0.000000000               0.000000000               0.000000000               0.000000000               0.000005437               0.004422481              -0.000237747              -0.000550770               0.001657735               0.001106966               0.000000000               0.000000000               0.000000000               0.000000000              -0.000032298               0.004354742              -0.000147445              -0.000556453               0.001637051               0.001080597               0.000000000               0.000000000               0.000000000               0.000000000              -0.000102997               0.004288320              -0.000067209              -0.000574663               0.001620980               0.001046317               0.000000000               0.000000000               0.000000000               0.000000000              -0.000168248               0.004240726              -0.000022163              -0.000593182               0.001611289               0.001018106               0.000000000               0.000000000               0.000000000               0.000000000              -0.000566816               0.000818617              -0.000646149              -0.000314883               0.000377830               0.000062947               0.000000000               0.000000000               0.000000000               0.000000000              -0.000172929               0.001646760              -0.001163010              -0.000270694               0.000639145               0.000368451               0.000000000               0.000000000               0.000000000               0.000000000              -0.000077082               0.002584115              -0.001551957              -0.000351921               0.000978669               0.000626749               0.000000000               0.000000000               0.000000000               0.000000000              -0.000032853               0.003198060              -0.001527715              -0.000412078               0.001203368               0.000791290               0.000000000               0.000000000               0.000000000               0.000000000              -0.000007133               0.003608815              -0.001386341              -0.000453777               0.001354185               0.000900408               0.000000000               0.000000000               0.000000000               0.000000000               0.000013854               0.003887596              -0.001220585              -0.000480754               0.001456103               0.000975349               0.000000000               0.000000000               0.000000000               0.000000000               0.000034178               0.004084881              -0.001063042              -0.000497793               0.001527544               0.001029751               0.000000000               0.000000000               0.000000000               0.000000000               0.000053167               0.004232730              -0.000928312              -0.000509153               0.001580613               0.001071461               0.000000000               0.000000000               0.000000000               0.000000000               0.000067596               0.004334750              -0.000818543              -0.000516494               0.001617067               0.001100573               0.000000000               0.000000000               0.000000000               0.000000000               0.000080196               0.004395300              -0.000720415              -0.000519338               0.001638198               0.001118860               0.000000000               0.000000000               0.000000000               0.000000000               0.000095059               0.004423893              -0.000625395              -0.000517338               0.001647062               0.001129724               0.000000000               0.000000000               0.000000000               0.000000000               0.000108187               0.004417859              -0.000533277              -0.000511661               0.001643159               0.001131498               0.000000000               0.000000000               0.000000000               0.000000000               0.000117905               0.004391391              -0.000438162              -0.000504708               0.001632019               0.001127310               0.000000000               0.000000000               0.000000000               0.000000000               0.000119759               0.004357362              -0.000334852              -0.000499759               0.001619026               0.001119267               0.000000000               0.000000000               0.000000000               0.000000000               0.000100852               0.004318488              -0.000226639              -0.000501990               0.001606812               0.001104821               0.000000000               0.000000000               0.000000000               0.000000000               0.000046668               0.004274593              -0.000115308              -0.000516822               0.001597124               0.001080302               0.000000000               0.000000000               0.000000000               0.000000000              -0.000014186               0.004236699              -0.000051254              -0.000534906               0.001590521               0.001055615               0.000000000               0.000000000               0.000000000               0.000000000              -0.001213072               0.000345084              -0.000337476              -0.000498037               0.000281038              -0.000216999               0.000000000               0.000000000               0.000000000               0.000000000              -0.000442392               0.001032985              -0.000872333              -0.000295020               0.000442664               0.000147644               0.000000000               0.000000000               0.000000000               0.000000000              -0.000019347               0.001818045              -0.001312862              -0.000234511               0.000684179               0.000449667               0.000000000               0.000000000               0.000000000               0.000000000               0.000144942               0.002443448              -0.001357112              -0.000251078               0.000898167               0.000647088               0.000000000               0.000000000               0.000000000               0.000000000               0.000209244               0.002918662              -0.001272167              -0.000286367               0.001068333               0.000781966               0.000000000               0.000000000               0.000000000               0.000000000               0.000235628               0.003278929              -0.001149198              -0.000321506               0.001200134               0.000878628               0.000000000               0.000000000               0.000000000               0.000000000               0.000246860               0.003553636              -0.001022669              -0.000351632               0.001301744               0.000950112               0.000000000               0.000000000               0.000000000               0.000000000               0.000252431               0.003771719              -0.000909109              -0.000376803               0.001382828               0.001006025               0.000000000               0.000000000               0.000000000               0.000000000               0.000254468               0.003944899              -0.000813180              -0.000397686               0.001447515               0.001049829               0.000000000               0.000000000               0.000000000               0.000000000               0.000254767               0.004075567              -0.000726665              -0.000413907               0.001496478               0.001082570               0.000000000               0.000000000               0.000000000               0.000000000               0.000257703               0.004172236              -0.000642252              -0.000424890               0.001532361               0.001107471               0.000000000               0.000000000               0.000000000               0.000000000               0.000262139               0.004229798              -0.000560342              -0.000430422               0.001553393               0.001122971               0.000000000               0.000000000               0.000000000               0.000000000               0.000270531               0.004256842              -0.000475853              -0.000430655               0.001562485               0.001131830               0.000000000               0.000000000               0.000000000               0.000000000               0.000284156               0.004267852              -0.000381210              -0.000426922               0.001564910               0.001137988               0.000000000               0.000000000               0.000000000               0.000000000               0.000296463               0.004268056              -0.000273395              -0.000422332               0.001563448               0.001141116               0.000000000               0.000000000               0.000000000               0.000000000               0.000290100               0.004254410              -0.000147139              -0.000423013               0.001559127               0.001136114               0.000000000               0.000000000               0.000000000               0.000000000               0.000270023               0.004236873              -0.000075441              -0.000428349               0.001555060               0.001126711               0.000000000               0.000000000               0.000000000               0.000000000              -0.001766207               0.000044864              -0.000140786              -0.000667935               0.000237598              -0.000430337               0.000000000               0.000000000               0.000000000               0.000000000              -0.000684819               0.000578640              -0.000577043              -0.000329137               0.000302590              -0.000026547               0.000000000               0.000000000               0.000000000               0.000000000               0.000021674               0.001196431              -0.000952923              -0.000141427               0.000445948               0.000304521               0.000000000               0.000000000               0.000000000               0.000000000               0.000306689               0.001796184              -0.001021144              -0.000109516               0.000635227               0.000525711               0.000000000               0.000000000               0.000000000               0.000000000               0.000418678               0.002304149              -0.000980182              -0.000131015               0.000811713               0.000680698               0.000000000               0.000000000               0.000000000               0.000000000               0.000458424               0.002718867              -0.000901578              -0.000167950               0.000962263               0.000794313               0.000000000               0.000000000               0.000000000               0.000000000               0.000467819               0.003049591              -0.000814046              -0.000205767               0.001085109               0.000879342               0.000000000               0.000000000               0.000000000               0.000000000               0.000465333               0.003323440              -0.000734053              -0.000240930               0.001188112               0.000947182               0.000000000               0.000000000               0.000000000               0.000000000               0.000456764               0.003556339              -0.000664963              -0.000273255               0.001276520               0.001003264               0.000000000               0.000000000               0.000000000               0.000000000               0.000446264               0.003749461              -0.000600192              -0.000301333               0.001350252               0.001048919               0.000000000               0.000000000               0.000000000               0.000000000               0.000438558               0.003904942              -0.000535329              -0.000323658               0.001409520               0.001085862               0.000000000               0.000000000               0.000000000               0.000000000               0.000434656               0.004021119              -0.000472007              -0.000339643               0.001453574               0.001113931               0.000000000               0.000000000               0.000000000               0.000000000               0.000441059               0.004104460              -0.000407567              -0.000347660               0.001484026               0.001136367               0.000000000               0.000000000               0.000000000               0.000000000               0.000465104               0.004165553              -0.000335155              -0.000346279               0.001503930               0.001157651               0.000000000               0.000000000               0.000000000               0.000000000               0.000508855               0.004207852              -0.000247677              -0.000335160               0.001514323               0.001179163               0.000000000               0.000000000               0.000000000               0.000000000               0.000566603               0.004225973              -0.000137013              -0.000315770               0.001513900               0.001198130               0.000000000               0.000000000               0.000000000               0.000000000               0.000611172               0.004231903              -0.000076013              -0.000299797               0.001510553               0.001210755               0.000000000               0.000000000               0.000000000               0.000000000              -0.002142934              -0.000120259              -0.000043835              -0.000788567               0.000222768              -0.000565799               0.000000000               0.000000000               0.000000000               0.000000000              -0.000853969               0.000296717              -0.000287875              -0.000357328               0.000218013              -0.000139314               0.000000000               0.000000000               0.000000000               0.000000000               0.000043646               0.000788971              -0.000502110              -0.000082254               0.000290405               0.000208151               0.000000000               0.000000000               0.000000000               0.000000000               0.000418052               0.001358470              -0.000550000              -0.000013040               0.000457165               0.000444126               0.000000000               0.000000000               0.000000000               0.000000000               0.000571281               0.001873445              -0.000536652              -0.000019951               0.000631125               0.000611175               0.000000000               0.000000000               0.000000000               0.000000000               0.000625048               0.002313640              -0.000498897              -0.000054812               0.000789476               0.000734664               0.000000000               0.000000000               0.000000000               0.000000000               0.000635800               0.002684051              -0.000453931              -0.000097082               0.000927035               0.000829954               0.000000000               0.000000000               0.000000000               0.000000000               0.000628647               0.002998770              -0.000411868              -0.000139103               0.001045948               0.000906844               0.000000000               0.000000000               0.000000000               0.000000000               0.000610982               0.003267264              -0.000375490              -0.000179289               0.001148840               0.000969551               0.000000000               0.000000000               0.000000000               0.000000000               0.000591054               0.003499726              -0.000341701              -0.000215820               0.001238504               0.001022684               0.000000000               0.000000000               0.000000000               0.000000000               0.000576090               0.003693643              -0.000305941              -0.000245671               0.001313092               0.001067421               0.000000000               0.000000000               0.000000000               0.000000000               0.000569819               0.003846161              -0.000270156              -0.000267087               0.001371070               0.001103982               0.000000000               0.000000000               0.000000000               0.000000000               0.000578560               0.003967322              -0.000233719              -0.000278955               0.001415413               0.001136458               0.000000000               0.000000000               0.000000000               0.000000000               0.000610634               0.004064281              -0.000193152              -0.000279047               0.001447763               0.001168716               0.000000000               0.000000000               0.000000000               0.000000000               0.000674699               0.004140658              -0.000143676              -0.000264569               0.001468395               0.001203826               0.000000000               0.000000000               0.000000000               0.000000000               0.000778344               0.004191934              -0.000079017              -0.000232112               0.001474668               0.001242556               0.000000000               0.000000000               0.000000000               0.000000000               0.000872121               0.004220621              -0.000044334              -0.000200532               0.001473704               0.001273172               0.000000000               0.000000000               0.000000000               0.000000000              -0.002276747              -0.000173485               0.000000000              -0.000832094               0.000219535              -0.000612559               0.000000000               0.000000000               0.000000000               0.000000000              -0.000914247               0.000200082               0.000000000              -0.000367853               0.000189310              -0.000178542               0.000000000               0.000000000               0.000000000               0.000000000               0.000050108               0.000646206              -0.000000000              -0.000061985               0.000236062               0.000174076               0.000000000               0.000000000               0.000000000               0.000000000               0.000457211               0.001204421               0.000000000               0.000020901               0.000394502               0.000415404               0.000000000               0.000000000               0.000000000               0.000000000               0.000627104               0.001719303               0.000000000               0.000020251               0.000566345               0.000586596               0.000000000               0.000000000               0.000000000               0.000000000               0.000686148               0.002164811              -0.000000000              -0.000013296               0.000726028               0.000712732               0.000000000               0.000000000               0.000000000               0.000000000               0.000697076               0.002548540              -0.000000000              -0.000057164               0.000868559               0.000811395               0.000000000               0.000000000               0.000000000               0.000000000               0.000687237               0.002876936               0.000000000              -0.000101903               0.000992937               0.000891034               0.000000000               0.000000000               0.000000000               0.000000000               0.000668658               0.003158779              -0.000000000              -0.000144100               0.001100949               0.000956849               0.000000000               0.000000000               0.000000000               0.000000000               0.000645781               0.003406444              -0.000000000              -0.000183637               0.001196682               0.001013045               0.000000000               0.000000000               0.000000000               0.000000000               0.000627228               0.003613916              -0.000000000              -0.000216528               0.001276803               0.001060274               0.000000000               0.000000000               0.000000000               0.000000000               0.000620293               0.003775774              -0.000000000              -0.000239361               0.001338366               0.001099004               0.000000000               0.000000000               0.000000000               0.000000000               0.000630819               0.003905701              -0.000000000              -0.000251655               0.001385772               0.001134117               0.000000000               0.000000000               0.000000000               0.000000000               0.000666424               0.004014129               0.000000000              -0.000251856               0.001421982               0.001170125               0.000000000               0.000000000               0.000000000               0.000000000               0.000735750               0.004103371              -0.000000000              -0.000237014               0.001446781               0.001209767               0.000000000               0.000000000               0.000000000               0.000000000               0.000852144               0.004172134              -0.000000000              -0.000201962               0.001458018               0.001256056               0.000000000               0.000000000               0.000000000               0.000000000               0.000960912               0.004213197              -0.000000000              -0.000166307               0.001459821               0.001293514               0.000000000               0.000000000               0.000000000               0.000000000               0.000000000               0.000000000               0.000000000               0.000000000               0.000000000               0.000000000               0.000000000               0.000000000               0.000000000               0.000000000               0.000000000               0.000000000               0.000000000               0.000000000               0.000000000               0.000000000               0.000000000               0.000000000               0.000000000               0.000000000               0.000000000               0.000000000               0.000000000               0.000000000               0.000000000               0.000000000               0.000000000               0.000000000               0.000000000               0.000000000               0.000000000               0.000000000               0.000000000               0.000000000               0.000000000               0.000000000               0.000000000               0.000000000               0.000000000               0.000000000               0.000000000               0.000000000               0.000000000               0.000000000               0.000000000               0.000000000               0.000000000               0.000000000               0.000000000               0.000000000               0.000000000               0.000000000               0.000000000               0.000000000               0.000000000               0.000000000               0.000000000               0.000000000               0.000000000               0.000000000               0.000000000               0.000000000               0.000000000               0.000000000               0.000000000               0.000000000               0.000000000               0.000000000               0.000000000               0.000000000               0.000000000               0.000000000               0.000000000               0.000000000               0.000000000               0.000000000               0.000000000               0.000000000               0.000000000               0.000000000               0.000000000               0.000000000               0.000000000               0.000000000               0.000000000               0.000000000               0.000000000               0.000000000               0.000000000               0.000000000               0.000000000               0.000000000               0.000000000               0.000000000               0.000000000               0.000000000               0.000000000               0.000000000               0.000000000               0.000000000               0.000000000               0.000000000               0.000000000               0.000000000               0.000000000               0.000000000               0.000000000               0.000000000               0.000000000               0.000000000               0.000000000               0.000000000               0.000000000               0.000000000               0.000000000               0.000000000               0.000000000               0.000000000               0.000000000               0.000000000               0.000000000               0.000000000               0.000000000               0.000000000               0.000000000               0.000000000               0.000000000               0.000000000               0.000000000               0.000000000               0.000000000               0.000000000               0.000000000               0.000000000               0.000000000               0.000000000               0.000000000               0.000000000               0.000000000               0.000000000               0.000000000               0.000000000               0.000000000               0.000000000               0.000000000               0.000000000               0.000000000               0.000000000               0.000000000               0.000000000               0.000000000               0.000000000               0.000000000               0.000000000               0.000000000               0.000000000               0.000000000               0.000000000               0.000000000               0.000000000               0.000000000               0.000000000               0.000000000               0.000000000               0.000000000               0.000000000               0.000000000               0.000000000               0.000000000               0.000000000               0.001235829               0.013047598               0.000972229              -0.001167511               0.004738326               0.003570815               0.000000000               0.000000000               0.000000000               0.000000000               0.001260128               0.010625300               0.000580032              -0.000855612               0.003826935               0.002971323               0.000000000               0.000000000               0.000000000               0.000000000               0.001673235               0.008689702               0.000179690              -0.000458748               0.003049454               0.002590706               0.000000000               0.000000000               0.000000000               0.000000000               0.001690017               0.007616964              -0.000001242              -0.000318363               0.002645084               0.002326720               0.000000000               0.000000000               0.000000000               0.000000000               0.001569670               0.006970417              -0.000085155              -0.000282675               0.002417674               0.002134999               0.000000000               0.000000000               0.000000000               0.000000000               0.001409630               0.006559365              -0.000122786              -0.000291309               0.002283536               0.001992227               0.000000000               0.000000000               0.000000000               0.000000000               0.001244364               0.006282982              -0.000135203              -0.000318735               0.002200552               0.001881816               0.000000000               0.000000000               0.000000000               0.000000000               0.001086320               0.006085852              -0.000137040              -0.000353361               0.002146384               0.001793023               0.000000000               0.000000000               0.000000000               0.000000000               0.000937697               0.005941056              -0.000136087              -0.000390995               0.002110664               0.001719669               0.000000000               0.000000000               0.000000000               0.000000000               0.000793395               0.005830492              -0.000132512              -0.000431287               0.002087240               0.001655953               0.000000000               0.000000000               0.000000000               0.000000000               0.000650989               0.005741908              -0.000126382              -0.000473616               0.002071822               0.001598206               0.000000000               0.000000000               0.000000000               0.000000000               0.000514643               0.005667113              -0.000119855              -0.000515397               0.002060818               0.001545421               0.000000000               0.000000000               0.000000000               0.000000000               0.000388843               0.005598938              -0.000112693              -0.000554050               0.002050977               0.001496928               0.000000000               0.000000000               0.000000000               0.000000000               0.000275252               0.005530510              -0.000100218              -0.000588093               0.002039516               0.001451423               0.000000000               0.000000000               0.000000000               0.000000000               0.000172473               0.005451049              -0.000078180              -0.000616702               0.002022566               0.001405863               0.000000000               0.000000000               0.000000000               0.000000000               0.000080202               0.005350304              -0.000044350              -0.000638711               0.001996320               0.001357610               0.000000000               0.000000000               0.000000000               0.000000000               0.000029757               0.005271963              -0.000026449              -0.000647835               0.001973248               0.001325413               0.000000000               0.000000000               0.000000000               0.000000000               0.001400741               0.012347790               0.001825849              -0.001018194               0.004455287               0.003437092               0.000000000               0.000000000               0.000000000               0.000000000               0.001266731               0.010145519               0.001089948              -0.000793164               0.003646194               0.002853030               0.000000000               0.000000000               0.000000000               0.000000000               0.001510454               0.008448025               0.000345440              -0.000489582               0.002979174               0.002489592               0.000000000               0.000000000               0.000000000               0.000000000               0.001460686               0.007498952               0.000017918              -0.000389611               0.002629496               0.002239885               0.000000000               0.000000000               0.000000000               0.000000000               0.001323276               0.006918351              -0.000131233              -0.000368564               0.002428949               0.002060384               0.000000000               0.000000000               0.000000000               0.000000000               0.001169003               0.006537489              -0.000198096              -0.000378809               0.002305411               0.001926602               0.000000000               0.000000000               0.000000000               0.000000000               0.001017992               0.006273236              -0.000221496              -0.000402407               0.002225193               0.001822787               0.000000000               0.000000000               0.000000000               0.000000000               0.000873896               0.006079735              -0.000225173              -0.000432255               0.002170643               0.001738388               0.000000000               0.000000000               0.000000000               0.000000000               0.000739486               0.005932552              -0.000223429              -0.000464261               0.002132251               0.001667990               0.000000000               0.000000000               0.000000000               0.000000000               0.000612494               0.005818123              -0.000218334              -0.000497579               0.002105214               0.001607636               0.000000000               0.000000000               0.000000000               0.000000000               0.000492410               0.005723564              -0.000209710              -0.000530791               0.002084766               0.001553975               0.000000000               0.000000000               0.000000000               0.000000000               0.000381618               0.005638552              -0.000198444              -0.000561711               0.002066736               0.001505025               0.000000000               0.000000000               0.000000000               0.000000000               0.000281688               0.005558086              -0.000184577              -0.000589126               0.002049052               0.001459926               0.000000000               0.000000000               0.000000000               0.000000000               0.000196864               0.005478835              -0.000162342              -0.000611029               0.002029936               0.001418908               0.000000000               0.000000000               0.000000000               0.000000000               0.000123341               0.005396226              -0.000124793              -0.000628274               0.002008149               0.001379875               0.000000000               0.000000000               0.000000000               0.000000000               0.000056166               0.005309260              -0.000070280              -0.000642594               0.001983934               0.001341340               0.000000000               0.000000000               0.000000000               0.000000000               0.000019854               0.005252478              -0.000041539              -0.000649113               0.001967179               0.001318067               0.000000000               0.000000000               0.000000000               0.000000000               0.001609333               0.011278496               0.002473756              -0.000806312               0.004028231               0.003221919               0.000000000               0.000000000               0.000000000               0.000000000               0.001252253               0.009423477               0.001483811              -0.000708339               0.003377240               0.002668902               0.000000000               0.000000000               0.000000000               0.000000000               0.001254534               0.008082113               0.000492359              -0.000539813               0.002873948               0.002334136               0.000000000               0.000000000               0.000000000               0.000000000               0.001120343               0.007309199               0.000071164              -0.000493520               0.002600882               0.002107362               0.000000000               0.000000000               0.000000000               0.000000000               0.000967745               0.006816263              -0.000114319              -0.000489127               0.002435108               0.001945980               0.000000000               0.000000000               0.000000000               0.000000000               0.000828062               0.006473806              -0.000194298              -0.000498701               0.002324147               0.001825446               0.000000000               0.000000000               0.000000000               0.000000000               0.000702972               0.006220206              -0.000224508              -0.000513910               0.002244684               0.001730774               0.000000000               0.000000000               0.000000000               0.000000000               0.000587723               0.006029390              -0.000232342              -0.000533276               0.002187535               0.001654259               0.000000000               0.000000000               0.000000000               0.000000000               0.000483950               0.005885299              -0.000235367              -0.000554180               0.002146473               0.001592294               0.000000000               0.000000000               0.000000000               0.000000000               0.000386906               0.005770993              -0.000234663              -0.000576283               0.002115739               0.001539457               0.000000000               0.000000000               0.000000000               0.000000000               0.000297045               0.005670296              -0.000226025              -0.000597394               0.002089211               0.001491818               0.000000000               0.000000000               0.000000000               0.000000000               0.000221099               0.005577876              -0.000212589              -0.000614321               0.002064047               0.001449726               0.000000000               0.000000000               0.000000000               0.000000000               0.000158904               0.005490513              -0.000195967              -0.000626724               0.002039060               0.001412337               0.000000000               0.000000000               0.000000000               0.000000000               0.000109045               0.005406915              -0.000168727              -0.000634971               0.002013944               0.001378973               0.000000000               0.000000000               0.000000000               0.000000000               0.000069293               0.005329915              -0.000126201              -0.000640253               0.001990038               0.001349785               0.000000000               0.000000000               0.000000000               0.000000000               0.000032927               0.005266172              -0.000070026              -0.000645922               0.001970681               0.001324758               0.000000000               0.000000000               0.000000000               0.000000000               0.000013519               0.005235633              -0.000039879              -0.000649383               0.001961655               0.001312272               0.000000000               0.000000000               0.000000000               0.000000000               0.001793052               0.009950922               0.002872225              -0.000571472               0.003507431               0.002935959               0.000000000               0.000000000               0.000000000               0.000000000               0.001197529               0.008542006               0.001749245              -0.000618677               0.003053532               0.002434855               0.000000000               0.000000000               0.000000000               0.000000000               0.000941713               0.007628706               0.000634209              -0.000600445               0.002743025               0.002142580               0.000000000               0.000000000               0.000000000               0.000000000               0.000733201               0.007050275               0.000177926              -0.000606333               0.002552179               0.001945846               0.000000000               0.000000000               0.000000000               0.000000000               0.000576933               0.006646763              -0.000018877              -0.000614494               0.002420397               0.001805903               0.000000000               0.000000000               0.000000000               0.000000000               0.000464450               0.006345573              -0.000104857              -0.000619026               0.002321512               0.001702486               0.000000000               0.000000000               0.000000000               0.000000000               0.000379057               0.006112128              -0.000144589              -0.000621868               0.002244645               0.001622777               0.000000000               0.000000000               0.000000000               0.000000000               0.000304839               0.005935302              -0.000166010              -0.000627597               0.002187613               0.001560017               0.000000000               0.000000000               0.000000000               0.000000000               0.000241612               0.005798541              -0.000179572              -0.000634212               0.002144232               0.001510020               0.000000000               0.000000000               0.000000000               0.000000000               0.000182942               0.005679435              -0.000185334              -0.000641325               0.002106901               0.001465576               0.000000000               0.000000000               0.000000000               0.000000000               0.000128115               0.005571360              -0.000180994              -0.000648375               0.002073227               0.001424851               0.000000000               0.000000000               0.000000000               0.000000000               0.000087262               0.005473287              -0.000169946              -0.000651436               0.002041556               0.001390120               0.000000000               0.000000000               0.000000000               0.000000000               0.000061026               0.005383871              -0.000153590              -0.000650097               0.002011305               0.001361207               0.000000000               0.000000000               0.000000000               0.000000000               0.000043697               0.005304414              -0.000127096              -0.000646664               0.001983675               0.001337011               0.000000000               0.000000000               0.000000000               0.000000000               0.000031611               0.005239044              -0.000090272              -0.000643025               0.001960672               0.001317647               0.000000000               0.000000000               0.000000000               0.000000000               0.000016543               0.005193925              -0.000047725              -0.000643035               0.001945636               0.001302601               0.000000000               0.000000000               0.000000000               0.000000000               0.000006758               0.005176437              -0.000025847              -0.000644519               0.001940302               0.001295783               0.000000000               0.000000000               0.000000000               0.000000000               0.001892222               0.008497598               0.003017282              -0.000352619               0.002950043               0.002597424               0.000000000               0.000000000               0.000000000               0.000000000               0.001092350               0.007590793               0.001894760              -0.000539218               0.002709978               0.002170760               0.000000000               0.000000000               0.000000000               0.000000000               0.000607439               0.007130379               0.000780926              -0.000663506               0.002597938               0.001934432               0.000000000               0.000000000               0.000000000               0.000000000               0.000358174               0.006738738               0.000332344              -0.000708025               0.002482232               0.001774207               0.000000000               0.000000000               0.000000000               0.000000000               0.000222593               0.006423864               0.000135079              -0.000719509               0.002381103               0.001661594               0.000000000               0.000000000               0.000000000               0.000000000               0.000150397               0.006167721               0.000039989              -0.000714565               0.002294075               0.001579510               0.000000000               0.000000000               0.000000000               0.000000000               0.000111347               0.005965598              -0.000015868              -0.000703943               0.002223160               0.001519217               0.000000000               0.000000000               0.000000000               0.000000000               0.000080638               0.005806716              -0.000053308              -0.000695598               0.002167419               0.001471820               0.000000000               0.000000000               0.000000000               0.000000000               0.000052281               0.005668895              -0.000077485              -0.000689005               0.002119281               0.001430276               0.000000000               0.000000000               0.000000000               0.000000000               0.000028961               0.005544999              -0.000092761              -0.000682263               0.002075735               0.001393473               0.000000000               0.000000000               0.000000000               0.000000000               0.000013092               0.005433540              -0.000097418              -0.000674281               0.002035922               0.001361641               0.000000000               0.000000000               0.000000000               0.000000000               0.000005088               0.005331139              -0.000093553              -0.000664483               0.001998523               0.001334040               0.000000000               0.000000000               0.000000000               0.000000000               0.000003696               0.005239439              -0.000085474              -0.000653542               0.001964309               0.001310767               0.000000000               0.000000000               0.000000000               0.000000000               0.000007973               0.005161796              -0.000069396              -0.000642233               0.001934659               0.001292426               0.000000000               0.000000000               0.000000000               0.000000000               0.000012032               0.005100192              -0.000047290              -0.000633010               0.001911050               0.001278040               0.000000000               0.000000000               0.000000000               0.000000000               0.000007552               0.005052960              -0.000024271              -0.000628786               0.001893898               0.001265112               0.000000000               0.000000000               0.000000000               0.000000000              -0.000000616               0.005026897              -0.000014401              -0.000628592               0.001885146               0.001256555               0.000000000               0.000000000               0.000000000               0.000000000               0.001863170               0.007046098               0.002941548              -0.000182077               0.002409367               0.002227290               0.000000000               0.000000000               0.000000000               0.000000000               0.000938910               0.006651481               0.001939493              -0.000479345               0.002376919               0.001897575               0.000000000               0.000000000               0.000000000               0.000000000               0.000289761               0.006624161               0.000930997              -0.000719358               0.002447818               0.001728459               0.000000000               0.000000000               0.000000000               0.000000000               0.000041221               0.006400752               0.000514241              -0.000784634               0.002395107               0.001610473               0.000000000               0.000000000               0.000000000               0.000000000              -0.000051684               0.006166049               0.000315745              -0.000790136               0.002318708               0.001528572               0.000000000               0.000000000               0.000000000               0.000000000              -0.000072733               0.005958144               0.000208445              -0.000772041               0.002243375               0.001471334               0.000000000               0.000000000               0.000000000               0.000000000              -0.000070571               0.005785735               0.000135494              -0.000749679               0.002178452               0.001428773               0.000000000               0.000000000               0.000000000               0.000000000              -0.000069304               0.005636733               0.000081809              -0.000730579               0.002122419               0.001391840               0.000000000               0.000000000               0.000000000               0.000000000              -0.000066187               0.005502700               0.000042380              -0.000712656               0.002071767               0.001359111               0.000000000               0.000000000               0.000000000               0.000000000              -0.000058451               0.005380653               0.000011583              -0.000694499               0.002025033               0.001330534               0.000000000               0.000000000               0.000000000               0.000000000              -0.000047216               0.005265482              -0.000008513              -0.000675890               0.001980440               0.001304550               0.000000000               0.000000000               0.000000000               0.000000000              -0.000033963               0.005159497              -0.000018706              -0.000657672               0.001939039               0.001281367               0.000000000               0.000000000               0.000000000               0.000000000              -0.000020198               0.005063893              -0.000025009              -0.000640559               0.001901467               0.001260908               0.000000000               0.000000000               0.000000000               0.000000000              -0.000008516               0.004980081              -0.000026189              -0.000625702               0.001868578               0.001242876               0.000000000               0.000000000               0.000000000               0.000000000              -0.000003404               0.004909405              -0.000021655              -0.000614951               0.001841435               0.001226485               0.000000000               0.000000000               0.000000000               0.000000000              -0.000002007               0.004848311              -0.000014347              -0.000606790               0.001818351               0.001211561               0.000000000               0.000000000               0.000000000               0.000000000              -0.000007496               0.004809075              -0.000013671              -0.000603944               0.001804324               0.001200380               0.000000000               0.000000000               0.000000000               0.000000000               0.001707917               0.005686996               0.002691445              -0.000070409               0.001919115               0.001848706               0.000000000               0.000000000               0.000000000               0.000000000               0.000744724               0.005780168               0.001907210              -0.000443250               0.002074453               0.001631203               0.000000000               0.000000000               0.000000000               0.000000000               0.000024307               0.006123430               0.001084500              -0.000756312               0.002293227               0.001536914               0.000000000               0.000000000               0.000000000               0.000000000              -0.000183336               0.006043537               0.000707565              -0.000824191               0.002289223               0.001465031               0.000000000               0.000000000               0.000000000               0.000000000              -0.000223758               0.005881785               0.000501371              -0.000819130               0.002233619               0.001414488               0.000000000               0.000000000               0.000000000               0.000000000              -0.000200798               0.005721417               0.000375488              -0.000790474               0.002170611               0.001380137               0.000000000               0.000000000               0.000000000               0.000000000              -0.000168239               0.005577845               0.000282563              -0.000760318               0.002112702               0.001352384               0.000000000               0.000000000               0.000000000               0.000000000              -0.000141331               0.005445294               0.000207803              -0.000733659               0.002059633               0.001325974               0.000000000               0.000000000               0.000000000               0.000000000              -0.000115150               0.005320504               0.000148525              -0.000708243               0.002009564               0.001301322               0.000000000               0.000000000               0.000000000               0.000000000              -0.000090960               0.005196406               0.000099166              -0.000683659               0.001960004               0.001276345               0.000000000               0.000000000               0.000000000               0.000000000              -0.000065729               0.005075642               0.000060299              -0.000659102               0.001911564               0.001252462               0.000000000               0.000000000               0.000000000               0.000000000              -0.000045486               0.004961583               0.000031411              -0.000637254               0.001866262               0.001229009               0.000000000               0.000000000               0.000000000               0.000000000              -0.000032423               0.004857228               0.000009432              -0.000619311               0.001825497               0.001206186               0.000000000               0.000000000               0.000000000               0.000000000              -0.000025598               0.004763243              -0.000005990              -0.000605003               0.001789400               0.001184396               0.000000000               0.000000000               0.000000000               0.000000000              -0.000020219               0.004680773              -0.000013298              -0.000592677               0.001757801               0.001165124               0.000000000               0.000000000               0.000000000               0.000000000              -0.000012972               0.004607663              -0.000012715              -0.000580821               0.001729479               0.001148658               0.000000000               0.000000000               0.000000000               0.000000000              -0.000013277               0.004561822              -0.000013842              -0.000575205               0.001712327               0.001137122               0.000000000               0.000000000               0.000000000               0.000000000               0.001476992               0.004514932               0.002330748              -0.000010498               0.001508461               0.001497963               0.000000000               0.000000000               0.000000000               0.000000000               0.000562654               0.005001705               0.001840655              -0.000414219               0.001805290               0.001391072               0.000000000               0.000000000               0.000000000               0.000000000              -0.000152280               0.005652622               0.001261883              -0.000763681               0.002138749               0.001375067               0.000000000               0.000000000               0.000000000               0.000000000              -0.000306342               0.005716770               0.000916931              -0.000829473               0.002182062               0.001352589               0.000000000               0.000000000               0.000000000               0.000000000              -0.000306844               0.005636402               0.000694813              -0.000819615               0.002151987               0.001332372               0.000000000               0.000000000               0.000000000               0.000000000              -0.000257272               0.005525309               0.000540930              -0.000787139               0.002104131               0.001316992               0.000000000               0.000000000               0.000000000               0.000000000              -0.000207108               0.005414707               0.000424068              -0.000754502               0.002056385               0.001301883               0.000000000               0.000000000               0.000000000               0.000000000              -0.000166479               0.005305770               0.000330030              -0.000725649               0.002010455               0.001284806               0.000000000               0.000000000               0.000000000               0.000000000              -0.000123628               0.005190338               0.000252935              -0.000695151               0.001961812               0.001266661               0.000000000               0.000000000               0.000000000               0.000000000              -0.000087258               0.005065303               0.000186314              -0.000665883               0.001910378               0.001244495               0.000000000               0.000000000               0.000000000               0.000000000              -0.000056066               0.004938072               0.000129713              -0.000638282               0.001858768               0.001220486               0.000000000               0.000000000               0.000000000               0.000000000              -0.000036795               0.004813565               0.000081650              -0.000615492               0.001809670               0.001194177               0.000000000               0.000000000               0.000000000               0.000000000              -0.000034411               0.004697054               0.000042762              -0.000600034               0.001765680               0.001165646               0.000000000               0.000000000               0.000000000               0.000000000              -0.000044491               0.004589147               0.000014621              -0.000590326               0.001726476               0.001136149               0.000000000               0.000000000               0.000000000               0.000000000              -0.000055385               0.004490342              -0.000001819              -0.000582061               0.001690786               0.001108725               0.000000000               0.000000000               0.000000000               0.000000000              -0.000056250               0.004402815              -0.000006661              -0.000571444               0.001658072               0.001086628               0.000000000               0.000000000               0.000000000               0.000000000              -0.000052109               0.004356025              -0.000007299              -0.000564043               0.001640008               0.001075965               0.000000000               0.000000000               0.000000000               0.000000000               0.001149022               0.003400024               0.001923714               0.000005878               0.001131370               0.001137247               0.000000000               0.000000000               0.000000000               0.000000000               0.000430563               0.004113642               0.001759817              -0.000352745               0.001488781               0.001136036               0.000000000               0.000000000               0.000000000               0.000000000              -0.000206295               0.004984507               0.001463996              -0.000700423               0.001894960               0.001194537               0.000000000               0.000000000               0.000000000               0.000000000              -0.000334775               0.005233698               0.001161949              -0.000779751               0.002004465               0.001224714               0.000000000               0.000000000               0.000000000               0.000000000              -0.000328281               0.005276483               0.000923765              -0.000782664               0.002019698               0.001237034               0.000000000               0.000000000               0.000000000               0.000000000              -0.000278554               0.005245044               0.000739495              -0.000760087               0.002001693               0.001241606               0.000000000               0.000000000               0.000000000               0.000000000              -0.000224870               0.005193057               0.000595586              -0.000733457               0.001975487               0.001242031               0.000000000               0.000000000               0.000000000               0.000000000              -0.000181734               0.005130796               0.000483117              -0.000709498               0.001946747               0.001237249               0.000000000               0.000000000               0.000000000               0.000000000              -0.000139864               0.005047946               0.000390770              -0.000683440               0.001910445               0.001227005               0.000000000               0.000000000               0.000000000               0.000000000              -0.000098081               0.004947505               0.000310124              -0.000655217               0.001867557               0.001212341               0.000000000               0.000000000               0.000000000               0.000000000              -0.000065123               0.004835125               0.000235489              -0.000628810               0.001821296               0.001192485               0.000000000               0.000000000               0.000000000               0.000000000              -0.000045853               0.004719319               0.000163725              -0.000607108               0.001775460               0.001168352               0.000000000               0.000000000               0.000000000               0.000000000              -0.000044626               0.004606651               0.000101256              -0.000592565               0.001733057               0.001140492               0.000000000               0.000000000               0.000000000               0.000000000              -0.000061929               0.004498044               0.000052545              -0.000585478               0.001694492               0.001109015               0.000000000               0.000000000               0.000000000               0.000000000              -0.000089905               0.004399930               0.000019919              -0.000583704               0.001661197               0.001077492               0.000000000               0.000000000               0.000000000               0.000000000              -0.000118558               0.004308281               0.000003368              -0.000582993               0.001630410               0.001047418               0.000000000               0.000000000               0.000000000               0.000000000              -0.000131620               0.004259384              -0.000001778              -0.000581779               0.001613707               0.001031928               0.000000000               0.000000000               0.000000000               0.000000000               0.000672495               0.002368978               0.001486679              -0.000043939               0.000804297               0.000760358               0.000000000               0.000000000               0.000000000               0.000000000               0.000282496               0.003229434               0.001630287              -0.000297744               0.001175715               0.000877970               0.000000000               0.000000000               0.000000000               0.000000000              -0.000188061               0.004237078               0.001619321              -0.000600157               0.001612397               0.001012240               0.000000000               0.000000000               0.000000000               0.000000000              -0.000293853               0.004660740               0.001395648              -0.000692786               0.001784493               0.001091706               0.000000000               0.000000000               0.000000000               0.000000000              -0.000293343               0.004838635               0.001163658              -0.000714832               0.001851139               0.001136307               0.000000000               0.000000000               0.000000000               0.000000000              -0.000256281               0.004908791               0.000960406              -0.000709703               0.001872815               0.001163112               0.000000000               0.000000000               0.000000000               0.000000000              -0.000208626               0.004933514               0.000792721              -0.000694923               0.001876129               0.001181206               0.000000000               0.000000000               0.000000000               0.000000000              -0.000165479               0.004928178               0.000664030              -0.000678075               0.001868735               0.001190659               0.000000000               0.000000000               0.000000000               0.000000000              -0.000128534               0.004892596               0.000561518              -0.000659773               0.001850773               0.001191000               0.000000000               0.000000000               0.000000000               0.000000000              -0.000089347               0.004831767               0.000470483              -0.000637475               0.001823064               0.001185590               0.000000000               0.000000000               0.000000000               0.000000000              -0.000058381               0.004749259               0.000381299              -0.000615549               0.001788253               0.001172705               0.000000000               0.000000000               0.000000000               0.000000000              -0.000037973               0.004657187               0.000292831              -0.000596387               0.001751176               0.001154789               0.000000000               0.000000000               0.000000000               0.000000000              -0.000032370               0.004560909               0.000208851              -0.000582251               0.001714371               0.001132120               0.000000000               0.000000000               0.000000000               0.000000000              -0.000049386               0.004465466               0.000133003              -0.000576701               0.001680708               0.001104006               0.000000000               0.000000000               0.000000000               0.000000000              -0.000089256               0.004378557               0.000071479              -0.000580789               0.001653101               0.001072312               0.000000000               0.000000000               0.000000000               0.000000000              -0.000149547               0.004296182               0.000026283              -0.000593102               0.001629747               0.001036645               0.000000000               0.000000000               0.000000000               0.000000000              -0.000194698               0.004247763               0.000003424              -0.000603981               0.001617234               0.001013253               0.000000000               0.000000000               0.000000000               0.000000000               0.000085896               0.001492335               0.001043730              -0.000154332               0.000548883               0.000394552               0.000000000               0.000000000               0.000000000               0.000000000               0.000078379               0.002391549               0.001424962              -0.000269552               0.000887025               0.000617473               0.000000000               0.000000000               0.000000000               0.000000000              -0.000138784               0.003415508               0.001653992              -0.000478983               0.001298151               0.000819169               0.000000000               0.000000000               0.000000000               0.000000000              -0.000188333               0.003963132               0.001532151              -0.000566016               0.001509702               0.000943686               0.000000000               0.000000000               0.000000000               0.000000000              -0.000183732               0.004270918               0.001336132              -0.000602763               0.001624546               0.001021782               0.000000000               0.000000000               0.000000000               0.000000000              -0.000159233               0.004450605               0.001139481              -0.000616037               0.001688866               0.001072829               0.000000000               0.000000000               0.000000000               0.000000000              -0.000124363               0.004560144               0.000966518              -0.000616653               0.001725584               0.001108931               0.000000000               0.000000000               0.000000000               0.000000000              -0.000089566               0.004627319               0.000827349              -0.000612001               0.001746425               0.001134424               0.000000000               0.000000000               0.000000000               0.000000000              -0.000061525               0.004655704               0.000717253              -0.000605034               0.001753564               0.001148530               0.000000000               0.000000000               0.000000000               0.000000000              -0.000035026               0.004650513               0.000619127              -0.000594447               0.001748304               0.001153857               0.000000000               0.000000000               0.000000000               0.000000000              -0.000010788               0.004617745               0.000522983              -0.000581262               0.001732987               0.001151725               0.000000000               0.000000000               0.000000000               0.000000000               0.000007394               0.004561612               0.000428948              -0.000567428               0.001709665               0.001142237               0.000000000               0.000000000               0.000000000               0.000000000               0.000015213               0.004492685               0.000333539              -0.000555880               0.001682840               0.001126960               0.000000000               0.000000000               0.000000000               0.000000000               0.000005437               0.004422481               0.000237747              -0.000550770               0.001657735               0.001106966               0.000000000               0.000000000               0.000000000               0.000000000              -0.000032298               0.004354742               0.000147445              -0.000556453               0.001637051               0.001080597               0.000000000               0.000000000               0.000000000               0.000000000              -0.000102997               0.004288320               0.000067209              -0.000574663               0.001620980               0.001046317               0.000000000               0.000000000               0.000000000               0.000000000              -0.000168248               0.004240726               0.000022163              -0.000593182               0.001611289               0.001018106               0.000000000               0.000000000               0.000000000               0.000000000              -0.000566816               0.000818617               0.000646149              -0.000314883               0.000377830               0.000062947               0.000000000               0.000000000               0.000000000               0.000000000              -0.000172929               0.001646760               0.001163010              -0.000270694               0.000639145               0.000368451               0.000000000               0.000000000               0.000000000               0.000000000              -0.000077082               0.002584115               0.001551957              -0.000351921               0.000978669               0.000626749               0.000000000               0.000000000               0.000000000               0.000000000              -0.000032853               0.003198060               0.001527715              -0.000412078               0.001203368               0.000791290               0.000000000               0.000000000               0.000000000               0.000000000              -0.000007133               0.003608815               0.001386341              -0.000453777               0.001354185               0.000900408               0.000000000               0.000000000               0.000000000               0.000000000               0.000013854               0.003887596               0.001220585              -0.000480754               0.001456103               0.000975349               0.000000000               0.000000000               0.000000000               0.000000000               0.000034178               0.004084881               0.001063042              -0.000497793               0.001527544               0.001029751               0.000000000               0.000000000               0.000000000               0.000000000               0.000053167               0.004232730               0.000928312              -0.000509153               0.001580613               0.001071461               0.000000000               0.000000000               0.000000000               0.000000000               0.000067596               0.004334750               0.000818543              -0.000516494               0.001617067               0.001100573               0.000000000               0.000000000               0.000000000               0.000000000               0.000080196               0.004395300               0.000720415              -0.000519338               0.001638198               0.001118860               0.000000000               0.000000000               0.000000000               0.000000000               0.000095059               0.004423893               0.000625395              -0.000517338               0.001647062               0.001129724               0.000000000               0.000000000               0.000000000               0.000000000               0.000108187               0.004417859               0.000533277              -0.000511661               0.001643159               0.001131498               0.000000000               0.000000000               0.000000000               0.000000000               0.000117905               0.004391391               0.000438162              -0.000504708               0.001632019               0.001127310               0.000000000               0.000000000               0.000000000               0.000000000               0.000119759               0.004357362               0.000334852              -0.000499759               0.001619026               0.001119267               0.000000000               0.000000000               0.000000000               0.000000000               0.000100852               0.004318488               0.000226639              -0.000501990               0.001606812               0.001104821               0.000000000               0.000000000               0.000000000               0.000000000               0.000046668               0.004274593               0.000115308              -0.000516822               0.001597124               0.001080302               0.000000000               0.000000000               0.000000000               0.000000000              -0.000014186               0.004236699               0.000051254              -0.000534906               0.001590521               0.001055615               0.000000000               0.000000000               0.000000000               0.000000000              -0.001213072               0.000345084               0.000337476              -0.000498037               0.000281038              -0.000216999               0.000000000               0.000000000               0.000000000               0.000000000              -0.000442392               0.001032985               0.000872333              -0.000295020               0.000442664               0.000147644               0.000000000               0.000000000               0.000000000               0.000000000              -0.000019347               0.001818045               0.001312862              -0.000234511               0.000684179               0.000449667               0.000000000               0.000000000               0.000000000               0.000000000               0.000144942               0.002443448               0.001357112              -0.000251078               0.000898167               0.000647088               0.000000000               0.000000000               0.000000000               0.000000000               0.000209244               0.002918662               0.001272167              -0.000286367               0.001068333               0.000781966               0.000000000               0.000000000               0.000000000               0.000000000               0.000235628               0.003278929               0.001149198              -0.000321506               0.001200134               0.000878628               0.000000000               0.000000000               0.000000000               0.000000000               0.000246860               0.003553636               0.001022669              -0.000351632               0.001301744               0.000950112               0.000000000               0.000000000               0.000000000               0.000000000               0.000252431               0.003771719               0.000909109              -0.000376803               0.001382828               0.001006025               0.000000000               0.000000000               0.000000000               0.000000000               0.000254468               0.003944899               0.000813180              -0.000397686               0.001447515               0.001049829               0.000000000               0.000000000               0.000000000               0.000000000               0.000254767               0.004075567               0.000726665              -0.000413907               0.001496478               0.001082570               0.000000000               0.000000000               0.000000000               0.000000000               0.000257703               0.004172236               0.000642252              -0.000424890               0.001532361               0.001107471               0.000000000               0.000000000               0.000000000               0.000000000               0.000262139               0.004229798               0.000560342              -0.000430422               0.001553393               0.001122971               0.000000000               0.000000000               0.000000000               0.000000000               0.000270531               0.004256842               0.000475853              -0.000430655               0.001562485               0.001131830               0.000000000               0.000000000               0.000000000               0.000000000               0.000284156               0.004267852               0.000381210              -0.000426922               0.001564910               0.001137988               0.000000000               0.000000000               0.000000000               0.000000000               0.000296463               0.004268056               0.000273395              -0.000422332               0.001563448               0.001141116               0.000000000               0.000000000               0.000000000               0.000000000               0.000290100               0.004254410               0.000147139              -0.000423013               0.001559127               0.001136114               0.000000000               0.000000000               0.000000000               0.000000000               0.000270023               0.004236873               0.000075441              -0.000428349               0.001555060               0.001126711               0.000000000               0.000000000               0.000000000               0.000000000              -0.001766207               0.000044864               0.000140786              -0.000667935               0.000237598              -0.000430337               0.000000000               0.000000000               0.000000000               0.000000000              -0.000684819               0.000578640               0.000577043              -0.000329137               0.000302590              -0.000026547               0.000000000               0.000000000               0.000000000               0.000000000               0.000021674               0.001196431               0.000952923              -0.000141427               0.000445948               0.000304521               0.000000000               0.000000000               0.000000000               0.000000000               0.000306689               0.001796184               0.001021144              -0.000109516               0.000635227               0.000525711               0.000000000               0.000000000               0.000000000               0.000000000               0.000418678               0.002304149               0.000980182              -0.000131015               0.000811713               0.000680698               0.000000000               0.000000000               0.000000000               0.000000000               0.000458424               0.002718867               0.000901578              -0.000167950               0.000962263               0.000794313               0.000000000               0.000000000               0.000000000               0.000000000               0.000467819               0.003049591               0.000814046              -0.000205767               0.001085109               0.000879342               0.000000000               0.000000000               0.000000000               0.000000000               0.000465333               0.003323440               0.000734053              -0.000240930               0.001188112               0.000947182               0.000000000               0.000000000               0.000000000               0.000000000               0.000456764               0.003556339               0.000664963              -0.000273255               0.001276520               0.001003264               0.000000000               0.000000000               0.000000000               0.000000000               0.000446264               0.003749461               0.000600192              -0.000301333               0.001350252               0.001048919               0.000000000               0.000000000               0.000000000               0.000000000               0.000438558               0.003904942               0.000535329              -0.000323658               0.001409520               0.001085862               0.000000000               0.000000000               0.000000000               0.000000000               0.000434656               0.004021119               0.000472007              -0.000339643               0.001453574               0.001113931               0.000000000               0.000000000               0.000000000               0.000000000               0.000441059               0.004104460               0.000407567              -0.000347660               0.001484026               0.001136367               0.000000000               0.000000000               0.000000000               0.000000000               0.000465104               0.004165553               0.000335155              -0.000346279               0.001503930               0.001157651               0.000000000               0.000000000               0.000000000               0.000000000               0.000508855               0.004207852               0.000247677              -0.000335160               0.001514323               0.001179163               0.000000000               0.000000000               0.000000000               0.000000000               0.000566603               0.004225973               0.000137013              -0.000315770               0.001513900               0.001198130               0.000000000               0.000000000               0.000000000               0.000000000               0.000611172               0.004231903               0.000076013              -0.000299797               0.001510553               0.001210755               0.000000000               0.000000000               0.000000000               0.000000000              -0.002142934              -0.000120259               0.000043835              -0.000788567               0.000222768              -0.000565799               0.000000000               0.000000000               0.000000000               0.000000000              -0.000853969               0.000296717               0.000287875              -0.000357328               0.000218013              -0.000139314               0.000000000               0.000000000               0.000000000               0.000000000               0.000043646               0.000788971               0.000502110              -0.000082254               0.000290405               0.000208151               0.000000000               0.000000000               0.000000000               0.000000000               0.000418052               0.001358470               0.000550000              -0.000013040               0.000457165               0.000444126               0.000000000               0.000000000               0.000000000               0.000000000               0.000571281               0.001873445               0.000536652              -0.000019951               0.000631125               0.000611175               0.000000000               0.000000000               0.000000000               0.000000000               0.000625048               0.002313640               0.000498897              -0.000054812               0.000789476               0.000734664               0.000000000               0.000000000               0.000000000               0.000000000               0.000635800               0.002684051               0.000453931              -0.000097082               0.000927035               0.000829954               0.000000000               0.000000000               0.000000000               0.000000000               0.000628647               0.002998770               0.000411868              -0.000139103               0.001045948               0.000906844               0.000000000               0.000000000               0.000000000               0.000000000               0.000610982               0.003267264               0.000375490              -0.000179289               0.001148840               0.000969551               0.000000000               0.000000000               0.000000000               0.000000000               0.000591054               0.003499726               0.000341701              -0.000215820               0.001238504               0.001022684               0.000000000               0.000000000               0.000000000               0.000000000               0.000576090               0.003693643               0.000305941              -0.000245671               0.001313092               0.001067421               0.000000000               0.000000000               0.000000000               0.000000000               0.000569819               0.003846161               0.000270156              -0.000267087               0.001371070               0.001103982               0.000000000               0.000000000               0.000000000               0.000000000               0.000578560               0.003967322               0.000233719              -0.000278955               0.001415413               0.001136458               0.000000000               0.000000000               0.000000000               0.000000000               0.000610634               0.004064281               0.000193152              -0.000279047               0.001447763               0.001168716               0.000000000               0.000000000               0.000000000               0.000000000               0.000674699               0.004140658               0.000143676              -0.000264569               0.001468395               0.001203826               0.000000000               0.000000000               0.000000000               0.000000000               0.000778344               0.004191934               0.000079017              -0.000232112               0.001474668               0.001242556               0.000000000               0.000000000               0.000000000               0.000000000               0.000872121               0.004220621               0.000044334              -0.000200532               0.001473704               0.001273172               0.000000000               0.000000000               0.000000000               0.000000000              -0.002276747              -0.000173485               0.000000000              -0.000832094               0.000219535              -0.000612559               0.000000000               0.000000000               0.000000000               0.000000000              -0.000914247               0.000200082               0.000000000              -0.000367853               0.000189310              -0.000178542               0.000000000               0.000000000               0.000000000               0.000000000               0.000050108               0.000646206               0.000000000              -0.000061985               0.000236062               0.000174076               0.000000000               0.000000000               0.000000000               0.000000000               0.000457211               0.001204421              -0.000000000               0.000020901               0.000394502               0.000415404               0.000000000               0.000000000               0.000000000               0.000000000               0.000627104               0.001719303              -0.000000000               0.000020251               0.000566345               0.000586596               0.000000000               0.000000000               0.000000000               0.000000000               0.000686148               0.002164811               0.000000000              -0.000013296               0.000726028               0.000712732               0.000000000               0.000000000               0.000000000               0.000000000               0.000697076               0.002548540               0.000000000              -0.000057164               0.000868559               0.000811395               0.000000000               0.000000000               0.000000000               0.000000000               0.000687237               0.002876936               0.000000000              -0.000101903               0.000992937               0.000891034               0.000000000               0.000000000               0.000000000               0.000000000               0.000668658               0.003158779               0.000000000              -0.000144100               0.001100949               0.000956849               0.000000000               0.000000000               0.000000000               0.000000000               0.000645781               0.003406444              -0.000000000              -0.000183637               0.001196682               0.001013045               0.000000000               0.000000000               0.000000000               0.000000000               0.000627228               0.003613916              -0.000000000              -0.000216528               0.001276803               0.001060274               0.000000000               0.000000000               0.000000000               0.000000000               0.000620293               0.003775774              -0.000000000              -0.000239361               0.001338366               0.001099004               0.000000000               0.000000000               0.000000000               0.000000000               0.000630819               0.003905701               0.000000000              -0.000251655               0.001385772               0.001134117               0.000000000               0.000000000               0.000000000               0.000000000               0.000666424               0.004014129              -0.000000000              -0.000251856               0.001421982               0.001170125               0.000000000               0.000000000               0.000000000               0.000000000               0.000735750               0.004103371              -0.000000000              -0.000237014               0.001446781               0.001209767               0.000000000               0.000000000               0.000000000               0.000000000               0.000852144               0.004172134               0.000000000              -0.000201962               0.001458018               0.001256056               0.000000000               0.000000000               0.000000000               0.000000000               0.000960912               0.004213197               0.000000000              -0.000166307               0.001459821               0.001293514               0.000000000               0.000000000               0.000000000               0.000000000               0.001173234               0.013292484               0.000000000              -0.001221595               0.004837982               0.003616387               0.000000000               0.000000000               0.000000000               0.000000000               0.001253649               0.010794578              -0.000000000              -0.000879201               0.003891224               0.003012022               0.000000000               0.000000000               0.000000000               0.000000000               0.001726528               0.008774935              -0.000000000              -0.000449418               0.003074755               0.002625337               0.000000000               0.000000000               0.000000000               0.000000000               0.001769573               0.007657185               0.000000000              -0.000293558               0.002650222               0.002356664               0.000000000               0.000000000               0.000000000               0.000000000               0.001658352               0.006987662               0.000000000              -0.000251575               0.002413056               0.002161481               0.000000000               0.000000000               0.000000000               0.000000000               0.001498885               0.006565661              -0.000000000              -0.000258625               0.002274740               0.002016115               0.000000000               0.000000000               0.000000000               0.000000000               0.001329747               0.006282493              -0.000000000              -0.000286656               0.002189695               0.001903039               0.000000000               0.000000000               0.000000000               0.000000000               0.001165514               0.006081357              -0.000000000              -0.000323101               0.002134799               0.001811698               0.000000000               0.000000000               0.000000000               0.000000000               0.001011568               0.005936473              -0.000000000              -0.000362720               0.002099711               0.001736991               0.000000000               0.000000000               0.000000000               0.000000000               0.000863424               0.005831001               0.000000000              -0.000405090               0.002078678               0.001673587               0.000000000               0.000000000               0.000000000               0.000000000               0.000713766               0.005747083               0.000000000              -0.000450722               0.002065916               0.001615194               0.000000000               0.000000000               0.000000000               0.000000000               0.000566155               0.005676121               0.000000000              -0.000497206               0.002057757               0.001560551               0.000000000               0.000000000               0.000000000               0.000000000               0.000428789               0.005613757               0.000000000              -0.000540922               0.002051541               0.001510619               0.000000000               0.000000000               0.000000000               0.000000000               0.000302580               0.005551214              -0.000000000              -0.000580433               0.002043864               0.001463431               0.000000000               0.000000000               0.000000000               0.000000000               0.000186829               0.005473709               0.000000000              -0.000614151               0.002029269               0.001415117               0.000000000               0.000000000               0.000000000               0.000000000               0.000086020               0.005368464              -0.000000000              -0.000638799               0.002002403               0.001363604               0.000000000               0.000000000               0.000000000               0.000000000               0.000031768               0.005281679              -0.000000000              -0.000648295               0.001976641               0.001328345               0.000000000               0.000000000               0.000000000               0.000000000               0.001235829               0.013047598              -0.000972229              -0.001167511               0.004738326               0.003570815               0.000000000               0.000000000               0.000000000               0.000000000               0.001260128               0.010625300              -0.000580032              -0.000855612               0.003826935               0.002971323               0.000000000               0.000000000               0.000000000               0.000000000               0.001673235               0.008689702              -0.000179690              -0.000458748               0.003049454               0.002590706               0.000000000               0.000000000               0.000000000               0.000000000               0.001690017               0.007616964               0.000001242              -0.000318363               0.002645084               0.002326720               0.000000000               0.000000000               0.000000000               0.000000000               0.001569670               0.006970417               0.000085155              -0.000282675               0.002417674               0.002134999               0.000000000               0.000000000               0.000000000               0.000000000               0.001409630               0.006559365               0.000122786              -0.000291309               0.002283536               0.001992227               0.000000000               0.000000000               0.000000000               0.000000000               0.001244364               0.006282982               0.000135203              -0.000318735               0.002200552               0.001881816               0.000000000               0.000000000               0.000000000               0.000000000               0.001086320               0.006085852               0.000137040              -0.000353361               0.002146384               0.001793023               0.000000000               0.000000000               0.000000000               0.000000000               0.000937697               0.005941056               0.000136087              -0.000390995               0.002110664               0.001719669               0.000000000               0.000000000               0.000000000               0.000000000               0.000793395               0.005830492               0.000132512              -0.000431287               0.002087240               0.001655953               0.000000000               0.000000000               0.000000000               0.000000000               0.000650989               0.005741908               0.000126382              -0.000473616               0.002071822               0.001598206               0.000000000               0.000000000               0.000000000               0.000000000               0.000514643               0.005667113               0.000119855              -0.000515397               0.002060818               0.001545421               0.000000000               0.000000000               0.000000000               0.000000000               0.000388843               0.005598938               0.000112693              -0.000554050               0.002050977               0.001496928               0.000000000               0.000000000               0.000000000               0.000000000               0.000275252               0.005530510               0.000100218              -0.000588093               0.002039516               0.001451423               0.000000000               0.000000000               0.000000000               0.000000000               0.000172473               0.005451049               0.000078180              -0.000616702               0.002022566               0.001405863               0.000000000               0.000000000               0.000000000               0.000000000               0.000080202               0.005350304               0.000044350              -0.000638711               0.001996320               0.001357610               0.000000000               0.000000000               0.000000000               0.000000000               0.000029757               0.005271963               0.000026449              -0.000647835               0.001973248               0.001325413               0.000000000               0.000000000               0.000000000               0.000000000               0.001400741               0.012347790              -0.001825849              -0.001018194               0.004455287               0.003437092               0.000000000               0.000000000               0.000000000               0.000000000               0.001266731               0.010145519              -0.001089948              -0.000793164               0.003646194               0.002853030               0.000000000               0.000000000               0.000000000               0.000000000               0.001510454               0.008448025              -0.000345440              -0.000489582               0.002979174               0.002489592               0.000000000               0.000000000               0.000000000               0.000000000               0.001460686               0.007498952              -0.000017918              -0.000389611               0.002629496               0.002239885               0.000000000               0.000000000               0.000000000               0.000000000               0.001323276               0.006918351               0.000131233              -0.000368564               0.002428949               0.002060384               0.000000000               0.000000000               0.000000000               0.000000000               0.001169003               0.006537489               0.000198096              -0.000378809               0.002305411               0.001926602               0.000000000               0.000000000               0.000000000               0.000000000               0.001017992               0.006273236               0.000221496              -0.000402407               0.002225193               0.001822787               0.000000000               0.000000000               0.000000000               0.000000000               0.000873896               0.006079735               0.000225173              -0.000432255               0.002170643               0.001738388               0.000000000               0.000000000               0.000000000               0.000000000               0.000739486               0.005932552               0.000223429              -0.000464261               0.002132251               0.001667990               0.000000000               0.000000000               0.000000000               0.000000000               0.000612494               0.005818123               0.000218334              -0.000497579               0.002105214               0.001607636               0.000000000               0.000000000               0.000000000               0.000000000               0.000492410               0.005723564               0.000209710              -0.000530791               0.002084766               0.001553975               0.000000000               0.000000000               0.000000000               0.000000000               0.000381618               0.005638552               0.000198444              -0.000561711               0.002066736               0.001505025               0.000000000               0.000000000               0.000000000               0.000000000               0.000281688               0.005558086               0.000184577              -0.000589126               0.002049052               0.001459926               0.000000000               0.000000000               0.000000000               0.000000000               0.000196864               0.005478835               0.000162342              -0.000611029               0.002029936               0.001418908               0.000000000               0.000000000               0.000000000               0.000000000               0.000123341               0.005396226               0.000124793              -0.000628274               0.002008149               0.001379875               0.000000000               0.000000000               0.000000000               0.000000000               0.000056166               0.005309260               0.000070280              -0.000642594               0.001983934               0.001341340               0.000000000               0.000000000               0.000000000               0.000000000               0.000019854               0.005252478               0.000041539              -0.000649113               0.001967179               0.001318067               0.000000000               0.000000000               0.000000000               0.000000000               0.001609333               0.011278496              -0.002473756              -0.000806312               0.004028231               0.003221919               0.000000000               0.000000000               0.000000000               0.000000000               0.001252253               0.009423477              -0.001483811              -0.000708339               0.003377240               0.002668902               0.000000000               0.000000000               0.000000000               0.000000000               0.001254534               0.008082113              -0.000492359              -0.000539813               0.002873948               0.002334136               0.000000000               0.000000000               0.000000000               0.000000000               0.001120343               0.007309199              -0.000071164              -0.000493520               0.002600882               0.002107362               0.000000000               0.000000000               0.000000000               0.000000000               0.000967745               0.006816263               0.000114319              -0.000489127               0.002435108               0.001945980               0.000000000               0.000000000               0.000000000               0.000000000               0.000828062               0.006473806               0.000194298              -0.000498701               0.002324147               0.001825446               0.000000000               0.000000000               0.000000000               0.000000000               0.000702972               0.006220206               0.000224508              -0.000513910               0.002244684               0.001730774               0.000000000               0.000000000               0.000000000               0.000000000               0.000587723               0.006029390               0.000232342              -0.000533276               0.002187535               0.001654259               0.000000000               0.000000000               0.000000000               0.000000000               0.000483950               0.005885299               0.000235367              -0.000554180               0.002146473               0.001592294               0.000000000               0.000000000               0.000000000               0.000000000               0.000386906               0.005770993               0.000234663              -0.000576283               0.002115739               0.001539457               0.000000000               0.000000000               0.000000000               0.000000000               0.000297045               0.005670296               0.000226025              -0.000597394               0.002089211               0.001491818               0.000000000               0.000000000               0.000000000               0.000000000               0.000221099               0.005577876               0.000212589              -0.000614321               0.002064047               0.001449726               0.000000000               0.000000000               0.000000000               0.000000000               0.000158904               0.005490513               0.000195967              -0.000626724               0.002039060               0.001412337               0.000000000               0.000000000               0.000000000               0.000000000               0.000109045               0.005406915               0.000168727              -0.000634971               0.002013944               0.001378973               0.000000000               0.000000000               0.000000000               0.000000000               0.000069293               0.005329915               0.000126201              -0.000640253               0.001990038               0.001349785               0.000000000               0.000000000               0.000000000               0.000000000               0.000032927               0.005266172               0.000070026              -0.000645922               0.001970681               0.001324758               0.000000000               0.000000000               0.000000000               0.000000000               0.000013519               0.005235633               0.000039879              -0.000649383               0.001961655               0.001312272               0.000000000               0.000000000               0.000000000               0.000000000               0.001793052               0.009950922              -0.002872225              -0.000571472               0.003507431               0.002935959               0.000000000               0.000000000               0.000000000               0.000000000               0.001197529               0.008542006              -0.001749245              -0.000618677               0.003053532               0.002434855               0.000000000               0.000000000               0.000000000               0.000000000               0.000941713               0.007628706              -0.000634209              -0.000600445               0.002743025               0.002142580               0.000000000               0.000000000               0.000000000               0.000000000               0.000733201               0.007050275              -0.000177926              -0.000606333               0.002552179               0.001945846               0.000000000               0.000000000               0.000000000               0.000000000               0.000576933               0.006646763               0.000018877              -0.000614494               0.002420397               0.001805903               0.000000000               0.000000000               0.000000000               0.000000000               0.000464450               0.006345573               0.000104857              -0.000619026               0.002321512               0.001702486               0.000000000               0.000000000               0.000000000               0.000000000               0.000379057               0.006112128               0.000144589              -0.000621868               0.002244645               0.001622777               0.000000000               0.000000000               0.000000000               0.000000000               0.000304839               0.005935302               0.000166010              -0.000627597               0.002187613               0.001560017               0.000000000               0.000000000               0.000000000               0.000000000               0.000241612               0.005798541               0.000179572              -0.000634212               0.002144232               0.001510020               0.000000000               0.000000000               0.000000000               0.000000000               0.000182942               0.005679435               0.000185334              -0.000641325               0.002106901               0.001465576               0.000000000               0.000000000               0.000000000               0.000000000               0.000128115               0.005571360               0.000180994              -0.000648375               0.002073227               0.001424851               0.000000000               0.000000000               0.000000000               0.000000000               0.000087262               0.005473287               0.000169946              -0.000651436               0.002041556               0.001390120               0.000000000               0.000000000               0.000000000               0.000000000               0.000061026               0.005383871               0.000153590              -0.000650097               0.002011305               0.001361207               0.000000000               0.000000000               0.000000000               0.000000000               0.000043697               0.005304414               0.000127096              -0.000646664               0.001983675               0.001337011               0.000000000               0.000000000               0.000000000               0.000000000               0.000031611               0.005239044               0.000090272              -0.000643025               0.001960672               0.001317647               0.000000000               0.000000000               0.000000000               0.000000000               0.000016543               0.005193925               0.000047725              -0.000643035               0.001945636               0.001302601               0.000000000               0.000000000               0.000000000               0.000000000               0.000006758               0.005176437               0.000025847              -0.000644519               0.001940302               0.001295783               0.000000000               0.000000000               0.000000000               0.000000000               0.001892222               0.008497598              -0.003017282              -0.000352619               0.002950043               0.002597424               0.000000000               0.000000000               0.000000000               0.000000000               0.001092350               0.007590793              -0.001894760              -0.000539218               0.002709978               0.002170760               0.000000000               0.000000000               0.000000000               0.000000000               0.000607439               0.007130379              -0.000780926              -0.000663506               0.002597938               0.001934432               0.000000000               0.000000000               0.000000000               0.000000000               0.000358174               0.006738738              -0.000332344              -0.000708025               0.002482232               0.001774207               0.000000000               0.000000000               0.000000000               0.000000000               0.000222593               0.006423864              -0.000135079              -0.000719509               0.002381103               0.001661594               0.000000000               0.000000000               0.000000000               0.000000000               0.000150397               0.006167721              -0.000039989              -0.000714565               0.002294075               0.001579510               0.000000000               0.000000000               0.000000000               0.000000000               0.000111347               0.005965598               0.000015868              -0.000703943               0.002223160               0.001519217               0.000000000               0.000000000               0.000000000               0.000000000               0.000080638               0.005806716               0.000053308              -0.000695598               0.002167419               0.001471820               0.000000000               0.000000000               0.000000000               0.000000000               0.000052281               0.005668895               0.000077485              -0.000689005               0.002119281               0.001430276               0.000000000               0.000000000               0.000000000               0.000000000               0.000028961               0.005544999               0.000092761              -0.000682263               0.002075735               0.001393473               0.000000000               0.000000000               0.000000000               0.000000000               0.000013092               0.005433540               0.000097418              -0.000674281               0.002035922               0.001361641               0.000000000               0.000000000               0.000000000               0.000000000               0.000005088               0.005331139               0.000093553              -0.000664483               0.001998523               0.001334040               0.000000000               0.000000000               0.000000000               0.000000000               0.000003696               0.005239439               0.000085474              -0.000653542               0.001964309               0.001310767               0.000000000               0.000000000               0.000000000               0.000000000               0.000007973               0.005161796               0.000069396              -0.000642233               0.001934659               0.001292426               0.000000000               0.000000000               0.000000000               0.000000000               0.000012032               0.005100192               0.000047290              -0.000633010               0.001911050               0.001278040               0.000000000               0.000000000               0.000000000               0.000000000               0.000007552               0.005052960               0.000024271              -0.000628786               0.001893898               0.001265112               0.000000000               0.000000000               0.000000000               0.000000000              -0.000000616               0.005026897               0.000014401              -0.000628592               0.001885146               0.001256555               0.000000000               0.000000000               0.000000000               0.000000000               0.001863170               0.007046098              -0.002941548              -0.000182077               0.002409367               0.002227290               0.000000000               0.000000000               0.000000000               0.000000000               0.000938910               0.006651481              -0.001939493              -0.000479345               0.002376919               0.001897575               0.000000000               0.000000000               0.000000000               0.000000000               0.000289761               0.006624161              -0.000930997              -0.000719358               0.002447818               0.001728459               0.000000000               0.000000000               0.000000000               0.000000000               0.000041221               0.006400752              -0.000514241              -0.000784634               0.002395107               0.001610473               0.000000000               0.000000000               0.000000000               0.000000000              -0.000051684               0.006166049              -0.000315745              -0.000790136               0.002318708               0.001528572               0.000000000               0.000000000               0.000000000               0.000000000              -0.000072733               0.005958144              -0.000208445              -0.000772041               0.002243375               0.001471334               0.000000000               0.000000000               0.000000000               0.000000000              -0.000070571               0.005785735              -0.000135494              -0.000749679               0.002178452               0.001428773               0.000000000               0.000000000               0.000000000               0.000000000              -0.000069304               0.005636733              -0.000081809              -0.000730579               0.002122419               0.001391840               0.000000000               0.000000000               0.000000000               0.000000000              -0.000066187               0.005502700              -0.000042380              -0.000712656               0.002071767               0.001359111               0.000000000               0.000000000               0.000000000               0.000000000              -0.000058451               0.005380653              -0.000011583              -0.000694499               0.002025033               0.001330534               0.000000000               0.000000000               0.000000000               0.000000000              -0.000047216               0.005265482               0.000008513              -0.000675890               0.001980440               0.001304550               0.000000000               0.000000000               0.000000000               0.000000000              -0.000033963               0.005159497               0.000018706              -0.000657672               0.001939039               0.001281367               0.000000000               0.000000000               0.000000000               0.000000000              -0.000020198               0.005063893               0.000025009              -0.000640559               0.001901467               0.001260908               0.000000000               0.000000000               0.000000000               0.000000000              -0.000008516               0.004980081               0.000026189              -0.000625702               0.001868578               0.001242876               0.000000000               0.000000000               0.000000000               0.000000000              -0.000003404               0.004909405               0.000021655              -0.000614951               0.001841435               0.001226485               0.000000000               0.000000000               0.000000000               0.000000000              -0.000002007               0.004848311               0.000014347              -0.000606790               0.001818351               0.001211561               0.000000000               0.000000000               0.000000000               0.000000000              -0.000007496               0.004809075               0.000013671              -0.000603944               0.001804324               0.001200380               0.000000000               0.000000000               0.000000000               0.000000000               0.001707917               0.005686996              -0.002691445              -0.000070409               0.001919115               0.001848706               0.000000000               0.000000000               0.000000000               0.000000000               0.000744724               0.005780168              -0.001907210              -0.000443250               0.002074453               0.001631203               0.000000000               0.000000000               0.000000000               0.000000000               0.000024307               0.006123430              -0.001084500              -0.000756312               0.002293227               0.001536914               0.000000000               0.000000000               0.000000000               0.000000000              -0.000183336               0.006043537              -0.000707565              -0.000824191               0.002289223               0.001465031               0.000000000               0.000000000               0.000000000               0.000000000              -0.000223758               0.005881785              -0.000501371              -0.000819130               0.002233619               0.001414488               0.000000000               0.000000000               0.000000000               0.000000000              -0.000200798               0.005721417              -0.000375488              -0.000790474               0.002170611               0.001380137               0.000000000               0.000000000               0.000000000               0.000000000              -0.000168239               0.005577845              -0.000282563              -0.000760318               0.002112702               0.001352384               0.000000000               0.000000000               0.000000000               0.000000000              -0.000141331               0.005445294              -0.000207803              -0.000733659               0.002059633               0.001325974               0.000000000               0.000000000               0.000000000               0.000000000              -0.000115150               0.005320504              -0.000148525              -0.000708243               0.002009564               0.001301322               0.000000000               0.000000000               0.000000000               0.000000000              -0.000090960               0.005196406              -0.000099166              -0.000683659               0.001960004               0.001276345               0.000000000               0.000000000               0.000000000               0.000000000              -0.000065729               0.005075642              -0.000060299              -0.000659102               0.001911564               0.001252462               0.000000000               0.000000000               0.000000000               0.000000000              -0.000045486               0.004961583              -0.000031411              -0.000637254               0.001866262               0.001229009               0.000000000               0.000000000               0.000000000               0.000000000              -0.000032423               0.004857228              -0.000009432              -0.000619311               0.001825497               0.001206186               0.000000000               0.000000000               0.000000000               0.000000000              -0.000025598               0.004763243               0.000005990              -0.000605003               0.001789400               0.001184396               0.000000000               0.000000000               0.000000000               0.000000000              -0.000020219               0.004680773               0.000013298              -0.000592677               0.001757801               0.001165124               0.000000000               0.000000000               0.000000000               0.000000000              -0.000012972               0.004607663               0.000012715              -0.000580821               0.001729479               0.001148658               0.000000000               0.000000000               0.000000000               0.000000000              -0.000013277               0.004561822               0.000013842              -0.000575205               0.001712327               0.001137122               0.000000000               0.000000000               0.000000000               0.000000000               0.001476992               0.004514932              -0.002330748              -0.000010498               0.001508461               0.001497963               0.000000000               0.000000000               0.000000000               0.000000000               0.000562654               0.005001705              -0.001840655              -0.000414219               0.001805290               0.001391072               0.000000000               0.000000000               0.000000000               0.000000000              -0.000152280               0.005652622              -0.001261883              -0.000763681               0.002138749               0.001375067               0.000000000               0.000000000               0.000000000               0.000000000              -0.000306342               0.005716770              -0.000916931              -0.000829473               0.002182062               0.001352589               0.000000000               0.000000000               0.000000000               0.000000000              -0.000306844               0.005636402              -0.000694813              -0.000819615               0.002151987               0.001332372               0.000000000               0.000000000               0.000000000               0.000000000              -0.000257272               0.005525309              -0.000540930              -0.000787139               0.002104131               0.001316992               0.000000000               0.000000000               0.000000000               0.000000000              -0.000207108               0.005414707              -0.000424068              -0.000754502               0.002056385               0.001301883               0.000000000               0.000000000               0.000000000               0.000000000              -0.000166479               0.005305770              -0.000330030              -0.000725649               0.002010455               0.001284806               0.000000000               0.000000000               0.000000000               0.000000000              -0.000123628               0.005190338              -0.000252935              -0.000695151               0.001961812               0.001266661               0.000000000               0.000000000               0.000000000               0.000000000              -0.000087258               0.005065303              -0.000186314              -0.000665883               0.001910378               0.001244495               0.000000000               0.000000000               0.000000000               0.000000000              -0.000056066               0.004938072              -0.000129713              -0.000638282               0.001858768               0.001220486               0.000000000               0.000000000               0.000000000               0.000000000              -0.000036795               0.004813565              -0.000081650              -0.000615492               0.001809670               0.001194177               0.000000000               0.000000000               0.000000000               0.000000000              -0.000034411               0.004697054              -0.000042762              -0.000600034               0.001765680               0.001165646               0.000000000               0.000000000               0.000000000               0.000000000              -0.000044491               0.004589147              -0.000014621              -0.000590326               0.001726476               0.001136149               0.000000000               0.000000000               0.000000000               0.000000000              -0.000055385               0.004490342               0.000001819              -0.000582061               0.001690786               0.001108725               0.000000000               0.000000000               0.000000000               0.000000000              -0.000056250               0.004402815               0.000006661              -0.000571444               0.001658072               0.001086628               0.000000000               0.000000000               0.000000000               0.000000000              -0.000052109               0.004356025               0.000007299              -0.000564043               0.001640008               0.001075965               0.000000000               0.000000000               0.000000000               0.000000000               0.001149022               0.003400024              -0.001923714               0.000005878               0.001131370               0.001137247               0.000000000               0.000000000               0.000000000               0.000000000               0.000430563               0.004113642              -0.001759817              -0.000352745               0.001488781               0.001136036               0.000000000               0.000000000               0.000000000               0.000000000              -0.000206295               0.004984507              -0.001463996              -0.000700423               0.001894960               0.001194537               0.000000000               0.000000000               0.000000000               0.000000000              -0.000334775               0.005233698              -0.001161949              -0.000779751               0.002004465               0.001224714               0.000000000               0.000000000               0.000000000               0.000000000              -0.000328281               0.005276483              -0.000923765              -0.000782664               0.002019698               0.001237034               0.000000000               0.000000000               0.000000000               0.000000000              -0.000278554               0.005245044              -0.000739495              -0.000760087               0.002001693               0.001241606               0.000000000               0.000000000               0.000000000               0.000000000              -0.000224870               0.005193057              -0.000595586              -0.000733457               0.001975487               0.001242031               0.000000000               0.000000000               0.000000000               0.000000000              -0.000181734               0.005130796              -0.000483117              -0.000709498               0.001946747               0.001237249               0.000000000               0.000000000               0.000000000               0.000000000              -0.000139864               0.005047946              -0.000390770              -0.000683440               0.001910445               0.001227005               0.000000000               0.000000000               0.000000000               0.000000000              -0.000098081               0.004947505              -0.000310124              -0.000655217               0.001867557               0.001212341               0.000000000               0.000000000               0.000000000               0.000000000              -0.000065123               0.004835125              -0.000235489              -0.000628810               0.001821296               0.001192485               0.000000000               0.000000000               0.000000000               0.000000000              -0.000045853               0.004719319              -0.000163725              -0.000607108               0.001775460               0.001168352               0.000000000               0.000000000               0.000000000               0.000000000              -0.000044626               0.004606651              -0.000101256              -0.000592565               0.001733057               0.001140492               0.000000000               0.000000000               0.000000000               0.000000000              -0.000061929               0.004498044              -0.000052545              -0.000585478               0.001694492               0.001109015               0.000000000               0.000000000               0.000000000               0.000000000              -0.000089905               0.004399930              -0.000019919              -0.000583704               0.001661197               0.001077492               0.000000000               0.000000000               0.000000000               0.000000000              -0.000118558               0.004308281              -0.000003368              -0.000582993               0.001630410               0.001047418               0.000000000               0.000000000               0.000000000               0.000000000              -0.000131620               0.004259384               0.000001778              -0.000581779               0.001613707               0.001031928               0.000000000               0.000000000               0.000000000               0.000000000               0.000672495               0.002368978              -0.001486679              -0.000043939               0.000804297               0.000760358               0.000000000               0.000000000               0.000000000               0.000000000               0.000282496               0.003229434              -0.001630287              -0.000297744               0.001175715               0.000877970               0.000000000               0.000000000               0.000000000               0.000000000              -0.000188061               0.004237078              -0.001619321              -0.000600157               0.001612397               0.001012240               0.000000000               0.000000000               0.000000000               0.000000000              -0.000293853               0.004660740              -0.001395648              -0.000692786               0.001784493               0.001091706               0.000000000               0.000000000               0.000000000               0.000000000              -0.000293343               0.004838635              -0.001163658              -0.000714832               0.001851139               0.001136307               0.000000000               0.000000000               0.000000000               0.000000000              -0.000256281               0.004908791              -0.000960406              -0.000709703               0.001872815               0.001163112               0.000000000               0.000000000               0.000000000               0.000000000              -0.000208626               0.004933514              -0.000792721              -0.000694923               0.001876129               0.001181206               0.000000000               0.000000000               0.000000000               0.000000000              -0.000165479               0.004928178              -0.000664030              -0.000678075               0.001868735               0.001190659               0.000000000               0.000000000               0.000000000               0.000000000              -0.000128534               0.004892596              -0.000561518              -0.000659773               0.001850773               0.001191000               0.000000000               0.000000000               0.000000000               0.000000000              -0.000089347               0.004831767              -0.000470483              -0.000637475               0.001823064               0.001185590               0.000000000               0.000000000               0.000000000               0.000000000              -0.000058381               0.004749259              -0.000381299              -0.000615549               0.001788253               0.001172705               0.000000000               0.000000000               0.000000000               0.000000000              -0.000037973               0.004657187              -0.000292831              -0.000596387               0.001751176               0.001154789               0.000000000               0.000000000               0.000000000               0.000000000              -0.000032370               0.004560909              -0.000208851              -0.000582251               0.001714371               0.001132120               0.000000000               0.000000000               0.000000000               0.000000000              -0.000049386               0.004465466              -0.000133003              -0.000576701               0.001680708               0.001104006               0.000000000               0.000000000               0.000000000               0.000000000              -0.000089256               0.004378557              -0.000071479              -0.000580789               0.001653101               0.001072312               0.000000000               0.000000000               0.000000000               0.000000000              -0.000149547               0.004296182              -0.000026283              -0.000593102               0.001629747               0.001036645               0.000000000               0.000000000               0.000000000               0.000000000              -0.000194698               0.004247763              -0.000003424              -0.000603981               0.001617234               0.001013253               0.000000000               0.000000000               0.000000000               0.000000000               0.000085896               0.001492335              -0.001043730              -0.000154332               0.000548883               0.000394552               0.000000000               0.000000000               0.000000000               0.000000000               0.000078379               0.002391549              -0.001424962              -0.000269552               0.000887025               0.000617473               0.000000000               0.000000000               0.000000000               0.000000000              -0.000138784               0.003415508              -0.001653992              -0.000478983               0.001298151               0.000819169               0.000000000               0.000000000               0.000000000               0.000000000              -0.000188333               0.003963132              -0.001532151              -0.000566016               0.001509702               0.000943686               0.000000000               0.000000000               0.000000000               0.000000000              -0.000183732               0.004270918              -0.001336132              -0.000602763               0.001624546               0.001021782               0.000000000               0.000000000               0.000000000               0.000000000              -0.000159233               0.004450605              -0.001139481              -0.000616037               0.001688866               0.001072829               0.000000000               0.000000000               0.000000000               0.000000000              -0.000124363               0.004560144              -0.000966518              -0.000616653               0.001725584               0.001108931               0.000000000               0.000000000               0.000000000               0.000000000              -0.000089566               0.004627319              -0.000827349              -0.000612001               0.001746425               0.001134424               0.000000000               0.000000000               0.000000000               0.000000000              -0.000061525               0.004655704              -0.000717253              -0.000605034               0.001753564               0.001148530               0.000000000               0.000000000               0.000000000               0.000000000              -0.000035026               0.004650513              -0.000619127              -0.000594447               0.001748304               0.001153857               0.000000000               0.000000000               0.000000000               0.000000000              -0.000010788               0.004617745              -0.000522983              -0.000581262               0.001732987               0.001151725               0.000000000               0.000000000               0.000000000               0.000000000               0.000007394               0.004561612              -0.000428948              -0.000567428               0.001709665               0.001142237               0.000000000               0.000000000               0.000000000               0.000000000               0.000015213               0.004492685              -0.000333539              -0.000555880               0.001682840               0.001126960               0.000000000               0.000000000               0.000000000               0.000000000               0.000005437               0.004422481              -0.000237747              -0.000550770               0.001657735               0.001106966               0.000000000               0.000000000               0.000000000               0.000000000              -0.000032298               0.004354742              -0.000147445              -0.000556453               0.001637051               0.001080597               0.000000000               0.000000000               0.000000000               0.000000000              -0.000102997               0.004288320              -0.000067209              -0.000574663               0.001620980               0.001046317               0.000000000               0.000000000               0.000000000               0.000000000              -0.000168248               0.004240726              -0.000022163              -0.000593182               0.001611289               0.001018106               0.000000000               0.000000000               0.000000000               0.000000000              -0.000566816               0.000818617              -0.000646149              -0.000314883               0.000377830               0.000062947               0.000000000               0.000000000               0.000000000               0.000000000              -0.000172929               0.001646760              -0.001163010              -0.000270694               0.000639145               0.000368451               0.000000000               0.000000000               0.000000000               0.000000000              -0.000077082               0.002584115              -0.001551957              -0.000351921               0.000978669               0.000626749               0.000000000               0.000000000               0.000000000               0.000000000              -0.000032853               0.003198060              -0.001527715              -0.000412078               0.001203368               0.000791290               0.000000000               0.000000000               0.000000000               0.000000000              -0.000007133               0.003608815              -0.001386341              -0.000453777               0.001354185               0.000900408               0.000000000               0.000000000               0.000000000               0.000000000               0.000013854               0.003887596              -0.001220585              -0.000480754               0.001456103               0.000975349               0.000000000               0.000000000               0.000000000               0.000000000               0.000034178               0.004084881              -0.001063042              -0.000497793               0.001527544               0.001029751               0.000000000               0.000000000               0.000000000               0.000000000               0.000053167               0.004232730              -0.000928312              -0.000509153               0.001580613               0.001071461               0.000000000               0.000000000               0.000000000               0.000000000               0.000067596               0.004334750              -0.000818543              -0.000516494               0.001617067               0.001100573               0.000000000               0.000000000               0.000000000               0.000000000               0.000080196               0.004395300              -0.000720415              -0.000519338               0.001638198               0.001118860               0.000000000               0.000000000               0.000000000               0.000000000               0.000095059               0.004423893              -0.000625395              -0.000517338               0.001647062               0.001129724               0.000000000               0.000000000               0.000000000               0.000000000               0.000108187               0.004417859              -0.000533277              -0.000511661               0.001643159               0.001131498               0.000000000               0.000000000               0.000000000               0.000000000               0.000117905               0.004391391              -0.000438162              -0.000504708               0.001632019               0.001127310               0.000000000               0.000000000               0.000000000               0.000000000               0.000119759               0.004357362              -0.000334852              -0.000499759               0.001619026               0.001119267               0.000000000               0.000000000               0.000000000               0.000000000               0.000100852               0.004318488              -0.000226639              -0.000501990               0.001606812               0.001104821               0.000000000               0.000000000               0.000000000               0.000000000               0.000046668               0.004274593              -0.000115308              -0.000516822               0.001597124               0.001080302               0.000000000               0.000000000               0.000000000               0.000000000              -0.000014186               0.004236699              -0.000051254              -0.000534906               0.001590521               0.001055615               0.000000000               0.000000000               0.000000000               0.000000000              -0.001213072               0.000345084              -0.000337476              -0.000498037               0.000281038              -0.000216999               0.000000000               0.000000000               0.000000000               0.000000000              -0.000442392               0.001032985              -0.000872333              -0.000295020               0.000442664               0.000147644               0.000000000               0.000000000               0.000000000               0.000000000              -0.000019347               0.001818045              -0.001312862              -0.000234511               0.000684179               0.000449667               0.000000000               0.000000000               0.000000000               0.000000000               0.000144942               0.002443448              -0.001357112              -0.000251078               0.000898167               0.000647088               0.000000000               0.000000000               0.000000000               0.000000000               0.000209244               0.002918662              -0.001272167              -0.000286367               0.001068333               0.000781966               0.000000000               0.000000000               0.000000000               0.000000000               0.000235628               0.003278929              -0.001149198              -0.000321506               0.001200134               0.000878628               0.000000000               0.000000000               0.000000000               0.000000000               0.000246860               0.003553636              -0.001022669              -0.000351632               0.001301744               0.000950112               0.000000000               0.000000000               0.000000000               0.000000000               0.000252431               0.003771719              -0.000909109              -0.000376803               0.001382828               0.001006025               0.000000000               0.000000000               0.000000000               0.000000000               0.000254468               0.003944899              -0.000813180              -0.000397686               0.001447515               0.001049829               0.000000000               0.000000000               0.000000000               0.000000000               0.000254767               0.004075567              -0.000726665              -0.000413907               0.001496478               0.001082570               0.000000000               0.000000000               0.000000000               0.000000000               0.000257703               0.004172236              -0.000642252              -0.000424890               0.001532361               0.001107471               0.000000000               0.000000000               0.000000000               0.000000000               0.000262139               0.004229798              -0.000560342              -0.000430422               0.001553393               0.001122971               0.000000000               0.000000000               0.000000000               0.000000000               0.000270531               0.004256842              -0.000475853              -0.000430655               0.001562485               0.001131830               0.000000000               0.000000000               0.000000000               0.000000000               0.000284156               0.004267852              -0.000381210              -0.000426922               0.001564910               0.001137988               0.000000000               0.000000000               0.000000000               0.000000000               0.000296463               0.004268056              -0.000273395              -0.000422332               0.001563448               0.001141116               0.000000000               0.000000000               0.000000000               0.000000000               0.000290100               0.004254410              -0.000147139              -0.000423013               0.001559127               0.001136114               0.000000000               0.000000000               0.000000000               0.000000000               0.000270023               0.004236873              -0.000075441              -0.000428349               0.001555060               0.001126711               0.000000000               0.000000000               0.000000000               0.000000000              -0.001766207               0.000044864              -0.000140786              -0.000667935               0.000237598              -0.000430337               0.000000000               0.000000000               0.000000000               0.000000000              -0.000684819               0.000578640              -0.000577043              -0.000329137               0.000302590              -0.000026547               0.000000000               0.000000000               0.000000000               0.000000000               0.000021674               0.001196431              -0.000952923              -0.000141427               0.000445948               0.000304521               0.000000000               0.000000000               0.000000000               0.000000000               0.000306689               0.001796184              -0.001021144              -0.000109516               0.000635227               0.000525711               0.000000000               0.000000000               0.000000000               0.000000000               0.000418678               0.002304149              -0.000980182              -0.000131015               0.000811713               0.000680698               0.000000000               0.000000000               0.000000000               0.000000000               0.000458424               0.002718867              -0.000901578              -0.000167950               0.000962263               0.000794313               0.000000000               0.000000000               0.000000000               0.000000000               0.000467819               0.003049591              -0.000814046              -0.000205767               0.001085109               0.000879342               0.000000000               0.000000000               0.000000000               0.000000000               0.000465333               0.003323440              -0.000734053              -0.000240930               0.001188112               0.000947182               0.000000000               0.000000000               0.000000000               0.000000000               0.000456764               0.003556339              -0.000664963              -0.000273255               0.001276520               0.001003264               0.000000000               0.000000000               0.000000000               0.000000000               0.000446264               0.003749461              -0.000600192              -0.000301333               0.001350252               0.001048919               0.000000000               0.000000000               0.000000000               0.000000000               0.000438558               0.003904942              -0.000535329              -0.000323658               0.001409520               0.001085862               0.000000000               0.000000000               0.000000000               0.000000000               0.000434656               0.004021119              -0.000472007              -0.000339643               0.001453574               0.001113931               0.000000000               0.000000000               0.000000000               0.000000000               0.000441059               0.004104460              -0.000407567              -0.000347660               0.001484026               0.001136367               0.000000000               0.000000000               0.000000000               0.000000000               0.000465104               0.004165553              -0.000335155              -0.000346279               0.001503930               0.001157651               0.000000000               0.000000000               0.000000000               0.000000000               0.000508855               0.004207852              -0.000247677              -0.000335160               0.001514323               0.001179163               0.000000000               0.000000000               0.000000000               0.000000000               0.000566603               0.004225973              -0.000137013              -0.000315770               0.001513900               0.001198130               0.000000000               0.000000000               0.000000000               0.000000000               0.000611172               0.004231903              -0.000076013              -0.000299797               0.001510553               0.001210755               0.000000000               0.000000000               0.000000000               0.000000000              -0.002142934              -0.000120259              -0.000043835              -0.000788567               0.000222768              -0.000565799               0.000000000               0.000000000               0.000000000               0.000000000              -0.000853969               0.000296717              -0.000287875              -0.000357328               0.000218013              -0.000139314               0.000000000               0.000000000               0.000000000               0.000000000               0.000043646               0.000788971              -0.000502110              -0.000082254               0.000290405               0.000208151               0.000000000               0.000000000               0.000000000               0.000000000               0.000418052               0.001358470              -0.000550000              -0.000013040               0.000457165               0.000444126               0.000000000               0.000000000               0.000000000               0.000000000               0.000571281               0.001873445              -0.000536652              -0.000019951               0.000631125               0.000611175               0.000000000               0.000000000               0.000000000               0.000000000               0.000625048               0.002313640              -0.000498897              -0.000054812               0.000789476               0.000734664               0.000000000               0.000000000               0.000000000               0.000000000               0.000635800               0.002684051              -0.000453931              -0.000097082               0.000927035               0.000829954               0.000000000               0.000000000               0.000000000               0.000000000               0.000628647               0.002998770              -0.000411868              -0.000139103               0.001045948               0.000906844               0.000000000               0.000000000               0.000000000               0.000000000               0.000610982               0.003267264              -0.000375490              -0.000179289               0.001148840               0.000969551               0.000000000               0.000000000               0.000000000               0.000000000               0.000591054               0.003499726              -0.000341701              -0.000215820               0.001238504               0.001022684               0.000000000               0.000000000               0.000000000               0.000000000               0.000576090               0.003693643              -0.000305941              -0.000245671               0.001313092               0.001067421               0.000000000               0.000000000               0.000000000               0.000000000               0.000569819               0.003846161              -0.000270156              -0.000267087               0.001371070               0.001103982               0.000000000               0.000000000               0.000000000               0.000000000               0.000578560               0.003967322              -0.000233719              -0.000278955               0.001415413               0.001136458               0.000000000               0.000000000               0.000000000               0.000000000               0.000610634               0.004064281              -0.000193152              -0.000279047               0.001447763               0.001168716               0.000000000               0.000000000               0.000000000               0.000000000               0.000674699               0.004140658              -0.000143676              -0.000264569               0.001468395               0.001203826               0.000000000               0.000000000               0.000000000               0.000000000               0.000778344               0.004191934              -0.000079017              -0.000232112               0.001474668               0.001242556               0.000000000               0.000000000               0.000000000               0.000000000               0.000872121               0.004220621              -0.000044334              -0.000200532               0.001473704               0.001273172               0.000000000               0.000000000               0.000000000               0.000000000               0.000000000               0.000000000               0.000000000               0.000000000               0.000000000               0.000000000               0.000000000               0.000000000               0.000000000               0.000000000               0.000000000               0.000000000               0.000000000               0.000000000               0.000000000               0.000000000               0.000000000               0.000000000               0.000000000               0.000000000               0.000000000               0.000000000               0.000000000               0.000000000               0.000000000               0.000000000               0.000000000               0.000000000               0.000000000               0.000000000               0.000000000               0.000000000               0.000000000               0.000000000               0.000000000               0.000000000               0.000000000               0.000000000               0.000000000               0.000000000               0.000000000               0.000000000               0.000000000               0.000000000               0.000000000               0.000000000               0.000000000               0.000000000               0.000000000               0.000000000               0.000000000               0.000000000               0.000000000               0.000000000               0.000000000               0.000000000               0.000000000               0.000000000               0.000000000               0.000000000               0.000000000               0.000000000               0.000000000               0.000000000               0.000000000               0.000000000               0.000000000               0.000000000               0.000000000               0.000000000               0.000000000               0.000000000               0.000000000               0.000000000               0.000000000               0.000000000               0.000000000               0.000000000               0.000000000               0.000000000               0.000000000               0.000000000               0.000000000               0.000000000               0.000000000               0.000000000               0.000000000               0.000000000               0.000000000               0.000000000               0.000000000               0.000000000               0.000000000               0.000000000               0.000000000               0.000000000               0.000000000               0.000000000               0.000000000               0.000000000               0.000000000               0.000000000               0.000000000               0.000000000               0.000000000               0.000000000               0.000000000               0.000000000               0.000000000               0.000000000               0.000000000               0.000000000               0.000000000               0.000000000               0.000000000               0.000000000               0.000000000               0.000000000               0.000000000               0.000000000               0.000000000               0.000000000               0.000000000               0.000000000               0.000000000               0.000000000               0.000000000               0.000000000               0.000000000               0.000000000               0.000000000               0.000000000               0.000000000               0.000000000               0.000000000               0.000000000               0.000000000               0.000000000               0.000000000               0.000000000               0.000000000               0.000000000               0.000000000               0.000000000               0.000000000               0.000000000               0.000000000               0.000000000               0.000000000               0.000000000               0.000000000               0.000000000               0.000000000               0.000000000               0.000000000               0.000000000               0.000000000               0.000000000               0.000000000               0.000000000               0.000000000               0.000000000               0.000000000               0.000000000               0.000000000               0.000000000               0.000000000               0.000000000               0.000000000               0.000000000               0.000000000               0.000000000               0.000000000               0.000000000               0.000000000               0.000000000               0.000000000               0.000000000               0.000000000               0.000000000               0.000000000               0.000000000               0.000000000               0.000000000               0.000000000               0.000000000               0.000000000               0.000000000               0.000000000               0.000000000               0.000000000               0.000000000               0.000000000               0.000000000               0.000000000               0.000000000               0.000000000               0.000000000               0.000000000               0.000000000               0.000000000               0.000000000               0.000000000               0.000000000               0.000000000               0.000000000               0.000000000               0.000000000               0.000000000               0.000000000               0.000000000               0.000000000               0.000000000               0.000000000               0.000000000               0.000000000               0.000000000               0.000000000               0.000000000               0.000000000               0.000000000               0.000000000               0.000000000               0.000000000               0.000000000               0.000000000               0.000000000               0.000000000               0.000000000               0.000000000               0.000000000               0.000000000               0.000000000               0.000000000               0.000000000               0.000000000               0.000000000               0.000000000               0.000000000               0.000000000               0.000000000               0.000000000               0.000000000               0.000000000               0.000000000               0.000000000               0.000000000               0.000000000               0.000000000               0.000000000               0.000000000               0.000000000               0.000000000               0.000000000               0.000000000               0.000000000               0.000000000               0.000000000               0.000000000               0.000000000               0.000000000               0.000000000               0.000000000               0.000000000               0.000000000               0.000000000               0.000000000               0.000000000               0.000000000               0.000000000               0.000000000               0.000000000               0.000000000               0.000000000               0.000000000               0.000000000               0.000000000               0.000000000               0.000000000               0.000000000               0.000000000               0.000000000               0.000000000               0.000000000               0.000000000               0.000000000               0.000000000               0.000000000               0.000000000               0.000000000               0.000000000               0.000000000               0.000000000               0.000000000               0.000000000               0.000000000               0.000000000               0.000000000               0.000000000               0.000000000               0.000000000               0.000000000               0.000000000               0.000000000               0.000000000               0.000000000               0.000000000               0.000000000               0.000000000               0.000000000               0.000000000               0.000000000               0.000000000               0.000000000               0.000000000               0.000000000               0.000000000               0.000000000               0.000000000               0.000000000               0.000000000               0.000000000               0.000000000               0.000000000               0.000000000               0.000000000               0.000000000               0.000000000               0.000000000               0.000000000               0.000000000               0.000000000               0.000000000               0.000000000               0.000000000               0.000000000               0.000000000               0.000000000               0.000000000               0.000000000               0.001235829               0.013047598               0.000972229              -0.001167511               0.004738326               0.003570815               0.000000000               0.000000000               0.000000000               0.000000000               0.001260128               0.010625300               0.000580032              -0.000855612               0.003826935               0.002971323               0.000000000               0.000000000               0.000000000               0.000000000               0.001673235               0.008689702               0.000179690              -0.000458748               0.003049454               0.002590706               0.000000000               0.000000000               0.000000000               0.000000000               0.001690017               0.007616964              -0.000001242              -0.000318363               0.002645084               0.002326720               0.000000000               0.000000000               0.000000000               0.000000000               0.001569670               0.006970417              -0.000085155              -0.000282675               0.002417674               0.002134999               0.000000000               0.000000000               0.000000000               0.000000000               0.001409630               0.006559365              -0.000122786              -0.000291309               0.002283536               0.001992227               0.000000000               0.000000000               0.000000000               0.000000000               0.001244364               0.006282982              -0.000135203              -0.000318735               0.002200552               0.001881816               0.000000000               0.000000000               0.000000000               0.000000000               0.001086320               0.006085852              -0.000137040              -0.000353361               0.002146384               0.001793023               0.000000000               0.000000000               0.000000000               0.000000000               0.000937697               0.005941056              -0.000136087              -0.000390995               0.002110664               0.001719669               0.000000000               0.000000000               0.000000000               0.000000000               0.000793395               0.005830492              -0.000132512              -0.000431287               0.002087240               0.001655953               0.000000000               0.000000000               0.000000000               0.000000000               0.000650989               0.005741908              -0.000126382              -0.000473616               0.002071822               0.001598206               0.000000000               0.000000000               0.000000000               0.000000000               0.000514643               0.005667113              -0.000119855              -0.000515397               0.002060818               0.001545421               0.000000000               0.000000000               0.000000000               0.000000000               0.000388843               0.005598938              -0.000112693              -0.000554050               0.002050977               0.001496928               0.000000000               0.000000000               0.000000000               0.000000000               0.000275252               0.005530510              -0.000100218              -0.000588093               0.002039516               0.001451423               0.000000000               0.000000000               0.000000000               0.000000000               0.000172473               0.005451049              -0.000078180              -0.000616702               0.002022566               0.001405863               0.000000000               0.000000000               0.000000000               0.000000000               0.000080202               0.005350304              -0.000044350              -0.000638711               0.001996320               0.001357610               0.000000000               0.000000000               0.000000000               0.000000000               0.000029757               0.005271963              -0.000026449              -0.000647835               0.001973248               0.001325413               0.000000000               0.000000000               0.000000000               0.000000000               0.001400741               0.012347790               0.001825849              -0.001018194               0.004455287               0.003437092               0.000000000               0.000000000               0.000000000               0.000000000               0.001266731               0.010145519               0.001089948              -0.000793164               0.003646194               0.002853030               0.000000000               0.000000000               0.000000000               0.000000000               0.001510454               0.008448025               0.000345440              -0.000489582               0.002979174               0.002489592               0.000000000               0.000000000               0.000000000               0.000000000               0.001460686               0.007498952               0.000017918              -0.000389611               0.002629496               0.002239885               0.000000000               0.000000000               0.000000000               0.000000000               0.001323276               0.006918351              -0.000131233              -0.000368564               0.002428949               0.002060384               0.000000000               0.000000000               0.000000000               0.000000000               0.001169003               0.006537489              -0.000198096              -0.000378809               0.002305411               0.001926602               0.000000000               0.000000000               0.000000000               0.000000000               0.001017992               0.006273236              -0.000221496              -0.000402407               0.002225193               0.001822787               0.000000000               0.000000000               0.000000000               0.000000000               0.000873896               0.006079735              -0.000225173              -0.000432255               0.002170643               0.001738388               0.000000000               0.000000000               0.000000000               0.000000000               0.000739486               0.005932552              -0.000223429              -0.000464261               0.002132251               0.001667990               0.000000000               0.000000000               0.000000000               0.000000000               0.000612494               0.005818123              -0.000218334              -0.000497579               0.002105214               0.001607636               0.000000000               0.000000000               0.000000000               0.000000000               0.000492410               0.005723564              -0.000209710              -0.000530791               0.002084766               0.001553975               0.000000000               0.000000000               0.000000000               0.000000000               0.000381618               0.005638552              -0.000198444              -0.000561711               0.002066736               0.001505025               0.000000000               0.000000000               0.000000000               0.000000000               0.000281688               0.005558086              -0.000184577              -0.000589126               0.002049052               0.001459926               0.000000000               0.000000000               0.000000000               0.000000000               0.000196864               0.005478835              -0.000162342              -0.000611029               0.002029936               0.001418908               0.000000000               0.000000000               0.000000000               0.000000000               0.000123341               0.005396226              -0.000124793              -0.000628274               0.002008149               0.001379875               0.000000000               0.000000000               0.000000000               0.000000000               0.000056166               0.005309260              -0.000070280              -0.000642594               0.001983934               0.001341340               0.000000000               0.000000000               0.000000000               0.000000000               0.000019854               0.005252478              -0.000041539              -0.000649113               0.001967179               0.001318067               0.000000000               0.000000000               0.000000000               0.000000000               0.001609333               0.011278496               0.002473756              -0.000806312               0.004028231               0.003221919               0.000000000               0.000000000               0.000000000               0.000000000               0.001252253               0.009423477               0.001483811              -0.000708339               0.003377240               0.002668902               0.000000000               0.000000000               0.000000000               0.000000000               0.001254534               0.008082113               0.000492359              -0.000539813               0.002873948               0.002334136               0.000000000               0.000000000               0.000000000               0.000000000               0.001120343               0.007309199               0.000071164              -0.000493520               0.002600882               0.002107362               0.000000000               0.000000000               0.000000000               0.000000000               0.000967745               0.006816263              -0.000114319              -0.000489127               0.002435108               0.001945980               0.000000000               0.000000000               0.000000000               0.000000000               0.000828062               0.006473806              -0.000194298              -0.000498701               0.002324147               0.001825446               0.000000000               0.000000000               0.000000000               0.000000000               0.000702972               0.006220206              -0.000224508              -0.000513910               0.002244684               0.001730774               0.000000000               0.000000000               0.000000000               0.000000000               0.000587723               0.006029390              -0.000232342              -0.000533276               0.002187535               0.001654259               0.000000000               0.000000000               0.000000000               0.000000000               0.000483950               0.005885299              -0.000235367              -0.000554180               0.002146473               0.001592294               0.000000000               0.000000000               0.000000000               0.000000000               0.000386906               0.005770993              -0.000234663              -0.000576283               0.002115739               0.001539457               0.000000000               0.000000000               0.000000000               0.000000000               0.000297045               0.005670296              -0.000226025              -0.000597394               0.002089211               0.001491818               0.000000000               0.000000000               0.000000000               0.000000000               0.000221099               0.005577876              -0.000212589              -0.000614321               0.002064047               0.001449726               0.000000000               0.000000000               0.000000000               0.000000000               0.000158904               0.005490513              -0.000195967              -0.000626724               0.002039060               0.001412337               0.000000000               0.000000000               0.000000000               0.000000000               0.000109045               0.005406915              -0.000168727              -0.000634971               0.002013944               0.001378973               0.000000000               0.000000000               0.000000000               0.000000000               0.000069293               0.005329915              -0.000126201              -0.000640253               0.001990038               0.001349785               0.000000000               0.000000000               0.000000000               0.000000000               0.000032927               0.005266172              -0.000070026              -0.000645922               0.001970681               0.001324758               0.000000000               0.000000000               0.000000000               0.000000000               0.000013519               0.005235633              -0.000039879              -0.000649383               0.001961655               0.001312272               0.000000000               0.000000000               0.000000000               0.000000000               0.001793052               0.009950922               0.002872225              -0.000571472               0.003507431               0.002935959               0.000000000               0.000000000               0.000000000               0.000000000               0.001197529               0.008542006               0.001749245              -0.000618677               0.003053532               0.002434855               0.000000000               0.000000000               0.000000000               0.000000000               0.000941713               0.007628706               0.000634209              -0.000600445               0.002743025               0.002142580               0.000000000               0.000000000               0.000000000               0.000000000               0.000733201               0.007050275               0.000177926              -0.000606333               0.002552179               0.001945846               0.000000000               0.000000000               0.000000000               0.000000000               0.000576933               0.006646763              -0.000018877              -0.000614494               0.002420397               0.001805903               0.000000000               0.000000000               0.000000000               0.000000000               0.000464450               0.006345573              -0.000104857              -0.000619026               0.002321512               0.001702486               0.000000000               0.000000000               0.000000000               0.000000000               0.000379057               0.006112128              -0.000144589              -0.000621868               0.002244645               0.001622777               0.000000000               0.000000000               0.000000000               0.000000000               0.000304839               0.005935302              -0.000166010              -0.000627597               0.002187613               0.001560017               0.000000000               0.000000000               0.000000000               0.000000000               0.000241612               0.005798541              -0.000179572              -0.000634212               0.002144232               0.001510020               0.000000000               0.000000000               0.000000000               0.000000000               0.000182942               0.005679435              -0.000185334              -0.000641325               0.002106901               0.001465576               0.000000000               0.000000000               0.000000000               0.000000000               0.000128115               0.005571360              -0.000180994              -0.000648375               0.002073227               0.001424851               0.000000000               0.000000000               0.000000000               0.000000000               0.000087262               0.005473287              -0.000169946              -0.000651436               0.002041556               0.001390120               0.000000000               0.000000000               0.000000000               0.000000000               0.000061026               0.005383871              -0.000153590              -0.000650097               0.002011305               0.001361207               0.000000000               0.000000000               0.000000000               0.000000000               0.000043697               0.005304414              -0.000127096              -0.000646664               0.001983675               0.001337011               0.000000000               0.000000000               0.000000000               0.000000000               0.000031611               0.005239044              -0.000090272              -0.000643025               0.001960672               0.001317647               0.000000000               0.000000000               0.000000000               0.000000000               0.000016543               0.005193925              -0.000047725              -0.000643035               0.001945636               0.001302601               0.000000000               0.000000000               0.000000000               0.000000000               0.000006758               0.005176437              -0.000025847              -0.000644519               0.001940302               0.001295783               0.000000000               0.000000000               0.000000000               0.000000000               0.001892222               0.008497598               0.003017282              -0.000352619               0.002950043               0.002597424               0.000000000               0.000000000               0.000000000               0.000000000               0.001092350               0.007590793               0.001894760              -0.000539218               0.002709978               0.002170760               0.000000000               0.000000000               0.000000000               0.000000000               0.000607439               0.007130379               0.000780926              -0.000663506               0.002597938               0.001934432               0.000000000               0.000000000               0.000000000               0.000000000               0.000358174               0.006738738               0.000332344              -0.000708025               0.002482232               0.001774207               0.000000000               0.000000000               0.000000000               0.000000000               0.000222593               0.006423864               0.000135079              -0.000719509               0.002381103               0.001661594               0.000000000               0.000000000               0.000000000               0.000000000               0.000150397               0.006167721               0.000039989              -0.000714565               0.002294075               0.001579510               0.000000000               0.000000000               0.000000000               0.000000000               0.000111347               0.005965598              -0.000015868              -0.000703943               0.002223160               0.001519217               0.000000000               0.000000000               0.000000000               0.000000000               0.000080638               0.005806716              -0.000053308              -0.000695598               0.002167419               0.001471820               0.000000000               0.000000000               0.000000000               0.000000000               0.000052281               0.005668895              -0.000077485              -0.000689005               0.002119281               0.001430276               0.000000000               0.000000000               0.000000000               0.000000000               0.000028961               0.005544999              -0.000092761              -0.000682263               0.002075735               0.001393473               0.000000000               0.000000000               0.000000000               0.000000000               0.000013092               0.005433540              -0.000097418              -0.000674281               0.002035922               0.001361641               0.000000000               0.000000000               0.000000000               0.000000000               0.000005088               0.005331139              -0.000093553              -0.000664483               0.001998523               0.001334040               0.000000000               0.000000000               0.000000000               0.000000000               0.000003696               0.005239439              -0.000085474              -0.000653542               0.001964309               0.001310767               0.000000000               0.000000000               0.000000000               0.000000000               0.000007973               0.005161796              -0.000069396              -0.000642233               0.001934659               0.001292426               0.000000000               0.000000000               0.000000000               0.000000000               0.000012032               0.005100192              -0.000047290              -0.000633010               0.001911050               0.001278040               0.000000000               0.000000000               0.000000000               0.000000000               0.000007552               0.005052960              -0.000024271              -0.000628786               0.001893898               0.001265112               0.000000000               0.000000000               0.000000000               0.000000000              -0.000000616               0.005026897              -0.000014401              -0.000628592               0.001885146               0.001256555               0.000000000               0.000000000               0.000000000               0.000000000               0.001863170               0.007046098               0.002941548              -0.000182077               0.002409367               0.002227290               0.000000000               0.000000000               0.000000000               0.000000000               0.000938910               0.006651481               0.001939493              -0.000479345               0.002376919               0.001897575               0.000000000               0.000000000               0.000000000               0.000000000               0.000289761               0.006624161               0.000930997              -0.000719358               0.002447818               0.001728459               0.000000000               0.000000000               0.000000000               0.000000000               0.000041221               0.006400752               0.000514241              -0.000784634               0.002395107               0.001610473               0.000000000               0.000000000               0.000000000               0.000000000              -0.000051684               0.006166049               0.000315745              -0.000790136               0.002318708               0.001528572               0.000000000               0.000000000               0.000000000               0.000000000              -0.000072733               0.005958144               0.000208445              -0.000772041               0.002243375               0.001471334               0.000000000               0.000000000               0.000000000               0.000000000              -0.000070571               0.005785735               0.000135494              -0.000749679               0.002178452               0.001428773               0.000000000               0.000000000               0.000000000               0.000000000              -0.000069304               0.005636733               0.000081809              -0.000730579               0.002122419               0.001391840               0.000000000               0.000000000               0.000000000               0.000000000              -0.000066187               0.005502700               0.000042380              -0.000712656               0.002071767               0.001359111               0.000000000               0.000000000               0.000000000               0.000000000              -0.000058451               0.005380653               0.000011583              -0.000694499               0.002025033               0.001330534               0.000000000               0.000000000               0.000000000               0.000000000              -0.000047216               0.005265482              -0.000008513              -0.000675890               0.001980440               0.001304550               0.000000000               0.000000000               0.000000000               0.000000000              -0.000033963               0.005159497              -0.000018706              -0.000657672               0.001939039               0.001281367               0.000000000               0.000000000               0.000000000               0.000000000              -0.000020198               0.005063893              -0.000025009              -0.000640559               0.001901467               0.001260908               0.000000000               0.000000000               0.000000000               0.000000000              -0.000008516               0.004980081              -0.000026189              -0.000625702               0.001868578               0.001242876               0.000000000               0.000000000               0.000000000               0.000000000              -0.000003404               0.004909405              -0.000021655              -0.000614951               0.001841435               0.001226485               0.000000000               0.000000000               0.000000000               0.000000000              -0.000002007               0.004848311              -0.000014347              -0.000606790               0.001818351               0.001211561               0.000000000               0.000000000               0.000000000               0.000000000              -0.000007496               0.004809075              -0.000013671              -0.000603944               0.001804324               0.001200380               0.000000000               0.000000000               0.000000000               0.000000000               0.001707917               0.005686996               0.002691445              -0.000070409               0.001919115               0.001848706               0.000000000               0.000000000               0.000000000               0.000000000               0.000744724               0.005780168               0.001907210              -0.000443250               0.002074453               0.001631203               0.000000000               0.000000000               0.000000000               0.000000000               0.000024307               0.006123430               0.001084500              -0.000756312               0.002293227               0.001536914               0.000000000               0.000000000               0.000000000               0.000000000              -0.000183336               0.006043537               0.000707565              -0.000824191               0.002289223               0.001465031               0.000000000               0.000000000               0.000000000               0.000000000              -0.000223758               0.005881785               0.000501371              -0.000819130               0.002233619               0.001414488               0.000000000               0.000000000               0.000000000               0.000000000              -0.000200798               0.005721417               0.000375488              -0.000790474               0.002170611               0.001380137               0.000000000               0.000000000               0.000000000               0.000000000              -0.000168239               0.005577845               0.000282563              -0.000760318               0.002112702               0.001352384               0.000000000               0.000000000               0.000000000               0.000000000              -0.000141331               0.005445294               0.000207803              -0.000733659               0.002059633               0.001325974               0.000000000               0.000000000               0.000000000               0.000000000              -0.000115150               0.005320504               0.000148525              -0.000708243               0.002009564               0.001301322               0.000000000               0.000000000               0.000000000               0.000000000              -0.000090960               0.005196406               0.000099166              -0.000683659               0.001960004               0.001276345               0.000000000               0.000000000               0.000000000               0.000000000              -0.000065729               0.005075642               0.000060299              -0.000659102               0.001911564               0.001252462               0.000000000               0.000000000               0.000000000               0.000000000              -0.000045486               0.004961583               0.000031411              -0.000637254               0.001866262               0.001229009               0.000000000               0.000000000               0.000000000               0.000000000              -0.000032423               0.004857228               0.000009432              -0.000619311               0.001825497               0.001206186               0.000000000               0.000000000               0.000000000               0.000000000              -0.000025598               0.004763243              -0.000005990              -0.000605003               0.001789400               0.001184396               0.000000000               0.000000000               0.000000000               0.000000000              -0.000020219               0.004680773              -0.000013298              -0.000592677               0.001757801               0.001165124               0.000000000               0.000000000               0.000000000               0.000000000              -0.000012972               0.004607663              -0.000012715              -0.000580821               0.001729479               0.001148658               0.000000000               0.000000000               0.000000000               0.000000000              -0.000013277               0.004561822              -0.000013842              -0.000575205               0.001712327               0.001137122               0.000000000               0.000000000               0.000000000               0.000000000               0.001476992               0.004514932               0.002330748              -0.000010498               0.001508461               0.001497963               0.000000000               0.000000000               0.000000000               0.000000000               0.000562654               0.005001705               0.001840655              -0.000414219               0.001805290               0.001391072               0.000000000               0.000000000               0.000000000               0.000000000              -0.000152280               0.005652622               0.001261883              -0.000763681               0.002138749               0.001375067               0.000000000               0.000000000               0.000000000               0.000000000              -0.000306342               0.005716770               0.000916931              -0.000829473               0.002182062               0.001352589               0.000000000               0.000000000               0.000000000               0.000000000              -0.000306844               0.005636402               0.000694813              -0.000819615               0.002151987               0.001332372               0.000000000               0.000000000               0.000000000               0.000000000              -0.000257272               0.005525309               0.000540930              -0.000787139               0.002104131               0.001316992               0.000000000               0.000000000               0.000000000               0.000000000              -0.000207108               0.005414707               0.000424068              -0.000754502               0.002056385               0.001301883               0.000000000               0.000000000               0.000000000               0.000000000              -0.000166479               0.005305770               0.000330030              -0.000725649               0.002010455               0.001284806               0.000000000               0.000000000               0.000000000               0.000000000              -0.000123628               0.005190338               0.000252935              -0.000695151               0.001961812               0.001266661               0.000000000               0.000000000               0.000000000               0.000000000              -0.000087258               0.005065303               0.000186314              -0.000665883               0.001910378               0.001244495               0.000000000               0.000000000               0.000000000               0.000000000              -0.000056066               0.004938072               0.000129713              -0.000638282               0.001858768               0.001220486               0.000000000               0.000000000               0.000000000               0.000000000              -0.000036795               0.004813565               0.000081650              -0.000615492               0.001809670               0.001194177               0.000000000               0.000000000               0.000000000               0.000000000              -0.000034411               0.004697054               0.000042762              -0.000600034               0.001765680               0.001165646               0.000000000               0.000000000               0.000000000               0.000000000              -0.000044491               0.004589147               0.000014621              -0.000590326               0.001726476               0.001136149               0.000000000               0.000000000               0.000000000               0.000000000              -0.000055385               0.004490342              -0.000001819              -0.000582061               0.001690786               0.001108725               0.000000000               0.000000000               0.000000000               0.000000000              -0.000056250               0.004402815              -0.000006661              -0.000571444               0.001658072               0.001086628               0.000000000               0.000000000               0.000000000               0.000000000              -0.000052109               0.004356025              -0.000007299              -0.000564043               0.001640008               0.001075965               0.000000000               0.000000000               0.000000000               0.000000000               0.001149022               0.003400024               0.001923714               0.000005878               0.001131370               0.001137247               0.000000000               0.000000000               0.000000000               0.000000000               0.000430563               0.004113642               0.001759817              -0.000352745               0.001488781               0.001136036               0.000000000               0.000000000               0.000000000               0.000000000              -0.000206295               0.004984507               0.001463996              -0.000700423               0.001894960               0.001194537               0.000000000               0.000000000               0.000000000               0.000000000              -0.000334775               0.005233698               0.001161949              -0.000779751               0.002004465               0.001224714               0.000000000               0.000000000               0.000000000               0.000000000              -0.000328281               0.005276483               0.000923765              -0.000782664               0.002019698               0.001237034               0.000000000               0.000000000               0.000000000               0.000000000              -0.000278554               0.005245044               0.000739495              -0.000760087               0.002001693               0.001241606               0.000000000               0.000000000               0.000000000               0.000000000              -0.000224870               0.005193057               0.000595586              -0.000733457               0.001975487               0.001242031               0.000000000               0.000000000               0.000000000               0.000000000              -0.000181734               0.005130796               0.000483117              -0.000709498               0.001946747               0.001237249               0.000000000               0.000000000               0.000000000               0.000000000              -0.000139864               0.005047946               0.000390770              -0.000683440               0.001910445               0.001227005               0.000000000               0.000000000               0.000000000               0.000000000              -0.000098081               0.004947505               0.000310124              -0.000655217               0.001867557               0.001212341               0.000000000               0.000000000               0.000000000               0.000000000              -0.000065123               0.004835125               0.000235489              -0.000628810               0.001821296               0.001192485               0.000000000               0.000000000               0.000000000               0.000000000              -0.000045853               0.004719319               0.000163725              -0.000607108               0.001775460               0.001168352               0.000000000               0.000000000               0.000000000               0.000000000              -0.000044626               0.004606651               0.000101256              -0.000592565               0.001733057               0.001140492               0.000000000               0.000000000               0.000000000               0.000000000              -0.000061929               0.004498044               0.000052545              -0.000585478               0.001694492               0.001109015               0.000000000               0.000000000               0.000000000               0.000000000              -0.000089905               0.004399930               0.000019919              -0.000583704               0.001661197               0.001077492               0.000000000               0.000000000               0.000000000               0.000000000              -0.000118558               0.004308281               0.000003368              -0.000582993               0.001630410               0.001047418               0.000000000               0.000000000               0.000000000               0.000000000              -0.000131620               0.004259384              -0.000001778              -0.000581779               0.001613707               0.001031928               0.000000000               0.000000000               0.000000000               0.000000000               0.000672495               0.002368978               0.001486679              -0.000043939               0.000804297               0.000760358               0.000000000               0.000000000               0.000000000               0.000000000               0.000282496               0.003229434               0.001630287              -0.000297744               0.001175715               0.000877970               0.000000000               0.000000000               0.000000000               0.000000000              -0.000188061               0.004237078               0.001619321              -0.000600157               0.001612397               0.001012240               0.000000000               0.000000000               0.000000000               0.000000000              -0.000293853               0.004660740               0.001395648              -0.000692786               0.001784493               0.001091706               0.000000000               0.000000000               0.000000000               0.000000000              -0.000293343               0.004838635               0.001163658              -0.000714832               0.001851139               0.001136307               0.000000000               0.000000000               0.000000000               0.000000000              -0.000256281               0.004908791               0.000960406              -0.000709703               0.001872815               0.001163112               0.000000000               0.000000000               0.000000000               0.000000000              -0.000208626               0.004933514               0.000792721              -0.000694923               0.001876129               0.001181206               0.000000000               0.000000000               0.000000000               0.000000000              -0.000165479               0.004928178               0.000664030              -0.000678075               0.001868735               0.001190659               0.000000000               0.000000000               0.000000000               0.000000000              -0.000128534               0.004892596               0.000561518              -0.000659773               0.001850773               0.001191000               0.000000000               0.000000000               0.000000000               0.000000000              -0.000089347               0.004831767               0.000470483              -0.000637475               0.001823064               0.001185590               0.000000000               0.000000000               0.000000000               0.000000000              -0.000058381               0.004749259               0.000381299              -0.000615549               0.001788253               0.001172705               0.000000000               0.000000000               0.000000000               0.000000000              -0.000037973               0.004657187               0.000292831              -0.000596387               0.001751176               0.001154789               0.000000000               0.000000000               0.000000000               0.000000000              -0.000032370               0.004560909               0.000208851              -0.000582251               0.001714371               0.001132120               0.000000000               0.000000000               0.000000000               0.000000000              -0.000049386               0.004465466               0.000133003              -0.000576701               0.001680708               0.001104006               0.000000000               0.000000000               0.000000000               0.000000000              -0.000089256               0.004378557               0.000071479              -0.000580789               0.001653101               0.001072312               0.000000000               0.000000000               0.000000000               0.000000000              -0.000149547               0.004296182               0.000026283              -0.000593102               0.001629747               0.001036645               0.000000000               0.000000000               0.000000000               0.000000000              -0.000194698               0.004247763               0.000003424              -0.000603981               0.001617234               0.001013253               0.000000000               0.000000000               0.000000000               0.000000000               0.000085896               0.001492335               0.001043730              -0.000154332               0.000548883               0.000394552               0.000000000               0.000000000               0.000000000               0.000000000               0.000078379               0.002391549               0.001424962              -0.000269552               0.000887025               0.000617473               0.000000000               0.000000000               0.000000000               0.000000000              -0.000138784               0.003415508               0.001653992              -0.000478983               0.001298151               0.000819169               0.000000000               0.000000000               0.000000000               0.000000000              -0.000188333               0.003963132               0.001532151              -0.000566016               0.001509702               0.000943686               0.000000000               0.000000000               0.000000000               0.000000000              -0.000183732               0.004270918               0.001336132              -0.000602763               0.001624546               0.001021782               0.000000000               0.000000000               0.000000000               0.000000000              -0.000159233               0.004450605               0.001139481              -0.000616037               0.001688866               0.001072829               0.000000000               0.000000000               0.000000000               0.000000000              -0.000124363               0.004560144               0.000966518              -0.000616653               0.001725584               0.001108931               0.000000000               0.000000000               0.000000000               0.000000000              -0.000089566               0.004627319               0.000827349              -0.000612001               0.001746425               0.001134424               0.000000000               0.000000000               0.000000000               0.000000000              -0.000061525               0.004655704               0.000717253              -0.000605034               0.001753564               0.001148530               0.000000000               0.000000000               0.000000000               0.000000000              -0.000035026               0.004650513               0.000619127              -0.000594447               0.001748304               0.001153857               0.000000000               0.000000000               0.000000000               0.000000000              -0.000010788               0.004617745               0.000522983              -0.000581262               0.001732987               0.001151725               0.000000000               0.000000000               0.000000000               0.000000000               0.000007394               0.004561612               0.000428948              -0.000567428               0.001709665               0.001142237               0.000000000               0.000000000               0.000000000               0.000000000               0.000015213               0.004492685               0.000333539              -0.000555880               0.001682840               0.001126960               0.000000000               0.000000000               0.000000000               0.000000000               0.000005437               0.004422481               0.000237747              -0.000550770               0.001657735               0.001106966               0.000000000               0.000000000               0.000000000               0.000000000              -0.000032298               0.004354742               0.000147445              -0.000556453               0.001637051               0.001080597               0.000000000               0.000000000               0.000000000               0.000000000              -0.000102997               0.004288320               0.000067209              -0.000574663               0.001620980               0.001046317               0.000000000               0.000000000               0.000000000               0.000000000              -0.000168248               0.004240726               0.000022163              -0.000593182               0.001611289               0.001018106               0.000000000               0.000000000               0.000000000               0.000000000              -0.000566816               0.000818617               0.000646149              -0.000314883               0.000377830               0.000062947               0.000000000               0.000000000               0.000000000               0.000000000              -0.000172929               0.001646760               0.001163010              -0.000270694               0.000639145               0.000368451               0.000000000               0.000000000               0.000000000               0.000000000              -0.000077082               0.002584115               0.001551957              -0.000351921               0.000978669               0.000626749               0.000000000               0.000000000               0.000000000               0.000000000              -0.000032853               0.003198060               0.001527715              -0.000412078               0.001203368               0.000791290               0.000000000               0.000000000               0.000000000               0.000000000              -0.000007133               0.003608815               0.001386341              -0.000453777               0.001354185               0.000900408               0.000000000               0.000000000               0.000000000               0.000000000               0.000013854               0.003887596               0.001220585              -0.000480754               0.001456103               0.000975349               0.000000000               0.000000000               0.000000000               0.000000000               0.000034178               0.004084881               0.001063042              -0.000497793               0.001527544               0.001029751               0.000000000               0.000000000               0.000000000               0.000000000               0.000053167               0.004232730               0.000928312              -0.000509153               0.001580613               0.001071461               0.000000000               0.000000000               0.000000000               0.000000000               0.000067596               0.004334750               0.000818543              -0.000516494               0.001617067               0.001100573               0.000000000               0.000000000               0.000000000               0.000000000               0.000080196               0.004395300               0.000720415              -0.000519338               0.001638198               0.001118860               0.000000000               0.000000000               0.000000000               0.000000000               0.000095059               0.004423893               0.000625395              -0.000517338               0.001647062               0.001129724               0.000000000               0.000000000               0.000000000               0.000000000               0.000108187               0.004417859               0.000533277              -0.000511661               0.001643159               0.001131498               0.000000000               0.000000000               0.000000000               0.000000000               0.000117905               0.004391391               0.000438162              -0.000504708               0.001632019               0.001127310               0.000000000               0.000000000               0.000000000               0.000000000               0.000119759               0.004357362               0.000334852              -0.000499759               0.001619026               0.001119267               0.000000000               0.000000000               0.000000000               0.000000000               0.000100852               0.004318488               0.000226639              -0.000501990               0.001606812               0.001104821               0.000000000               0.000000000               0.000000000               0.000000000               0.000046668               0.004274593               0.000115308              -0.000516822               0.001597124               0.001080302               0.000000000               0.000000000               0.000000000               0.000000000              -0.000014186               0.004236699               0.000051254              -0.000534906               0.001590521               0.001055615               0.000000000               0.000000000               0.000000000               0.000000000              -0.001213072               0.000345084               0.000337476              -0.000498037               0.000281038              -0.000216999               0.000000000               0.000000000               0.000000000               0.000000000              -0.000442392               0.001032985               0.000872333              -0.000295020               0.000442664               0.000147644               0.000000000               0.000000000               0.000000000               0.000000000              -0.000019347               0.001818045               0.001312862              -0.000234511               0.000684179               0.000449667               0.000000000               0.000000000               0.000000000               0.000000000               0.000144942               0.002443448               0.001357112              -0.000251078               0.000898167               0.000647088               0.000000000               0.000000000               0.000000000               0.000000000               0.000209244               0.002918662               0.001272167              -0.000286367               0.001068333               0.000781966               0.000000000               0.000000000               0.000000000               0.000000000               0.000235628               0.003278929               0.001149198              -0.000321506               0.001200134               0.000878628               0.000000000               0.000000000               0.000000000               0.000000000               0.000246860               0.003553636               0.001022669              -0.000351632               0.001301744               0.000950112               0.000000000               0.000000000               0.000000000               0.000000000               0.000252431               0.003771719               0.000909109              -0.000376803               0.001382828               0.001006025               0.000000000               0.000000000               0.000000000               0.000000000               0.000254468               0.003944899               0.000813180              -0.000397686               0.001447515               0.001049829               0.000000000               0.000000000               0.000000000               0.000000000               0.000254767               0.004075567               0.000726665              -0.000413907               0.001496478               0.001082570               0.000000000               0.000000000               0.000000000               0.000000000               0.000257703               0.004172236               0.000642252              -0.000424890               0.001532361               0.001107471               0.000000000               0.000000000               0.000000000               0.000000000               0.000262139               0.004229798               0.000560342              -0.000430422               0.001553393               0.001122971               0.000000000               0.000000000               0.000000000               0.000000000               0.000270531               0.004256842               0.000475853              -0.000430655               0.001562485               0.001131830               0.000000000               0.000000000               0.000000000               0.000000000               0.000284156               0.004267852               0.000381210              -0.000426922               0.001564910               0.001137988               0.000000000               0.000000000               0.000000000               0.000000000               0.000296463               0.004268056               0.000273395              -0.000422332               0.001563448               0.001141116               0.000000000               0.000000000               0.000000000               0.000000000               0.000290100               0.004254410               0.000147139              -0.000423013               0.001559127               0.001136114               0.000000000               0.000000000               0.000000000               0.000000000               0.000270023               0.004236873               0.000075441              -0.000428349               0.001555060               0.001126711               0.000000000               0.000000000               0.000000000               0.000000000              -0.001766207               0.000044864               0.000140786              -0.000667935               0.000237598              -0.000430337               0.000000000               0.000000000               0.000000000               0.000000000              -0.000684819               0.000578640               0.000577043              -0.000329137               0.000302590              -0.000026547               0.000000000               0.000000000               0.000000000               0.000000000               0.000021674               0.001196431               0.000952923              -0.000141427               0.000445948               0.000304521               0.000000000               0.000000000               0.000000000               0.000000000               0.000306689               0.001796184               0.001021144              -0.000109516               0.000635227               0.000525711               0.000000000               0.000000000               0.000000000               0.000000000               0.000418678               0.002304149               0.000980182              -0.000131015               0.000811713               0.000680698               0.000000000               0.000000000               0.000000000               0.000000000               0.000458424               0.002718867               0.000901578              -0.000167950               0.000962263               0.000794313               0.000000000               0.000000000               0.000000000               0.000000000               0.000467819               0.003049591               0.000814046              -0.000205767               0.001085109               0.000879342               0.000000000               0.000000000               0.000000000               0.000000000               0.000465333               0.003323440               0.000734053              -0.000240930               0.001188112               0.000947182               0.000000000               0.000000000               0.000000000               0.000000000               0.000456764               0.003556339               0.000664963              -0.000273255               0.001276520               0.001003264               0.000000000               0.000000000               0.000000000               0.000000000               0.000446264               0.003749461               0.000600192              -0.000301333               0.001350252               0.001048919               0.000000000               0.000000000               0.000000000               0.000000000               0.000438558               0.003904942               0.000535329              -0.000323658               0.001409520               0.001085862               0.000000000               0.000000000               0.000000000               0.000000000               0.000434656               0.004021119               0.000472007              -0.000339643               0.001453574               0.001113931               0.000000000               0.000000000               0.000000000               0.000000000               0.000441059               0.004104460               0.000407567              -0.000347660               0.001484026               0.001136367               0.000000000               0.000000000               0.000000000               0.000000000               0.000465104               0.004165553               0.000335155              -0.000346279               0.001503930               0.001157651               0.000000000               0.000000000               0.000000000               0.000000000               0.000508855               0.004207852               0.000247677              -0.000335160               0.001514323               0.001179163               0.000000000               0.000000000               0.000000000               0.000000000               0.000566603               0.004225973               0.000137013              -0.000315770               0.001513900               0.001198130               0.000000000               0.000000000               0.000000000               0.000000000               0.000611172               0.004231903               0.000076013              -0.000299797               0.001510553               0.001210755               0.000000000               0.000000000               0.000000000               0.000000000              -0.002142934              -0.000120259               0.000043835              -0.000788567               0.000222768              -0.000565799               0.000000000               0.000000000               0.000000000               0.000000000              -0.000853969               0.000296717               0.000287875              -0.000357328               0.000218013              -0.000139314               0.000000000               0.000000000               0.000000000               0.000000000               0.000043646               0.000788971               0.000502110              -0.000082254               0.000290405               0.000208151               0.000000000               0.000000000               0.000000000               0.000000000               0.000418052               0.001358470               0.000550000              -0.000013040               0.000457165               0.000444126               0.000000000               0.000000000               0.000000000               0.000000000               0.000571281               0.001873445               0.000536652              -0.000019951               0.000631125               0.000611175               0.000000000               0.000000000               0.000000000               0.000000000               0.000625048               0.002313640               0.000498897              -0.000054812               0.000789476               0.000734664               0.000000000               0.000000000               0.000000000               0.000000000               0.000635800               0.002684051               0.000453931              -0.000097082               0.000927035               0.000829954               0.000000000               0.000000000               0.000000000               0.000000000               0.000628647               0.002998770               0.000411868              -0.000139103               0.001045948               0.000906844               0.000000000               0.000000000               0.000000000               0.000000000               0.000610982               0.003267264               0.000375490              -0.000179289               0.001148840               0.000969551               0.000000000               0.000000000               0.000000000               0.000000000               0.000591054               0.003499726               0.000341701              -0.000215820               0.001238504               0.001022684               0.000000000               0.000000000               0.000000000               0.000000000               0.000576090               0.003693643               0.000305941              -0.000245671               0.001313092               0.001067421               0.000000000               0.000000000               0.000000000               0.000000000               0.000569819               0.003846161               0.000270156              -0.000267087               0.001371070               0.001103982               0.000000000               0.000000000               0.000000000               0.000000000               0.000578560               0.003967322               0.000233719              -0.000278955               0.001415413               0.001136458               0.000000000               0.000000000               0.000000000               0.000000000               0.000610634               0.004064281               0.000193152              -0.000279047               0.001447763               0.001168716               0.000000000               0.000000000               0.000000000               0.000000000               0.000674699               0.004140658               0.000143676              -0.000264569               0.001468395               0.001203826               0.000000000               0.000000000               0.000000000               0.000000000               0.000778344               0.004191934               0.000079017              -0.000232112               0.001474668               0.001242556               0.000000000               0.000000000               0.000000000               0.000000000               0.000872121               0.004220621               0.000044334              -0.000200532               0.001473704               0.001273172               0.000000000               0.000000000               0.000000000               0.000000000               0.000000000               0.000000000               0.000000000               0.000000000               0.000000000               0.000000000               0.000000000               0.000000000               0.000000000               0.000000000               0.000000000               0.000000000               0.000000000               0.000000000               0.000000000               0.000000000               0.000000000               0.000000000               0.000000000               0.000000000               0.000000000               0.000000000               0.000000000               0.000000000               0.000000000               0.000000000               0.000000000               0.000000000               0.000000000               0.000000000               0.000000000               0.000000000               0.000000000               0.000000000               0.000000000               0.000000000               0.000000000               0.000000000               0.000000000               0.000000000               0.000000000               0.000000000               0.000000000               0.000000000               0.000000000               0.000000000               0.000000000               0.000000000               0.000000000               0.000000000               0.000000000               0.000000000               0.000000000               0.000000000               0.000000000               0.000000000               0.000000000               0.000000000               0.000000000               0.000000000               0.000000000               0.000000000               0.000000000               0.000000000               0.000000000               0.000000000               0.000000000               0.000000000               0.000000000               0.000000000               0.000000000               0.000000000               0.000000000               0.000000000               0.000000000               0.000000000               0.000000000               0.000000000               0.000000000               0.000000000               0.000000000               0.000000000               0.000000000               0.000000000               0.000000000               0.000000000               0.000000000               0.000000000               0.000000000               0.000000000               0.000000000               0.000000000               0.000000000               0.000000000               0.000000000               0.000000000               0.000000000               0.000000000               0.000000000               0.000000000               0.000000000               0.000000000               0.000000000               0.000000000               0.000000000               0.000000000               0.000000000               0.000000000               0.000000000               0.000000000               0.000000000               0.000000000               0.000000000               0.000000000               0.000000000               0.000000000               0.000000000               0.000000000               0.000000000               0.000000000               0.000000000               0.000000000               0.000000000               0.000000000               0.000000000               0.000000000               0.000000000               0.000000000               0.000000000               0.000000000               0.000000000               0.000000000               0.000000000               0.000000000               0.000000000               0.000000000               0.000000000               0.000000000               0.000000000               0.000000000               0.000000000               0.000000000               0.000000000               0.000000000               0.000000000               0.000000000               0.000000000               0.000000000               0.000000000               0.000000000               0.000000000               0.000000000               0.000000000               0.000000000               0.000000000               0.000000000               0.000000000               0.000000000               0.000000000               0.000000000               0.000000000               0.000000000               0.000000000               0.000000000               0.000000000               0.000000000               0.000000000               0.000000000               0.000000000               0.000000000 </DataArray>
</PointData>
</Piece>
</UnstructuredGrid> </VTKFile>
