<?xml version="1.0"?>
<VTKFile type="UnstructuredGrid" version="0.1">
<UnstructuredGrid>
<Piece NumberOfPoints="      1156" NumberOfCells="      1024">
<Points>
<DataArray type="Float64"                                    Name="coordinates"                                                      NumberOfComponents=" 3" format="ascii">
              0.133000000               0.000000000               0.000000000               0.155937500               0.000000000               0.000000000               0.178875000               0.000000000               0.000000000               0.201812500               0.000000000               0.000000000               0.224750000               0.000000000               0.000000000               0.247687500               0.000000000               0.000000000               0.270625000               0.000000000               0.000000000               0.293562500               0.000000000               0.000000000               0.316500000               0.000000000               0.000000000               0.339437500               0.000000000               0.000000000               0.362375000               0.000000000               0.000000000               0.385312500               0.000000000               0.000000000               0.408250000               0.000000000               0.000000000               0.431187500               0.000000000               0.000000000               0.454125000               0.000000000               0.000000000               0.477062500               0.000000000               0.000000000               0.500000000               0.000000000               0.000000000               0.132359569               0.013036280               0.000000000               0.155337096               0.016127762               0.000000000               0.178314623               0.019219245               0.000000000               0.201292150               0.022310727               0.000000000               0.224269676               0.025402210               0.000000000               0.247247203               0.028493692               0.000000000               0.270224730               0.031585175               0.000000000               0.293202257               0.034676657               0.000000000               0.316179784               0.037768140               0.000000000               0.339157311               0.040859622               0.000000000               0.362134838               0.043951105               0.000000000               0.385112365               0.047042587               0.000000000               0.408089892               0.050134070               0.000000000               0.431067419               0.053225552               0.000000000               0.454044946               0.056317035               0.000000000               0.477022473               0.059408517               0.000000000               0.500000000               0.062500000               0.000000000               0.130444442               0.025947013               0.000000000               0.153541665               0.032137825               0.000000000               0.176638887               0.038328636               0.000000000               0.199736109               0.044519448               0.000000000               0.222833332               0.050710260               0.000000000               0.245930554               0.056901071               0.000000000               0.269027776               0.063091883               0.000000000               0.292124999               0.069282695               0.000000000               0.315222221               0.075473506               0.000000000               0.338319444               0.081664318               0.000000000               0.361416666               0.087855130               0.000000000               0.384513888               0.094045942               0.000000000               0.407611111               0.100236753               0.000000000               0.430708333               0.106427565               0.000000000               0.453805555               0.112618377               0.000000000               0.476902778               0.118809188               0.000000000               0.500000000               0.125000000               0.000000000               0.127273065               0.038607862               0.000000000               0.150568498               0.047913621               0.000000000               0.173863932               0.057219379               0.000000000               0.197159365               0.066525138               0.000000000               0.220454798               0.075830897               0.000000000               0.243750232               0.085136655               0.000000000               0.267045665               0.094442414               0.000000000               0.290341099               0.103748172               0.000000000               0.313636532               0.113053931               0.000000000               0.336931966               0.122359690               0.000000000               0.360227399               0.131665448               0.000000000               0.383522833               0.140971207               0.000000000               0.406818266               0.150276966               0.000000000               0.430113700               0.159582724               0.000000000               0.453409133               0.168888483               0.000000000               0.476704567               0.178194241               0.000000000               0.500000000               0.187500000               0.000000000               0.122875978               0.050896897               0.000000000               0.146446229               0.063340840               0.000000000               0.170016481               0.075784784               0.000000000               0.193586732               0.088228728               0.000000000               0.217156983               0.100672672               0.000000000               0.240727235               0.113116616               0.000000000               0.264297486               0.125560560               0.000000000               0.287867738               0.138004504               0.000000000               0.311437989               0.150448448               0.000000000               0.335008240               0.162892392               0.000000000               0.358578492               0.175336336               0.000000000               0.382148743               0.187780280               0.000000000               0.405718994               0.200224224               0.000000000               0.429289246               0.212668168               0.000000000               0.452859497               0.225112112               0.000000000               0.476429749               0.237556056               0.000000000               0.500000000               0.250000000               0.000000000               0.117295528               0.062695766               0.000000000               0.141214558               0.078308531               0.000000000               0.165133587               0.093921295               0.000000000               0.189052617               0.109534060               0.000000000               0.212971646               0.125146824               0.000000000               0.236890676               0.140759589               0.000000000               0.260809705               0.156372354               0.000000000               0.284728735               0.171985118               0.000000000               0.308647764               0.187597883               0.000000000               0.332566794               0.203210648               0.000000000               0.356485823               0.218823412               0.000000000               0.380404853               0.234436177               0.000000000               0.404323882               0.250048941               0.000000000               0.428242912               0.265661706               0.000000000               0.452161941               0.281274471               0.000000000               0.476080971               0.296887235               0.000000000               0.500000000               0.312500000               0.000000000               0.110585458               0.073890841               0.000000000               0.134923867               0.092710163               0.000000000               0.159262276               0.111529486               0.000000000               0.183600685               0.130348808               0.000000000               0.207939094               0.149168131               0.000000000               0.232277503               0.167987453               0.000000000               0.256615912               0.186806776               0.000000000               0.280954320               0.205626098               0.000000000               0.305292729               0.224445420               0.000000000               0.329631138               0.243264743               0.000000000               0.353969547               0.262084065               0.000000000               0.378307956               0.280903388               0.000000000               0.402646365               0.299722710               0.000000000               0.426984773               0.318542033               0.000000000               0.451323182               0.337361355               0.000000000               0.475661591               0.356180678               0.000000000               0.500000000               0.375000000               0.000000000               0.102810390               0.084374307               0.000000000               0.127634741               0.106444663               0.000000000               0.152459092               0.128515018               0.000000000               0.177283442               0.150585374               0.000000000               0.202107793               0.172655730               0.000000000               0.226932143               0.194726086               0.000000000               0.251756494               0.216796442               0.000000000               0.276580845               0.238866798               0.000000000               0.301405195               0.260937153               0.000000000               0.326229546               0.283007509               0.000000000               0.351053896               0.305077865               0.000000000               0.375878247               0.327148221               0.000000000               0.400702598               0.349218577               0.000000000               0.425526948               0.371288933               0.000000000               0.450351299               0.393359288               0.000000000               0.475175649               0.415429644               0.000000000               0.500000000               0.437500000               0.000000000               0.094045202               0.094045202               0.000000000               0.119417377               0.119417377               0.000000000               0.144789552               0.144789552               0.000000000               0.170161727               0.170161727               0.000000000               0.195533901               0.195533901               0.000000000               0.220906076               0.220906076               0.000000000               0.246278251               0.246278251               0.000000000               0.271650426               0.271650426               0.000000000               0.297022601               0.297022601               0.000000000               0.322394776               0.322394776               0.000000000               0.347766951               0.347766951               0.000000000               0.373139126               0.373139126               0.000000000               0.398511300               0.398511300               0.000000000               0.423883475               0.423883475               0.000000000               0.449255650               0.449255650               0.000000000               0.474627825               0.474627825               0.000000000               0.500000000               0.500000000               0.000000000               0.084374307               0.102810390               0.000000000               0.106444663               0.127634741               0.000000000               0.128515018               0.152459092               0.000000000               0.150585374               0.177283442               0.000000000               0.172655730               0.202107793               0.000000000               0.194726086               0.226932143               0.000000000               0.216796442               0.251756494               0.000000000               0.238866798               0.276580845               0.000000000               0.260937153               0.301405195               0.000000000               0.283007509               0.326229546               0.000000000               0.305077865               0.351053896               0.000000000               0.327148221               0.375878247               0.000000000               0.349218577               0.400702598               0.000000000               0.371288933               0.425526948               0.000000000               0.393359288               0.450351299               0.000000000               0.415429644               0.475175649               0.000000000               0.437500000               0.500000000               0.000000000               0.073890841               0.110585458               0.000000000               0.092710163               0.134923867               0.000000000               0.111529486               0.159262276               0.000000000               0.130348808               0.183600685               0.000000000               0.149168131               0.207939094               0.000000000               0.167987453               0.232277503               0.000000000               0.186806776               0.256615912               0.000000000               0.205626098               0.280954320               0.000000000               0.224445420               0.305292729               0.000000000               0.243264743               0.329631138               0.000000000               0.262084065               0.353969547               0.000000000               0.280903388               0.378307956               0.000000000               0.299722710               0.402646365               0.000000000               0.318542033               0.426984773               0.000000000               0.337361355               0.451323182               0.000000000               0.356180678               0.475661591               0.000000000               0.375000000               0.500000000               0.000000000               0.062695766               0.117295528               0.000000000               0.078308531               0.141214558               0.000000000               0.093921295               0.165133587               0.000000000               0.109534060               0.189052617               0.000000000               0.125146824               0.212971646               0.000000000               0.140759589               0.236890676               0.000000000               0.156372354               0.260809705               0.000000000               0.171985118               0.284728735               0.000000000               0.187597883               0.308647764               0.000000000               0.203210648               0.332566794               0.000000000               0.218823412               0.356485823               0.000000000               0.234436177               0.380404853               0.000000000               0.250048941               0.404323882               0.000000000               0.265661706               0.428242912               0.000000000               0.281274471               0.452161941               0.000000000               0.296887235               0.476080971               0.000000000               0.312500000               0.500000000               0.000000000               0.050896897               0.122875978               0.000000000               0.063340840               0.146446229               0.000000000               0.075784784               0.170016481               0.000000000               0.088228728               0.193586732               0.000000000               0.100672672               0.217156983               0.000000000               0.113116616               0.240727235               0.000000000               0.125560560               0.264297486               0.000000000               0.138004504               0.287867738               0.000000000               0.150448448               0.311437989               0.000000000               0.162892392               0.335008240               0.000000000               0.175336336               0.358578492               0.000000000               0.187780280               0.382148743               0.000000000               0.200224224               0.405718994               0.000000000               0.212668168               0.429289246               0.000000000               0.225112112               0.452859497               0.000000000               0.237556056               0.476429749               0.000000000               0.250000000               0.500000000               0.000000000               0.038607862               0.127273065               0.000000000               0.047913621               0.150568498               0.000000000               0.057219379               0.173863932               0.000000000               0.066525138               0.197159365               0.000000000               0.075830897               0.220454798               0.000000000               0.085136655               0.243750232               0.000000000               0.094442414               0.267045665               0.000000000               0.103748172               0.290341099               0.000000000               0.113053931               0.313636532               0.000000000               0.122359690               0.336931966               0.000000000               0.131665448               0.360227399               0.000000000               0.140971207               0.383522833               0.000000000               0.150276966               0.406818266               0.000000000               0.159582724               0.430113700               0.000000000               0.168888483               0.453409133               0.000000000               0.178194241               0.476704567               0.000000000               0.187500000               0.500000000               0.000000000               0.025947013               0.130444442               0.000000000               0.032137825               0.153541665               0.000000000               0.038328636               0.176638887               0.000000000               0.044519448               0.199736109               0.000000000               0.050710260               0.222833332               0.000000000               0.056901071               0.245930554               0.000000000               0.063091883               0.269027776               0.000000000               0.069282695               0.292124999               0.000000000               0.075473506               0.315222221               0.000000000               0.081664318               0.338319444               0.000000000               0.087855130               0.361416666               0.000000000               0.094045942               0.384513888               0.000000000               0.100236753               0.407611111               0.000000000               0.106427565               0.430708333               0.000000000               0.112618377               0.453805555               0.000000000               0.118809188               0.476902778               0.000000000               0.125000000               0.500000000               0.000000000               0.013036280               0.132359569               0.000000000               0.016127762               0.155337096               0.000000000               0.019219245               0.178314623               0.000000000               0.022310727               0.201292150               0.000000000               0.025402210               0.224269676               0.000000000               0.028493692               0.247247203               0.000000000               0.031585175               0.270224730               0.000000000               0.034676657               0.293202257               0.000000000               0.037768140               0.316179784               0.000000000               0.040859622               0.339157311               0.000000000               0.043951105               0.362134838               0.000000000               0.047042587               0.385112365               0.000000000               0.050134070               0.408089892               0.000000000               0.053225552               0.431067419               0.000000000               0.056317035               0.454044946               0.000000000               0.059408517               0.477022473               0.000000000               0.062500000               0.500000000               0.000000000               0.000000000               0.133000000               0.000000000               0.000000000               0.155937500               0.000000000               0.000000000               0.178875000               0.000000000               0.000000000               0.201812500               0.000000000               0.000000000               0.224750000               0.000000000               0.000000000               0.247687500               0.000000000               0.000000000               0.270625000               0.000000000               0.000000000               0.293562500               0.000000000               0.000000000               0.316500000               0.000000000               0.000000000               0.339437500               0.000000000               0.000000000               0.362375000               0.000000000               0.000000000               0.385312500               0.000000000               0.000000000               0.408250000               0.000000000               0.000000000               0.431187500               0.000000000               0.000000000               0.454125000               0.000000000               0.000000000               0.477062500               0.000000000               0.000000000               0.500000000               0.000000000               0.133000000               0.000000000               0.000000000               0.155937500               0.000000000               0.000000000               0.178875000               0.000000000               0.000000000               0.201812500               0.000000000               0.000000000               0.224750000               0.000000000               0.000000000               0.247687500               0.000000000               0.000000000               0.270625000               0.000000000               0.000000000               0.293562500               0.000000000               0.000000000               0.316500000               0.000000000               0.000000000               0.339437500               0.000000000               0.000000000               0.362375000               0.000000000               0.000000000               0.385312500               0.000000000               0.000000000               0.408250000               0.000000000               0.000000000               0.431187500               0.000000000               0.000000000               0.454125000               0.000000000               0.000000000               0.477062500               0.000000000               0.000000000               0.500000000               0.000000000               0.000000000               0.132359569              -0.013036280               0.000000000               0.155337096              -0.016127762               0.000000000               0.178314623              -0.019219245               0.000000000               0.201292150              -0.022310727               0.000000000               0.224269676              -0.025402210               0.000000000               0.247247203              -0.028493692               0.000000000               0.270224730              -0.031585175               0.000000000               0.293202257              -0.034676657               0.000000000               0.316179784              -0.037768140               0.000000000               0.339157311              -0.040859622               0.000000000               0.362134838              -0.043951105               0.000000000               0.385112365              -0.047042587               0.000000000               0.408089892              -0.050134070               0.000000000               0.431067419              -0.053225552               0.000000000               0.454044946              -0.056317035               0.000000000               0.477022473              -0.059408517               0.000000000               0.500000000              -0.062500000               0.000000000               0.130444442              -0.025947013               0.000000000               0.153541665              -0.032137825               0.000000000               0.176638887              -0.038328636               0.000000000               0.199736109              -0.044519448               0.000000000               0.222833332              -0.050710260               0.000000000               0.245930554              -0.056901071               0.000000000               0.269027776              -0.063091883               0.000000000               0.292124999              -0.069282695               0.000000000               0.315222221              -0.075473506               0.000000000               0.338319444              -0.081664318               0.000000000               0.361416666              -0.087855130               0.000000000               0.384513888              -0.094045942               0.000000000               0.407611111              -0.100236753               0.000000000               0.430708333              -0.106427565               0.000000000               0.453805555              -0.112618377               0.000000000               0.476902778              -0.118809188               0.000000000               0.500000000              -0.125000000               0.000000000               0.127273065              -0.038607862               0.000000000               0.150568498              -0.047913621               0.000000000               0.173863932              -0.057219379               0.000000000               0.197159365              -0.066525138               0.000000000               0.220454798              -0.075830897               0.000000000               0.243750232              -0.085136655               0.000000000               0.267045665              -0.094442414               0.000000000               0.290341099              -0.103748172               0.000000000               0.313636532              -0.113053931               0.000000000               0.336931966              -0.122359690               0.000000000               0.360227399              -0.131665448               0.000000000               0.383522833              -0.140971207               0.000000000               0.406818266              -0.150276966               0.000000000               0.430113700              -0.159582724               0.000000000               0.453409133              -0.168888483               0.000000000               0.476704567              -0.178194241               0.000000000               0.500000000              -0.187500000               0.000000000               0.122875978              -0.050896897               0.000000000               0.146446229              -0.063340840               0.000000000               0.170016481              -0.075784784               0.000000000               0.193586732              -0.088228728               0.000000000               0.217156983              -0.100672672               0.000000000               0.240727235              -0.113116616               0.000000000               0.264297486              -0.125560560               0.000000000               0.287867738              -0.138004504               0.000000000               0.311437989              -0.150448448               0.000000000               0.335008240              -0.162892392               0.000000000               0.358578492              -0.175336336               0.000000000               0.382148743              -0.187780280               0.000000000               0.405718994              -0.200224224               0.000000000               0.429289246              -0.212668168               0.000000000               0.452859497              -0.225112112               0.000000000               0.476429749              -0.237556056               0.000000000               0.500000000              -0.250000000               0.000000000               0.117295528              -0.062695766               0.000000000               0.141214558              -0.078308531               0.000000000               0.165133587              -0.093921295               0.000000000               0.189052617              -0.109534060               0.000000000               0.212971646              -0.125146824               0.000000000               0.236890676              -0.140759589               0.000000000               0.260809705              -0.156372354               0.000000000               0.284728735              -0.171985118               0.000000000               0.308647764              -0.187597883               0.000000000               0.332566794              -0.203210648               0.000000000               0.356485823              -0.218823412               0.000000000               0.380404853              -0.234436177               0.000000000               0.404323882              -0.250048941               0.000000000               0.428242912              -0.265661706               0.000000000               0.452161941              -0.281274471               0.000000000               0.476080971              -0.296887235               0.000000000               0.500000000              -0.312500000               0.000000000               0.110585458              -0.073890841               0.000000000               0.134923867              -0.092710163               0.000000000               0.159262276              -0.111529486               0.000000000               0.183600685              -0.130348808               0.000000000               0.207939094              -0.149168131               0.000000000               0.232277503              -0.167987453               0.000000000               0.256615912              -0.186806776               0.000000000               0.280954320              -0.205626098               0.000000000               0.305292729              -0.224445420               0.000000000               0.329631138              -0.243264743               0.000000000               0.353969547              -0.262084065               0.000000000               0.378307956              -0.280903388               0.000000000               0.402646365              -0.299722710               0.000000000               0.426984773              -0.318542033               0.000000000               0.451323182              -0.337361355               0.000000000               0.475661591              -0.356180678               0.000000000               0.500000000              -0.375000000               0.000000000               0.102810390              -0.084374307               0.000000000               0.127634741              -0.106444663               0.000000000               0.152459092              -0.128515018               0.000000000               0.177283442              -0.150585374               0.000000000               0.202107793              -0.172655730               0.000000000               0.226932143              -0.194726086               0.000000000               0.251756494              -0.216796442               0.000000000               0.276580845              -0.238866798               0.000000000               0.301405195              -0.260937153               0.000000000               0.326229546              -0.283007509               0.000000000               0.351053896              -0.305077865               0.000000000               0.375878247              -0.327148221               0.000000000               0.400702598              -0.349218577               0.000000000               0.425526948              -0.371288933               0.000000000               0.450351299              -0.393359288               0.000000000               0.475175649              -0.415429644               0.000000000               0.500000000              -0.437500000               0.000000000               0.094045202              -0.094045202               0.000000000               0.119417377              -0.119417377               0.000000000               0.144789552              -0.144789552               0.000000000               0.170161727              -0.170161727               0.000000000               0.195533901              -0.195533901               0.000000000               0.220906076              -0.220906076               0.000000000               0.246278251              -0.246278251               0.000000000               0.271650426              -0.271650426               0.000000000               0.297022601              -0.297022601               0.000000000               0.322394776              -0.322394776               0.000000000               0.347766951              -0.347766951               0.000000000               0.373139126              -0.373139126               0.000000000               0.398511300              -0.398511300               0.000000000               0.423883475              -0.423883475               0.000000000               0.449255650              -0.449255650               0.000000000               0.474627825              -0.474627825               0.000000000               0.500000000              -0.500000000               0.000000000               0.084374307              -0.102810390               0.000000000               0.106444663              -0.127634741               0.000000000               0.128515018              -0.152459092               0.000000000               0.150585374              -0.177283442               0.000000000               0.172655730              -0.202107793               0.000000000               0.194726086              -0.226932143               0.000000000               0.216796442              -0.251756494               0.000000000               0.238866798              -0.276580845               0.000000000               0.260937153              -0.301405195               0.000000000               0.283007509              -0.326229546               0.000000000               0.305077865              -0.351053896               0.000000000               0.327148221              -0.375878247               0.000000000               0.349218577              -0.400702598               0.000000000               0.371288933              -0.425526948               0.000000000               0.393359288              -0.450351299               0.000000000               0.415429644              -0.475175649               0.000000000               0.437500000              -0.500000000               0.000000000               0.073890841              -0.110585458               0.000000000               0.092710163              -0.134923867               0.000000000               0.111529486              -0.159262276               0.000000000               0.130348808              -0.183600685               0.000000000               0.149168131              -0.207939094               0.000000000               0.167987453              -0.232277503               0.000000000               0.186806776              -0.256615912               0.000000000               0.205626098              -0.280954320               0.000000000               0.224445420              -0.305292729               0.000000000               0.243264743              -0.329631138               0.000000000               0.262084065              -0.353969547               0.000000000               0.280903388              -0.378307956               0.000000000               0.299722710              -0.402646365               0.000000000               0.318542033              -0.426984773               0.000000000               0.337361355              -0.451323182               0.000000000               0.356180678              -0.475661591               0.000000000               0.375000000              -0.500000000               0.000000000               0.062695766              -0.117295528               0.000000000               0.078308531              -0.141214558               0.000000000               0.093921295              -0.165133587               0.000000000               0.109534060              -0.189052617               0.000000000               0.125146824              -0.212971646               0.000000000               0.140759589              -0.236890676               0.000000000               0.156372354              -0.260809705               0.000000000               0.171985118              -0.284728735               0.000000000               0.187597883              -0.308647764               0.000000000               0.203210648              -0.332566794               0.000000000               0.218823412              -0.356485823               0.000000000               0.234436177              -0.380404853               0.000000000               0.250048941              -0.404323882               0.000000000               0.265661706              -0.428242912               0.000000000               0.281274471              -0.452161941               0.000000000               0.296887235              -0.476080971               0.000000000               0.312500000              -0.500000000               0.000000000               0.050896897              -0.122875978               0.000000000               0.063340840              -0.146446229               0.000000000               0.075784784              -0.170016481               0.000000000               0.088228728              -0.193586732               0.000000000               0.100672672              -0.217156983               0.000000000               0.113116616              -0.240727235               0.000000000               0.125560560              -0.264297486               0.000000000               0.138004504              -0.287867738               0.000000000               0.150448448              -0.311437989               0.000000000               0.162892392              -0.335008240               0.000000000               0.175336336              -0.358578492               0.000000000               0.187780280              -0.382148743               0.000000000               0.200224224              -0.405718994               0.000000000               0.212668168              -0.429289246               0.000000000               0.225112112              -0.452859497               0.000000000               0.237556056              -0.476429749               0.000000000               0.250000000              -0.500000000               0.000000000               0.038607862              -0.127273065               0.000000000               0.047913621              -0.150568498               0.000000000               0.057219379              -0.173863932               0.000000000               0.066525138              -0.197159365               0.000000000               0.075830897              -0.220454798               0.000000000               0.085136655              -0.243750232               0.000000000               0.094442414              -0.267045665               0.000000000               0.103748172              -0.290341099               0.000000000               0.113053931              -0.313636532               0.000000000               0.122359690              -0.336931966               0.000000000               0.131665448              -0.360227399               0.000000000               0.140971207              -0.383522833               0.000000000               0.150276966              -0.406818266               0.000000000               0.159582724              -0.430113700               0.000000000               0.168888483              -0.453409133               0.000000000               0.178194241              -0.476704567               0.000000000               0.187500000              -0.500000000               0.000000000               0.025947013              -0.130444442               0.000000000               0.032137825              -0.153541665               0.000000000               0.038328636              -0.176638887               0.000000000               0.044519448              -0.199736109               0.000000000               0.050710260              -0.222833332               0.000000000               0.056901071              -0.245930554               0.000000000               0.063091883              -0.269027776               0.000000000               0.069282695              -0.292124999               0.000000000               0.075473506              -0.315222221               0.000000000               0.081664318              -0.338319444               0.000000000               0.087855130              -0.361416666               0.000000000               0.094045942              -0.384513888               0.000000000               0.100236753              -0.407611111               0.000000000               0.106427565              -0.430708333               0.000000000               0.112618377              -0.453805555               0.000000000               0.118809188              -0.476902778               0.000000000               0.125000000              -0.500000000               0.000000000               0.013036280              -0.132359569               0.000000000               0.016127762              -0.155337096               0.000000000               0.019219245              -0.178314623               0.000000000               0.022310727              -0.201292150               0.000000000               0.025402210              -0.224269676               0.000000000               0.028493692              -0.247247203               0.000000000               0.031585175              -0.270224730               0.000000000               0.034676657              -0.293202257               0.000000000               0.037768140              -0.316179784               0.000000000               0.040859622              -0.339157311               0.000000000               0.043951105              -0.362134838               0.000000000               0.047042587              -0.385112365               0.000000000               0.050134070              -0.408089892               0.000000000               0.053225552              -0.431067419               0.000000000               0.056317035              -0.454044946               0.000000000               0.059408517              -0.477022473               0.000000000               0.062500000              -0.500000000               0.000000000               0.000000000              -0.133000000               0.000000000               0.000000000              -0.155937500               0.000000000               0.000000000              -0.178875000               0.000000000               0.000000000              -0.201812500               0.000000000               0.000000000              -0.224750000               0.000000000               0.000000000              -0.247687500               0.000000000               0.000000000              -0.270625000               0.000000000               0.000000000              -0.293562500               0.000000000               0.000000000              -0.316500000               0.000000000               0.000000000              -0.339437500               0.000000000               0.000000000              -0.362375000               0.000000000               0.000000000              -0.385312500               0.000000000               0.000000000              -0.408250000               0.000000000               0.000000000              -0.431187500               0.000000000               0.000000000              -0.454125000               0.000000000               0.000000000              -0.477062500               0.000000000               0.000000000              -0.500000000               0.000000000              -0.133000000               0.000000000               0.000000000              -0.155937500               0.000000000               0.000000000              -0.178875000               0.000000000               0.000000000              -0.201812500               0.000000000               0.000000000              -0.224750000               0.000000000               0.000000000              -0.247687500               0.000000000               0.000000000              -0.270625000               0.000000000               0.000000000              -0.293562500               0.000000000               0.000000000              -0.316500000               0.000000000               0.000000000              -0.339437500               0.000000000               0.000000000              -0.362375000               0.000000000               0.000000000              -0.385312500               0.000000000               0.000000000              -0.408250000               0.000000000               0.000000000              -0.431187500               0.000000000               0.000000000              -0.454125000               0.000000000               0.000000000              -0.477062500               0.000000000               0.000000000              -0.500000000               0.000000000               0.000000000              -0.132359569              -0.013036280               0.000000000              -0.155337096              -0.016127762               0.000000000              -0.178314623              -0.019219245               0.000000000              -0.201292150              -0.022310727               0.000000000              -0.224269676              -0.025402210               0.000000000              -0.247247203              -0.028493692               0.000000000              -0.270224730              -0.031585175               0.000000000              -0.293202257              -0.034676657               0.000000000              -0.316179784              -0.037768140               0.000000000              -0.339157311              -0.040859622               0.000000000              -0.362134838              -0.043951105               0.000000000              -0.385112365              -0.047042587               0.000000000              -0.408089892              -0.050134070               0.000000000              -0.431067419              -0.053225552               0.000000000              -0.454044946              -0.056317035               0.000000000              -0.477022473              -0.059408517               0.000000000              -0.500000000              -0.062500000               0.000000000              -0.130444442              -0.025947013               0.000000000              -0.153541665              -0.032137825               0.000000000              -0.176638887              -0.038328636               0.000000000              -0.199736109              -0.044519448               0.000000000              -0.222833332              -0.050710260               0.000000000              -0.245930554              -0.056901071               0.000000000              -0.269027776              -0.063091883               0.000000000              -0.292124999              -0.069282695               0.000000000              -0.315222221              -0.075473506               0.000000000              -0.338319444              -0.081664318               0.000000000              -0.361416666              -0.087855130               0.000000000              -0.384513888              -0.094045942               0.000000000              -0.407611111              -0.100236753               0.000000000              -0.430708333              -0.106427565               0.000000000              -0.453805555              -0.112618377               0.000000000              -0.476902778              -0.118809188               0.000000000              -0.500000000              -0.125000000               0.000000000              -0.127273065              -0.038607862               0.000000000              -0.150568498              -0.047913621               0.000000000              -0.173863932              -0.057219379               0.000000000              -0.197159365              -0.066525138               0.000000000              -0.220454798              -0.075830897               0.000000000              -0.243750232              -0.085136655               0.000000000              -0.267045665              -0.094442414               0.000000000              -0.290341099              -0.103748172               0.000000000              -0.313636532              -0.113053931               0.000000000              -0.336931966              -0.122359690               0.000000000              -0.360227399              -0.131665448               0.000000000              -0.383522833              -0.140971207               0.000000000              -0.406818266              -0.150276966               0.000000000              -0.430113700              -0.159582724               0.000000000              -0.453409133              -0.168888483               0.000000000              -0.476704567              -0.178194241               0.000000000              -0.500000000              -0.187500000               0.000000000              -0.122875978              -0.050896897               0.000000000              -0.146446229              -0.063340840               0.000000000              -0.170016481              -0.075784784               0.000000000              -0.193586732              -0.088228728               0.000000000              -0.217156983              -0.100672672               0.000000000              -0.240727235              -0.113116616               0.000000000              -0.264297486              -0.125560560               0.000000000              -0.287867738              -0.138004504               0.000000000              -0.311437989              -0.150448448               0.000000000              -0.335008240              -0.162892392               0.000000000              -0.358578492              -0.175336336               0.000000000              -0.382148743              -0.187780280               0.000000000              -0.405718994              -0.200224224               0.000000000              -0.429289246              -0.212668168               0.000000000              -0.452859497              -0.225112112               0.000000000              -0.476429749              -0.237556056               0.000000000              -0.500000000              -0.250000000               0.000000000              -0.117295528              -0.062695766               0.000000000              -0.141214558              -0.078308531               0.000000000              -0.165133587              -0.093921295               0.000000000              -0.189052617              -0.109534060               0.000000000              -0.212971646              -0.125146824               0.000000000              -0.236890676              -0.140759589               0.000000000              -0.260809705              -0.156372354               0.000000000              -0.284728735              -0.171985118               0.000000000              -0.308647764              -0.187597883               0.000000000              -0.332566794              -0.203210648               0.000000000              -0.356485823              -0.218823412               0.000000000              -0.380404853              -0.234436177               0.000000000              -0.404323882              -0.250048941               0.000000000              -0.428242912              -0.265661706               0.000000000              -0.452161941              -0.281274471               0.000000000              -0.476080971              -0.296887235               0.000000000              -0.500000000              -0.312500000               0.000000000              -0.110585458              -0.073890841               0.000000000              -0.134923867              -0.092710163               0.000000000              -0.159262276              -0.111529486               0.000000000              -0.183600685              -0.130348808               0.000000000              -0.207939094              -0.149168131               0.000000000              -0.232277503              -0.167987453               0.000000000              -0.256615912              -0.186806776               0.000000000              -0.280954320              -0.205626098               0.000000000              -0.305292729              -0.224445420               0.000000000              -0.329631138              -0.243264743               0.000000000              -0.353969547              -0.262084065               0.000000000              -0.378307956              -0.280903388               0.000000000              -0.402646365              -0.299722710               0.000000000              -0.426984773              -0.318542033               0.000000000              -0.451323182              -0.337361355               0.000000000              -0.475661591              -0.356180678               0.000000000              -0.500000000              -0.375000000               0.000000000              -0.102810390              -0.084374307               0.000000000              -0.127634741              -0.106444663               0.000000000              -0.152459092              -0.128515018               0.000000000              -0.177283442              -0.150585374               0.000000000              -0.202107793              -0.172655730               0.000000000              -0.226932143              -0.194726086               0.000000000              -0.251756494              -0.216796442               0.000000000              -0.276580845              -0.238866798               0.000000000              -0.301405195              -0.260937153               0.000000000              -0.326229546              -0.283007509               0.000000000              -0.351053896              -0.305077865               0.000000000              -0.375878247              -0.327148221               0.000000000              -0.400702598              -0.349218577               0.000000000              -0.425526948              -0.371288933               0.000000000              -0.450351299              -0.393359288               0.000000000              -0.475175649              -0.415429644               0.000000000              -0.500000000              -0.437500000               0.000000000              -0.094045202              -0.094045202               0.000000000              -0.119417377              -0.119417377               0.000000000              -0.144789552              -0.144789552               0.000000000              -0.170161727              -0.170161727               0.000000000              -0.195533901              -0.195533901               0.000000000              -0.220906076              -0.220906076               0.000000000              -0.246278251              -0.246278251               0.000000000              -0.271650426              -0.271650426               0.000000000              -0.297022601              -0.297022601               0.000000000              -0.322394776              -0.322394776               0.000000000              -0.347766951              -0.347766951               0.000000000              -0.373139126              -0.373139126               0.000000000              -0.398511300              -0.398511300               0.000000000              -0.423883475              -0.423883475               0.000000000              -0.449255650              -0.449255650               0.000000000              -0.474627825              -0.474627825               0.000000000              -0.500000000              -0.500000000               0.000000000              -0.084374307              -0.102810390               0.000000000              -0.106444663              -0.127634741               0.000000000              -0.128515018              -0.152459092               0.000000000              -0.150585374              -0.177283442               0.000000000              -0.172655730              -0.202107793               0.000000000              -0.194726086              -0.226932143               0.000000000              -0.216796442              -0.251756494               0.000000000              -0.238866798              -0.276580845               0.000000000              -0.260937153              -0.301405195               0.000000000              -0.283007509              -0.326229546               0.000000000              -0.305077865              -0.351053896               0.000000000              -0.327148221              -0.375878247               0.000000000              -0.349218577              -0.400702598               0.000000000              -0.371288933              -0.425526948               0.000000000              -0.393359288              -0.450351299               0.000000000              -0.415429644              -0.475175649               0.000000000              -0.437500000              -0.500000000               0.000000000              -0.073890841              -0.110585458               0.000000000              -0.092710163              -0.134923867               0.000000000              -0.111529486              -0.159262276               0.000000000              -0.130348808              -0.183600685               0.000000000              -0.149168131              -0.207939094               0.000000000              -0.167987453              -0.232277503               0.000000000              -0.186806776              -0.256615912               0.000000000              -0.205626098              -0.280954320               0.000000000              -0.224445420              -0.305292729               0.000000000              -0.243264743              -0.329631138               0.000000000              -0.262084065              -0.353969547               0.000000000              -0.280903388              -0.378307956               0.000000000              -0.299722710              -0.402646365               0.000000000              -0.318542033              -0.426984773               0.000000000              -0.337361355              -0.451323182               0.000000000              -0.356180678              -0.475661591               0.000000000              -0.375000000              -0.500000000               0.000000000              -0.062695766              -0.117295528               0.000000000              -0.078308531              -0.141214558               0.000000000              -0.093921295              -0.165133587               0.000000000              -0.109534060              -0.189052617               0.000000000              -0.125146824              -0.212971646               0.000000000              -0.140759589              -0.236890676               0.000000000              -0.156372354              -0.260809705               0.000000000              -0.171985118              -0.284728735               0.000000000              -0.187597883              -0.308647764               0.000000000              -0.203210648              -0.332566794               0.000000000              -0.218823412              -0.356485823               0.000000000              -0.234436177              -0.380404853               0.000000000              -0.250048941              -0.404323882               0.000000000              -0.265661706              -0.428242912               0.000000000              -0.281274471              -0.452161941               0.000000000              -0.296887235              -0.476080971               0.000000000              -0.312500000              -0.500000000               0.000000000              -0.050896897              -0.122875978               0.000000000              -0.063340840              -0.146446229               0.000000000              -0.075784784              -0.170016481               0.000000000              -0.088228728              -0.193586732               0.000000000              -0.100672672              -0.217156983               0.000000000              -0.113116616              -0.240727235               0.000000000              -0.125560560              -0.264297486               0.000000000              -0.138004504              -0.287867738               0.000000000              -0.150448448              -0.311437989               0.000000000              -0.162892392              -0.335008240               0.000000000              -0.175336336              -0.358578492               0.000000000              -0.187780280              -0.382148743               0.000000000              -0.200224224              -0.405718994               0.000000000              -0.212668168              -0.429289246               0.000000000              -0.225112112              -0.452859497               0.000000000              -0.237556056              -0.476429749               0.000000000              -0.250000000              -0.500000000               0.000000000              -0.038607862              -0.127273065               0.000000000              -0.047913621              -0.150568498               0.000000000              -0.057219379              -0.173863932               0.000000000              -0.066525138              -0.197159365               0.000000000              -0.075830897              -0.220454798               0.000000000              -0.085136655              -0.243750232               0.000000000              -0.094442414              -0.267045665               0.000000000              -0.103748172              -0.290341099               0.000000000              -0.113053931              -0.313636532               0.000000000              -0.122359690              -0.336931966               0.000000000              -0.131665448              -0.360227399               0.000000000              -0.140971207              -0.383522833               0.000000000              -0.150276966              -0.406818266               0.000000000              -0.159582724              -0.430113700               0.000000000              -0.168888483              -0.453409133               0.000000000              -0.178194241              -0.476704567               0.000000000              -0.187500000              -0.500000000               0.000000000              -0.025947013              -0.130444442               0.000000000              -0.032137825              -0.153541665               0.000000000              -0.038328636              -0.176638887               0.000000000              -0.044519448              -0.199736109               0.000000000              -0.050710260              -0.222833332               0.000000000              -0.056901071              -0.245930554               0.000000000              -0.063091883              -0.269027776               0.000000000              -0.069282695              -0.292124999               0.000000000              -0.075473506              -0.315222221               0.000000000              -0.081664318              -0.338319444               0.000000000              -0.087855130              -0.361416666               0.000000000              -0.094045942              -0.384513888               0.000000000              -0.100236753              -0.407611111               0.000000000              -0.106427565              -0.430708333               0.000000000              -0.112618377              -0.453805555               0.000000000              -0.118809188              -0.476902778               0.000000000              -0.125000000              -0.500000000               0.000000000              -0.013036280              -0.132359569               0.000000000              -0.016127762              -0.155337096               0.000000000              -0.019219245              -0.178314623               0.000000000              -0.022310727              -0.201292150               0.000000000              -0.025402210              -0.224269676               0.000000000              -0.028493692              -0.247247203               0.000000000              -0.031585175              -0.270224730               0.000000000              -0.034676657              -0.293202257               0.000000000              -0.037768140              -0.316179784               0.000000000              -0.040859622              -0.339157311               0.000000000              -0.043951105              -0.362134838               0.000000000              -0.047042587              -0.385112365               0.000000000              -0.050134070              -0.408089892               0.000000000              -0.053225552              -0.431067419               0.000000000              -0.056317035              -0.454044946               0.000000000              -0.059408517              -0.477022473               0.000000000              -0.062500000              -0.500000000               0.000000000               0.000000000              -0.133000000               0.000000000               0.000000000              -0.155937500               0.000000000               0.000000000              -0.178875000               0.000000000               0.000000000              -0.201812500               0.000000000               0.000000000              -0.224750000               0.000000000               0.000000000              -0.247687500               0.000000000               0.000000000              -0.270625000               0.000000000               0.000000000              -0.293562500               0.000000000               0.000000000              -0.316500000               0.000000000               0.000000000              -0.339437500               0.000000000               0.000000000              -0.362375000               0.000000000               0.000000000              -0.385312500               0.000000000               0.000000000              -0.408250000               0.000000000               0.000000000              -0.431187500               0.000000000               0.000000000              -0.454125000               0.000000000               0.000000000              -0.477062500               0.000000000               0.000000000              -0.500000000               0.000000000              -0.133000000               0.000000000               0.000000000              -0.155937500               0.000000000               0.000000000              -0.178875000               0.000000000               0.000000000              -0.201812500               0.000000000               0.000000000              -0.224750000               0.000000000               0.000000000              -0.247687500               0.000000000               0.000000000              -0.270625000               0.000000000               0.000000000              -0.293562500               0.000000000               0.000000000              -0.316500000               0.000000000               0.000000000              -0.339437500               0.000000000               0.000000000              -0.362375000               0.000000000               0.000000000              -0.385312500               0.000000000               0.000000000              -0.408250000               0.000000000               0.000000000              -0.431187500               0.000000000               0.000000000              -0.454125000               0.000000000               0.000000000              -0.477062500               0.000000000               0.000000000              -0.500000000               0.000000000               0.000000000              -0.132359569               0.013036280               0.000000000              -0.155337096               0.016127762               0.000000000              -0.178314623               0.019219245               0.000000000              -0.201292150               0.022310727               0.000000000              -0.224269676               0.025402210               0.000000000              -0.247247203               0.028493692               0.000000000              -0.270224730               0.031585175               0.000000000              -0.293202257               0.034676657               0.000000000              -0.316179784               0.037768140               0.000000000              -0.339157311               0.040859622               0.000000000              -0.362134838               0.043951105               0.000000000              -0.385112365               0.047042587               0.000000000              -0.408089892               0.050134070               0.000000000              -0.431067419               0.053225552               0.000000000              -0.454044946               0.056317035               0.000000000              -0.477022473               0.059408517               0.000000000              -0.500000000               0.062500000               0.000000000              -0.130444442               0.025947013               0.000000000              -0.153541665               0.032137825               0.000000000              -0.176638887               0.038328636               0.000000000              -0.199736109               0.044519448               0.000000000              -0.222833332               0.050710260               0.000000000              -0.245930554               0.056901071               0.000000000              -0.269027776               0.063091883               0.000000000              -0.292124999               0.069282695               0.000000000              -0.315222221               0.075473506               0.000000000              -0.338319444               0.081664318               0.000000000              -0.361416666               0.087855130               0.000000000              -0.384513888               0.094045942               0.000000000              -0.407611111               0.100236753               0.000000000              -0.430708333               0.106427565               0.000000000              -0.453805555               0.112618377               0.000000000              -0.476902778               0.118809188               0.000000000              -0.500000000               0.125000000               0.000000000              -0.127273065               0.038607862               0.000000000              -0.150568498               0.047913621               0.000000000              -0.173863932               0.057219379               0.000000000              -0.197159365               0.066525138               0.000000000              -0.220454798               0.075830897               0.000000000              -0.243750232               0.085136655               0.000000000              -0.267045665               0.094442414               0.000000000              -0.290341099               0.103748172               0.000000000              -0.313636532               0.113053931               0.000000000              -0.336931966               0.122359690               0.000000000              -0.360227399               0.131665448               0.000000000              -0.383522833               0.140971207               0.000000000              -0.406818266               0.150276966               0.000000000              -0.430113700               0.159582724               0.000000000              -0.453409133               0.168888483               0.000000000              -0.476704567               0.178194241               0.000000000              -0.500000000               0.187500000               0.000000000              -0.122875978               0.050896897               0.000000000              -0.146446229               0.063340840               0.000000000              -0.170016481               0.075784784               0.000000000              -0.193586732               0.088228728               0.000000000              -0.217156983               0.100672672               0.000000000              -0.240727235               0.113116616               0.000000000              -0.264297486               0.125560560               0.000000000              -0.287867738               0.138004504               0.000000000              -0.311437989               0.150448448               0.000000000              -0.335008240               0.162892392               0.000000000              -0.358578492               0.175336336               0.000000000              -0.382148743               0.187780280               0.000000000              -0.405718994               0.200224224               0.000000000              -0.429289246               0.212668168               0.000000000              -0.452859497               0.225112112               0.000000000              -0.476429749               0.237556056               0.000000000              -0.500000000               0.250000000               0.000000000              -0.117295528               0.062695766               0.000000000              -0.141214558               0.078308531               0.000000000              -0.165133587               0.093921295               0.000000000              -0.189052617               0.109534060               0.000000000              -0.212971646               0.125146824               0.000000000              -0.236890676               0.140759589               0.000000000              -0.260809705               0.156372354               0.000000000              -0.284728735               0.171985118               0.000000000              -0.308647764               0.187597883               0.000000000              -0.332566794               0.203210648               0.000000000              -0.356485823               0.218823412               0.000000000              -0.380404853               0.234436177               0.000000000              -0.404323882               0.250048941               0.000000000              -0.428242912               0.265661706               0.000000000              -0.452161941               0.281274471               0.000000000              -0.476080971               0.296887235               0.000000000              -0.500000000               0.312500000               0.000000000              -0.110585458               0.073890841               0.000000000              -0.134923867               0.092710163               0.000000000              -0.159262276               0.111529486               0.000000000              -0.183600685               0.130348808               0.000000000              -0.207939094               0.149168131               0.000000000              -0.232277503               0.167987453               0.000000000              -0.256615912               0.186806776               0.000000000              -0.280954320               0.205626098               0.000000000              -0.305292729               0.224445420               0.000000000              -0.329631138               0.243264743               0.000000000              -0.353969547               0.262084065               0.000000000              -0.378307956               0.280903388               0.000000000              -0.402646365               0.299722710               0.000000000              -0.426984773               0.318542033               0.000000000              -0.451323182               0.337361355               0.000000000              -0.475661591               0.356180678               0.000000000              -0.500000000               0.375000000               0.000000000              -0.102810390               0.084374307               0.000000000              -0.127634741               0.106444663               0.000000000              -0.152459092               0.128515018               0.000000000              -0.177283442               0.150585374               0.000000000              -0.202107793               0.172655730               0.000000000              -0.226932143               0.194726086               0.000000000              -0.251756494               0.216796442               0.000000000              -0.276580845               0.238866798               0.000000000              -0.301405195               0.260937153               0.000000000              -0.326229546               0.283007509               0.000000000              -0.351053896               0.305077865               0.000000000              -0.375878247               0.327148221               0.000000000              -0.400702598               0.349218577               0.000000000              -0.425526948               0.371288933               0.000000000              -0.450351299               0.393359288               0.000000000              -0.475175649               0.415429644               0.000000000              -0.500000000               0.437500000               0.000000000              -0.094045202               0.094045202               0.000000000              -0.119417377               0.119417377               0.000000000              -0.144789552               0.144789552               0.000000000              -0.170161727               0.170161727               0.000000000              -0.195533901               0.195533901               0.000000000              -0.220906076               0.220906076               0.000000000              -0.246278251               0.246278251               0.000000000              -0.271650426               0.271650426               0.000000000              -0.297022601               0.297022601               0.000000000              -0.322394776               0.322394776               0.000000000              -0.347766951               0.347766951               0.000000000              -0.373139126               0.373139126               0.000000000              -0.398511300               0.398511300               0.000000000              -0.423883475               0.423883475               0.000000000              -0.449255650               0.449255650               0.000000000              -0.474627825               0.474627825               0.000000000              -0.500000000               0.500000000               0.000000000              -0.084374307               0.102810390               0.000000000              -0.106444663               0.127634741               0.000000000              -0.128515018               0.152459092               0.000000000              -0.150585374               0.177283442               0.000000000              -0.172655730               0.202107793               0.000000000              -0.194726086               0.226932143               0.000000000              -0.216796442               0.251756494               0.000000000              -0.238866798               0.276580845               0.000000000              -0.260937153               0.301405195               0.000000000              -0.283007509               0.326229546               0.000000000              -0.305077865               0.351053896               0.000000000              -0.327148221               0.375878247               0.000000000              -0.349218577               0.400702598               0.000000000              -0.371288933               0.425526948               0.000000000              -0.393359288               0.450351299               0.000000000              -0.415429644               0.475175649               0.000000000              -0.437500000               0.500000000               0.000000000              -0.073890841               0.110585458               0.000000000              -0.092710163               0.134923867               0.000000000              -0.111529486               0.159262276               0.000000000              -0.130348808               0.183600685               0.000000000              -0.149168131               0.207939094               0.000000000              -0.167987453               0.232277503               0.000000000              -0.186806776               0.256615912               0.000000000              -0.205626098               0.280954320               0.000000000              -0.224445420               0.305292729               0.000000000              -0.243264743               0.329631138               0.000000000              -0.262084065               0.353969547               0.000000000              -0.280903388               0.378307956               0.000000000              -0.299722710               0.402646365               0.000000000              -0.318542033               0.426984773               0.000000000              -0.337361355               0.451323182               0.000000000              -0.356180678               0.475661591               0.000000000              -0.375000000               0.500000000               0.000000000              -0.062695766               0.117295528               0.000000000              -0.078308531               0.141214558               0.000000000              -0.093921295               0.165133587               0.000000000              -0.109534060               0.189052617               0.000000000              -0.125146824               0.212971646               0.000000000              -0.140759589               0.236890676               0.000000000              -0.156372354               0.260809705               0.000000000              -0.171985118               0.284728735               0.000000000              -0.187597883               0.308647764               0.000000000              -0.203210648               0.332566794               0.000000000              -0.218823412               0.356485823               0.000000000              -0.234436177               0.380404853               0.000000000              -0.250048941               0.404323882               0.000000000              -0.265661706               0.428242912               0.000000000              -0.281274471               0.452161941               0.000000000              -0.296887235               0.476080971               0.000000000              -0.312500000               0.500000000               0.000000000              -0.050896897               0.122875978               0.000000000              -0.063340840               0.146446229               0.000000000              -0.075784784               0.170016481               0.000000000              -0.088228728               0.193586732               0.000000000              -0.100672672               0.217156983               0.000000000              -0.113116616               0.240727235               0.000000000              -0.125560560               0.264297486               0.000000000              -0.138004504               0.287867738               0.000000000              -0.150448448               0.311437989               0.000000000              -0.162892392               0.335008240               0.000000000              -0.175336336               0.358578492               0.000000000              -0.187780280               0.382148743               0.000000000              -0.200224224               0.405718994               0.000000000              -0.212668168               0.429289246               0.000000000              -0.225112112               0.452859497               0.000000000              -0.237556056               0.476429749               0.000000000              -0.250000000               0.500000000               0.000000000              -0.038607862               0.127273065               0.000000000              -0.047913621               0.150568498               0.000000000              -0.057219379               0.173863932               0.000000000              -0.066525138               0.197159365               0.000000000              -0.075830897               0.220454798               0.000000000              -0.085136655               0.243750232               0.000000000              -0.094442414               0.267045665               0.000000000              -0.103748172               0.290341099               0.000000000              -0.113053931               0.313636532               0.000000000              -0.122359690               0.336931966               0.000000000              -0.131665448               0.360227399               0.000000000              -0.140971207               0.383522833               0.000000000              -0.150276966               0.406818266               0.000000000              -0.159582724               0.430113700               0.000000000              -0.168888483               0.453409133               0.000000000              -0.178194241               0.476704567               0.000000000              -0.187500000               0.500000000               0.000000000              -0.025947013               0.130444442               0.000000000              -0.032137825               0.153541665               0.000000000              -0.038328636               0.176638887               0.000000000              -0.044519448               0.199736109               0.000000000              -0.050710260               0.222833332               0.000000000              -0.056901071               0.245930554               0.000000000              -0.063091883               0.269027776               0.000000000              -0.069282695               0.292124999               0.000000000              -0.075473506               0.315222221               0.000000000              -0.081664318               0.338319444               0.000000000              -0.087855130               0.361416666               0.000000000              -0.094045942               0.384513888               0.000000000              -0.100236753               0.407611111               0.000000000              -0.106427565               0.430708333               0.000000000              -0.112618377               0.453805555               0.000000000              -0.118809188               0.476902778               0.000000000              -0.125000000               0.500000000               0.000000000              -0.013036280               0.132359569               0.000000000              -0.016127762               0.155337096               0.000000000              -0.019219245               0.178314623               0.000000000              -0.022310727               0.201292150               0.000000000              -0.025402210               0.224269676               0.000000000              -0.028493692               0.247247203               0.000000000              -0.031585175               0.270224730               0.000000000              -0.034676657               0.293202257               0.000000000              -0.037768140               0.316179784               0.000000000              -0.040859622               0.339157311               0.000000000              -0.043951105               0.362134838               0.000000000              -0.047042587               0.385112365               0.000000000              -0.050134070               0.408089892               0.000000000              -0.053225552               0.431067419               0.000000000              -0.056317035               0.454044946               0.000000000              -0.059408517               0.477022473               0.000000000              -0.062500000               0.500000000               0.000000000               0.000000000               0.133000000               0.000000000               0.000000000               0.155937500               0.000000000               0.000000000               0.178875000               0.000000000               0.000000000               0.201812500               0.000000000               0.000000000               0.224750000               0.000000000               0.000000000               0.247687500               0.000000000               0.000000000               0.270625000               0.000000000               0.000000000               0.293562500               0.000000000               0.000000000               0.316500000               0.000000000               0.000000000               0.339437500               0.000000000               0.000000000               0.362375000               0.000000000               0.000000000               0.385312500               0.000000000               0.000000000               0.408250000               0.000000000               0.000000000               0.431187500               0.000000000               0.000000000               0.454125000               0.000000000               0.000000000               0.477062500               0.000000000               0.000000000               0.500000000               0.000000000 </DataArray>
</Points>
<Cells>
<DataArray type="Int32"                                    Name="connectivity"                                                      NumberOfComponents=" 1" format="ascii">
         0          1         18         17          1          2         19         18          2          3         20         19          3          4         21         20          4          5         22         21          5          6         23         22          6          7         24         23          7          8         25         24          8          9         26         25          9         10         27         26         10         11         28         27         11         12         29         28         12         13         30         29         13         14         31         30         14         15         32         31         15         16         33         32         17         18         35         34         18         19         36         35         19         20         37         36         20         21         38         37         21         22         39         38         22         23         40         39         23         24         41         40         24         25         42         41         25         26         43         42         26         27         44         43         27         28         45         44         28         29         46         45         29         30         47         46         30         31         48         47         31         32         49         48         32         33         50         49         34         35         52         51         35         36         53         52         36         37         54         53         37         38         55         54         38         39         56         55         39         40         57         56         40         41         58         57         41         42         59         58         42         43         60         59         43         44         61         60         44         45         62         61         45         46         63         62         46         47         64         63         47         48         65         64         48         49         66         65         49         50         67         66         51         52         69         68         52         53         70         69         53         54         71         70         54         55         72         71         55         56         73         72         56         57         74         73         57         58         75         74         58         59         76         75         59         60         77         76         60         61         78         77         61         62         79         78         62         63         80         79         63         64         81         80         64         65         82         81         65         66         83         82         66         67         84         83         68         69         86         85         69         70         87         86         70         71         88         87         71         72         89         88         72         73         90         89         73         74         91         90         74         75         92         91         75         76         93         92         76         77         94         93         77         78         95         94         78         79         96         95         79         80         97         96         80         81         98         97         81         82         99         98         82         83        100         99         83         84        101        100         85         86        103        102         86         87        104        103         87         88        105        104         88         89        106        105         89         90        107        106         90         91        108        107         91         92        109        108         92         93        110        109         93         94        111        110         94         95        112        111         95         96        113        112         96         97        114        113         97         98        115        114         98         99        116        115         99        100        117        116        100        101        118        117        102        103        120        119        103        104        121        120        104        105        122        121        105        106        123        122        106        107        124        123        107        108        125        124        108        109        126        125        109        110        127        126        110        111        128        127        111        112        129        128        112        113        130        129        113        114        131        130        114        115        132        131        115        116        133        132        116        117        134        133        117        118        135        134        119        120        137        136        120        121        138        137        121        122        139        138        122        123        140        139        123        124        141        140        124        125        142        141        125        126        143        142        126        127        144        143        127        128        145        144        128        129        146        145        129        130        147        146        130        131        148        147        131        132        149        148        132        133        150        149        133        134        151        150        134        135        152        151        136        137        154        153        137        138        155        154        138        139        156        155        139        140        157        156        140        141        158        157        141        142        159        158        142        143        160        159        143        144        161        160        144        145        162        161        145        146        163        162        146        147        164        163        147        148        165        164        148        149        166        165        149        150        167        166        150        151        168        167        151        152        169        168        153        154        171        170        154        155        172        171        155        156        173        172        156        157        174        173        157        158        175        174        158        159        176        175        159        160        177        176        160        161        178        177        161        162        179        178        162        163        180        179        163        164        181        180        164        165        182        181        165        166        183        182        166        167        184        183        167        168        185        184        168        169        186        185        170        171        188        187        171        172        189        188        172        173        190        189        173        174        191        190        174        175        192        191        175        176        193        192        176        177        194        193        177        178        195        194        178        179        196        195        179        180        197        196        180        181        198        197        181        182        199        198        182        183        200        199        183        184        201        200        184        185        202        201        185        186        203        202        187        188        205        204        188        189        206        205        189        190        207        206        190        191        208        207        191        192        209        208        192        193        210        209        193        194        211        210        194        195        212        211        195        196        213        212        196        197        214        213        197        198        215        214        198        199        216        215        199        200        217        216        200        201        218        217        201        202        219        218        202        203        220        219        204        205        222        221        205        206        223        222        206        207        224        223        207        208        225        224        208        209        226        225        209        210        227        226        210        211        228        227        211        212        229        228        212        213        230        229        213        214        231        230        214        215        232        231        215        216        233        232        216        217        234        233        217        218        235        234        218        219        236        235        219        220        237        236        221        222        239        238        222        223        240        239        223        224        241        240        224        225        242        241        225        226        243        242        226        227        244        243        227        228        245        244        228        229        246        245        229        230        247        246        230        231        248        247        231        232        249        248        232        233        250        249        233        234        251        250        234        235        252        251        235        236        253        252        236        237        254        253        238        239        256        255        239        240        257        256        240        241        258        257        241        242        259        258        242        243        260        259        243        244        261        260        244        245        262        261        245        246        263        262        246        247        264        263        247        248        265        264        248        249        266        265        249        250        267        266        250        251        268        267        251        252        269        268        252        253        270        269        253        254        271        270        255        256        273        272        256        257        274        273        257        258        275        274        258        259        276        275        259        260        277        276        260        261        278        277        261        262        279        278        262        263        280        279        263        264        281        280        264        265        282        281        265        266        283        282        266        267        284        283        267        268        285        284        268        269        286        285        269        270        287        286        270        271        288        287        306        307          1          0        307        308          2          1        308        309          3          2        309        310          4          3        310        311          5          4        311        312          6          5        312        313          7          6        313        314          8          7        314        315          9          8        315        316         10          9        316        317         11         10        317        318         12         11        318        319         13         12        319        320         14         13        320        321         15         14        321        322         16         15        323        324        307        306        324        325        308        307        325        326        309        308        326        327        310        309        327        328        311        310        328        329        312        311        329        330        313        312        330        331        314        313        331        332        315        314        332        333        316        315        333        334        317        316        334        335        318        317        335        336        319        318        336        337        320        319        337        338        321        320        338        339        322        321        340        341        324        323        341        342        325        324        342        343        326        325        343        344        327        326        344        345        328        327        345        346        329        328        346        347        330        329        347        348        331        330        348        349        332        331        349        350        333        332        350        351        334        333        351        352        335        334        352        353        336        335        353        354        337        336        354        355        338        337        355        356        339        338        357        358        341        340        358        359        342        341        359        360        343        342        360        361        344        343        361        362        345        344        362        363        346        345        363        364        347        346        364        365        348        347        365        366        349        348        366        367        350        349        367        368        351        350        368        369        352        351        369        370        353        352        370        371        354        353        371        372        355        354        372        373        356        355        374        375        358        357        375        376        359        358        376        377        360        359        377        378        361        360        378        379        362        361        379        380        363        362        380        381        364        363        381        382        365        364        382        383        366        365        383        384        367        366        384        385        368        367        385        386        369        368        386        387        370        369        387        388        371        370        388        389        372        371        389        390        373        372        391        392        375        374        392        393        376        375        393        394        377        376        394        395        378        377        395        396        379        378        396        397        380        379        397        398        381        380        398        399        382        381        399        400        383        382        400        401        384        383        401        402        385        384        402        403        386        385        403        404        387        386        404        405        388        387        405        406        389        388        406        407        390        389        408        409        392        391        409        410        393        392        410        411        394        393        411        412        395        394        412        413        396        395        413        414        397        396        414        415        398        397        415        416        399        398        416        417        400        399        417        418        401        400        418        419        402        401        419        420        403        402        420        421        404        403        421        422        405        404        422        423        406        405        423        424        407        406        425        426        409        408        426        427        410        409        427        428        411        410        428        429        412        411        429        430        413        412        430        431        414        413        431        432        415        414        432        433        416        415        433        434        417        416        434        435        418        417        435        436        419        418        436        437        420        419        437        438        421        420        438        439        422        421        439        440        423        422        440        441        424        423        442        443        426        425        443        444        427        426        444        445        428        427        445        446        429        428        446        447        430        429        447        448        431        430        448        449        432        431        449        450        433        432        450        451        434        433        451        452        435        434        452        453        436        435        453        454        437        436        454        455        438        437        455        456        439        438        456        457        440        439        457        458        441        440        459        460        443        442        460        461        444        443        461        462        445        444        462        463        446        445        463        464        447        446        464        465        448        447        465        466        449        448        466        467        450        449        467        468        451        450        468        469        452        451        469        470        453        452        470        471        454        453        471        472        455        454        472        473        456        455        473        474        457        456        474        475        458        457        476        477        460        459        477        478        461        460        478        479        462        461        479        480        463        462        480        481        464        463        481        482        465        464        482        483        466        465        483        484        467        466        484        485        468        467        485        486        469        468        486        487        470        469        487        488        471        470        488        489        472        471        489        490        473        472        490        491        474        473        491        492        475        474        493        494        477        476        494        495        478        477        495        496        479        478        496        497        480        479        497        498        481        480        498        499        482        481        499        500        483        482        500        501        484        483        501        502        485        484        502        503        486        485        503        504        487        486        504        505        488        487        505        506        489        488        506        507        490        489        507        508        491        490        508        509        492        491        510        511        494        493        511        512        495        494        512        513        496        495        513        514        497        496        514        515        498        497        515        516        499        498        516        517        500        499        517        518        501        500        518        519        502        501        519        520        503        502        520        521        504        503        521        522        505        504        522        523        506        505        523        524        507        506        524        525        508        507        525        526        509        508        527        528        511        510        528        529        512        511        529        530        513        512        530        531        514        513        531        532        515        514        532        533        516        515        533        534        517        516        534        535        518        517        535        536        519        518        536        537        520        519        537        538        521        520        538        539        522        521        539        540        523        522        540        541        524        523        541        542        525        524        542        543        526        525        544        545        528        527        545        546        529        528        546        547        530        529        547        548        531        530        548        549        532        531        549        550        533        532        550        551        534        533        551        552        535        534        552        553        536        535        553        554        537        536        554        555        538        537        555        556        539        538        556        557        540        539        557        558        541        540        558        559        542        541        559        560        543        542        561        562        545        544        562        563        546        545        563        564        547        546        564        565        548        547        565        566        549        548        566        567        550        549        567        568        551        550        568        569        552        551        569        570        553        552        570        571        554        553        571        572        555        554        572        573        556        555        573        574        557        556        574        575        558        557        575        576        559        558        576        577        560        559        578        579        596        595        579        580        597        596        580        581        598        597        581        582        599        598        582        583        600        599        583        584        601        600        584        585        602        601        585        586        603        602        586        587        604        603        587        588        605        604        588        589        606        605        589        590        607        606        590        591        608        607        591        592        609        608        592        593        610        609        593        594        611        610        595        596        613        612        596        597        614        613        597        598        615        614        598        599        616        615        599        600        617        616        600        601        618        617        601        602        619        618        602        603        620        619        603        604        621        620        604        605        622        621        605        606        623        622        606        607        624        623        607        608        625        624        608        609        626        625        609        610        627        626        610        611        628        627        612        613        630        629        613        614        631        630        614        615        632        631        615        616        633        632        616        617        634        633        617        618        635        634        618        619        636        635        619        620        637        636        620        621        638        637        621        622        639        638        622        623        640        639        623        624        641        640        624        625        642        641        625        626        643        642        626        627        644        643        627        628        645        644        629        630        647        646        630        631        648        647        631        632        649        648        632        633        650        649        633        634        651        650        634        635        652        651        635        636        653        652        636        637        654        653        637        638        655        654        638        639        656        655        639        640        657        656        640        641        658        657        641        642        659        658        642        643        660        659        643        644        661        660        644        645        662        661        646        647        664        663        647        648        665        664        648        649        666        665        649        650        667        666        650        651        668        667        651        652        669        668        652        653        670        669        653        654        671        670        654        655        672        671        655        656        673        672        656        657        674        673        657        658        675        674        658        659        676        675        659        660        677        676        660        661        678        677        661        662        679        678        663        664        681        680        664        665        682        681        665        666        683        682        666        667        684        683        667        668        685        684        668        669        686        685        669        670        687        686        670        671        688        687        671        672        689        688        672        673        690        689        673        674        691        690        674        675        692        691        675        676        693        692        676        677        694        693        677        678        695        694        678        679        696        695        680        681        698        697        681        682        699        698        682        683        700        699        683        684        701        700        684        685        702        701        685        686        703        702        686        687        704        703        687        688        705        704        688        689        706        705        689        690        707        706        690        691        708        707        691        692        709        708        692        693        710        709        693        694        711        710        694        695        712        711        695        696        713        712        697        698        715        714        698        699        716        715        699        700        717        716        700        701        718        717        701        702        719        718        702        703        720        719        703        704        721        720        704        705        722        721        705        706        723        722        706        707        724        723        707        708        725        724        708        709        726        725        709        710        727        726        710        711        728        727        711        712        729        728        712        713        730        729        714        715        732        731        715        716        733        732        716        717        734        733        717        718        735        734        718        719        736        735        719        720        737        736        720        721        738        737        721        722        739        738        722        723        740        739        723        724        741        740        724        725        742        741        725        726        743        742        726        727        744        743        727        728        745        744        728        729        746        745        729        730        747        746        731        732        749        748        732        733        750        749        733        734        751        750        734        735        752        751        735        736        753        752        736        737        754        753        737        738        755        754        738        739        756        755        739        740        757        756        740        741        758        757        741        742        759        758        742        743        760        759        743        744        761        760        744        745        762        761        745        746        763        762        746        747        764        763        748        749        766        765        749        750        767        766        750        751        768        767        751        752        769        768        752        753        770        769        753        754        771        770        754        755        772        771        755        756        773        772        756        757        774        773        757        758        775        774        758        759        776        775        759        760        777        776        760        761        778        777        761        762        779        778        762        763        780        779        763        764        781        780        765        766        783        782        766        767        784        783        767        768        785        784        768        769        786        785        769        770        787        786        770        771        788        787        771        772        789        788        772        773        790        789        773        774        791        790        774        775        792        791        775        776        793        792        776        777        794        793        777        778        795        794        778        779        796        795        779        780        797        796        780        781        798        797        782        783        800        799        783        784        801        800        784        785        802        801        785        786        803        802        786        787        804        803        787        788        805        804        788        789        806        805        789        790        807        806        790        791        808        807        791        792        809        808        792        793        810        809        793        794        811        810        794        795        812        811        795        796        813        812        796        797        814        813        797        798        815        814        799        800        817        816        800        801        818        817        801        802        819        818        802        803        820        819        803        804        821        820        804        805        822        821        805        806        823        822        806        807        824        823        807        808        825        824        808        809        826        825        809        810        827        826        810        811        828        827        811        812        829        828        812        813        830        829        813        814        831        830        814        815        832        831        816        817        834        833        817        818        835        834        818        819        836        835        819        820        837        836        820        821        838        837        821        822        839        838        822        823        840        839        823        824        841        840        824        825        842        841        825        826        843        842        826        827        844        843        827        828        845        844        828        829        846        845        829        830        847        846        830        831        848        847        831        832        849        848        833        834        562        561        834        835        563        562        835        836        564        563        836        837        565        564        837        838        566        565        838        839        567        566        839        840        568        567        840        841        569        568        841        842        570        569        842        843        571        570        843        844        572        571        844        845        573        572        845        846        574        573        846        847        575        574        847        848        576        575        848        849        577        576        884        885        579        578        885        886        580        579        886        887        581        580        887        888        582        581        888        889        583        582        889        890        584        583        890        891        585        584        891        892        586        585        892        893        587        586        893        894        588        587        894        895        589        588        895        896        590        589        896        897        591        590        897        898        592        591        898        899        593        592        899        900        594        593        901        902        885        884        902        903        886        885        903        904        887        886        904        905        888        887        905        906        889        888        906        907        890        889        907        908        891        890        908        909        892        891        909        910        893        892        910        911        894        893        911        912        895        894        912        913        896        895        913        914        897        896        914        915        898        897        915        916        899        898        916        917        900        899        918        919        902        901        919        920        903        902        920        921        904        903        921        922        905        904        922        923        906        905        923        924        907        906        924        925        908        907        925        926        909        908        926        927        910        909        927        928        911        910        928        929        912        911        929        930        913        912        930        931        914        913        931        932        915        914        932        933        916        915        933        934        917        916        935        936        919        918        936        937        920        919        937        938        921        920        938        939        922        921        939        940        923        922        940        941        924        923        941        942        925        924        942        943        926        925        943        944        927        926        944        945        928        927        945        946        929        928        946        947        930        929        947        948        931        930        948        949        932        931        949        950        933        932        950        951        934        933        952        953        936        935        953        954        937        936        954        955        938        937        955        956        939        938        956        957        940        939        957        958        941        940        958        959        942        941        959        960        943        942        960        961        944        943        961        962        945        944        962        963        946        945        963        964        947        946        964        965        948        947        965        966        949        948        966        967        950        949        967        968        951        950        969        970        953        952        970        971        954        953        971        972        955        954        972        973        956        955        973        974        957        956        974        975        958        957        975        976        959        958        976        977        960        959        977        978        961        960        978        979        962        961        979        980        963        962        980        981        964        963        981        982        965        964        982        983        966        965        983        984        967        966        984        985        968        967        986        987        970        969        987        988        971        970        988        989        972        971        989        990        973        972        990        991        974        973        991        992        975        974        992        993        976        975        993        994        977        976        994        995        978        977        995        996        979        978        996        997        980        979        997        998        981        980        998        999        982        981        999       1000        983        982       1000       1001        984        983       1001       1002        985        984       1003       1004        987        986       1004       1005        988        987       1005       1006        989        988       1006       1007        990        989       1007       1008        991        990       1008       1009        992        991       1009       1010        993        992       1010       1011        994        993       1011       1012        995        994       1012       1013        996        995       1013       1014        997        996       1014       1015        998        997       1015       1016        999        998       1016       1017       1000        999       1017       1018       1001       1000       1018       1019       1002       1001       1020       1021       1004       1003       1021       1022       1005       1004       1022       1023       1006       1005       1023       1024       1007       1006       1024       1025       1008       1007       1025       1026       1009       1008       1026       1027       1010       1009       1027       1028       1011       1010       1028       1029       1012       1011       1029       1030       1013       1012       1030       1031       1014       1013       1031       1032       1015       1014       1032       1033       1016       1015       1033       1034       1017       1016       1034       1035       1018       1017       1035       1036       1019       1018       1037       1038       1021       1020       1038       1039       1022       1021       1039       1040       1023       1022       1040       1041       1024       1023       1041       1042       1025       1024       1042       1043       1026       1025       1043       1044       1027       1026       1044       1045       1028       1027       1045       1046       1029       1028       1046       1047       1030       1029       1047       1048       1031       1030       1048       1049       1032       1031       1049       1050       1033       1032       1050       1051       1034       1033       1051       1052       1035       1034       1052       1053       1036       1035       1054       1055       1038       1037       1055       1056       1039       1038       1056       1057       1040       1039       1057       1058       1041       1040       1058       1059       1042       1041       1059       1060       1043       1042       1060       1061       1044       1043       1061       1062       1045       1044       1062       1063       1046       1045       1063       1064       1047       1046       1064       1065       1048       1047       1065       1066       1049       1048       1066       1067       1050       1049       1067       1068       1051       1050       1068       1069       1052       1051       1069       1070       1053       1052       1071       1072       1055       1054       1072       1073       1056       1055       1073       1074       1057       1056       1074       1075       1058       1057       1075       1076       1059       1058       1076       1077       1060       1059       1077       1078       1061       1060       1078       1079       1062       1061       1079       1080       1063       1062       1080       1081       1064       1063       1081       1082       1065       1064       1082       1083       1066       1065       1083       1084       1067       1066       1084       1085       1068       1067       1085       1086       1069       1068       1086       1087       1070       1069       1088       1089       1072       1071       1089       1090       1073       1072       1090       1091       1074       1073       1091       1092       1075       1074       1092       1093       1076       1075       1093       1094       1077       1076       1094       1095       1078       1077       1095       1096       1079       1078       1096       1097       1080       1079       1097       1098       1081       1080       1098       1099       1082       1081       1099       1100       1083       1082       1100       1101       1084       1083       1101       1102       1085       1084       1102       1103       1086       1085       1103       1104       1087       1086       1105       1106       1089       1088       1106       1107       1090       1089       1107       1108       1091       1090       1108       1109       1092       1091       1109       1110       1093       1092       1110       1111       1094       1093       1111       1112       1095       1094       1112       1113       1096       1095       1113       1114       1097       1096       1114       1115       1098       1097       1115       1116       1099       1098       1116       1117       1100       1099       1117       1118       1101       1100       1118       1119       1102       1101       1119       1120       1103       1102       1120       1121       1104       1103       1122       1123       1106       1105       1123       1124       1107       1106       1124       1125       1108       1107       1125       1126       1109       1108       1126       1127       1110       1109       1127       1128       1111       1110       1128       1129       1112       1111       1129       1130       1113       1112       1130       1131       1114       1113       1131       1132       1115       1114       1132       1133       1116       1115       1133       1134       1117       1116       1134       1135       1118       1117       1135       1136       1119       1118       1136       1137       1120       1119       1137       1138       1121       1120        272        273       1123       1122        273        274       1124       1123        274        275       1125       1124        275        276       1126       1125        276        277       1127       1126        277        278       1128       1127        278        279       1129       1128        279        280       1130       1129        280        281       1131       1130        281        282       1132       1131        282        283       1133       1132        283        284       1134       1133        284        285       1135       1134        285        286       1136       1135        286        287       1137       1136        287        288       1138       1137 </DataArray>
<DataArray type="Int32"                                    Name="offsets"                                                      NumberOfComponents=" 1" format="ascii">
         4          8         12         16         20         24         28         32         36         40         44         48         52         56         60         64         68         72         76         80         84         88         92         96        100        104        108        112        116        120        124        128        132        136        140        144        148        152        156        160        164        168        172        176        180        184        188        192        196        200        204        208        212        216        220        224        228        232        236        240        244        248        252        256        260        264        268        272        276        280        284        288        292        296        300        304        308        312        316        320        324        328        332        336        340        344        348        352        356        360        364        368        372        376        380        384        388        392        396        400        404        408        412        416        420        424        428        432        436        440        444        448        452        456        460        464        468        472        476        480        484        488        492        496        500        504        508        512        516        520        524        528        532        536        540        544        548        552        556        560        564        568        572        576        580        584        588        592        596        600        604        608        612        616        620        624        628        632        636        640        644        648        652        656        660        664        668        672        676        680        684        688        692        696        700        704        708        712        716        720        724        728        732        736        740        744        748        752        756        760        764        768        772        776        780        784        788        792        796        800        804        808        812        816        820        824        828        832        836        840        844        848        852        856        860        864        868        872        876        880        884        888        892        896        900        904        908        912        916        920        924        928        932        936        940        944        948        952        956        960        964        968        972        976        980        984        988        992        996       1000       1004       1008       1012       1016       1020       1024       1028       1032       1036       1040       1044       1048       1052       1056       1060       1064       1068       1072       1076       1080       1084       1088       1092       1096       1100       1104       1108       1112       1116       1120       1124       1128       1132       1136       1140       1144       1148       1152       1156       1160       1164       1168       1172       1176       1180       1184       1188       1192       1196       1200       1204       1208       1212       1216       1220       1224       1228       1232       1236       1240       1244       1248       1252       1256       1260       1264       1268       1272       1276       1280       1284       1288       1292       1296       1300       1304       1308       1312       1316       1320       1324       1328       1332       1336       1340       1344       1348       1352       1356       1360       1364       1368       1372       1376       1380       1384       1388       1392       1396       1400       1404       1408       1412       1416       1420       1424       1428       1432       1436       1440       1444       1448       1452       1456       1460       1464       1468       1472       1476       1480       1484       1488       1492       1496       1500       1504       1508       1512       1516       1520       1524       1528       1532       1536       1540       1544       1548       1552       1556       1560       1564       1568       1572       1576       1580       1584       1588       1592       1596       1600       1604       1608       1612       1616       1620       1624       1628       1632       1636       1640       1644       1648       1652       1656       1660       1664       1668       1672       1676       1680       1684       1688       1692       1696       1700       1704       1708       1712       1716       1720       1724       1728       1732       1736       1740       1744       1748       1752       1756       1760       1764       1768       1772       1776       1780       1784       1788       1792       1796       1800       1804       1808       1812       1816       1820       1824       1828       1832       1836       1840       1844       1848       1852       1856       1860       1864       1868       1872       1876       1880       1884       1888       1892       1896       1900       1904       1908       1912       1916       1920       1924       1928       1932       1936       1940       1944       1948       1952       1956       1960       1964       1968       1972       1976       1980       1984       1988       1992       1996       2000       2004       2008       2012       2016       2020       2024       2028       2032       2036       2040       2044       2048       2052       2056       2060       2064       2068       2072       2076       2080       2084       2088       2092       2096       2100       2104       2108       2112       2116       2120       2124       2128       2132       2136       2140       2144       2148       2152       2156       2160       2164       2168       2172       2176       2180       2184       2188       2192       2196       2200       2204       2208       2212       2216       2220       2224       2228       2232       2236       2240       2244       2248       2252       2256       2260       2264       2268       2272       2276       2280       2284       2288       2292       2296       2300       2304       2308       2312       2316       2320       2324       2328       2332       2336       2340       2344       2348       2352       2356       2360       2364       2368       2372       2376       2380       2384       2388       2392       2396       2400       2404       2408       2412       2416       2420       2424       2428       2432       2436       2440       2444       2448       2452       2456       2460       2464       2468       2472       2476       2480       2484       2488       2492       2496       2500       2504       2508       2512       2516       2520       2524       2528       2532       2536       2540       2544       2548       2552       2556       2560       2564       2568       2572       2576       2580       2584       2588       2592       2596       2600       2604       2608       2612       2616       2620       2624       2628       2632       2636       2640       2644       2648       2652       2656       2660       2664       2668       2672       2676       2680       2684       2688       2692       2696       2700       2704       2708       2712       2716       2720       2724       2728       2732       2736       2740       2744       2748       2752       2756       2760       2764       2768       2772       2776       2780       2784       2788       2792       2796       2800       2804       2808       2812       2816       2820       2824       2828       2832       2836       2840       2844       2848       2852       2856       2860       2864       2868       2872       2876       2880       2884       2888       2892       2896       2900       2904       2908       2912       2916       2920       2924       2928       2932       2936       2940       2944       2948       2952       2956       2960       2964       2968       2972       2976       2980       2984       2988       2992       2996       3000       3004       3008       3012       3016       3020       3024       3028       3032       3036       3040       3044       3048       3052       3056       3060       3064       3068       3072       3076       3080       3084       3088       3092       3096       3100       3104       3108       3112       3116       3120       3124       3128       3132       3136       3140       3144       3148       3152       3156       3160       3164       3168       3172       3176       3180       3184       3188       3192       3196       3200       3204       3208       3212       3216       3220       3224       3228       3232       3236       3240       3244       3248       3252       3256       3260       3264       3268       3272       3276       3280       3284       3288       3292       3296       3300       3304       3308       3312       3316       3320       3324       3328       3332       3336       3340       3344       3348       3352       3356       3360       3364       3368       3372       3376       3380       3384       3388       3392       3396       3400       3404       3408       3412       3416       3420       3424       3428       3432       3436       3440       3444       3448       3452       3456       3460       3464       3468       3472       3476       3480       3484       3488       3492       3496       3500       3504       3508       3512       3516       3520       3524       3528       3532       3536       3540       3544       3548       3552       3556       3560       3564       3568       3572       3576       3580       3584       3588       3592       3596       3600       3604       3608       3612       3616       3620       3624       3628       3632       3636       3640       3644       3648       3652       3656       3660       3664       3668       3672       3676       3680       3684       3688       3692       3696       3700       3704       3708       3712       3716       3720       3724       3728       3732       3736       3740       3744       3748       3752       3756       3760       3764       3768       3772       3776       3780       3784       3788       3792       3796       3800       3804       3808       3812       3816       3820       3824       3828       3832       3836       3840       3844       3848       3852       3856       3860       3864       3868       3872       3876       3880       3884       3888       3892       3896       3900       3904       3908       3912       3916       3920       3924       3928       3932       3936       3940       3944       3948       3952       3956       3960       3964       3968       3972       3976       3980       3984       3988       3992       3996       4000       4004       4008       4012       4016       4020       4024       4028       4032       4036       4040       4044       4048       4052       4056       4060       4064       4068       4072       4076       4080       4084       4088       4092       4096 </DataArray>
<DataArray type="UInt8"                                    Name="types"                                                      NumberOfComponents=" 1" format="ascii">
         9          9          9          9          9          9          9          9          9          9          9          9          9          9          9          9          9          9          9          9          9          9          9          9          9          9          9          9          9          9          9          9          9          9          9          9          9          9          9          9          9          9          9          9          9          9          9          9          9          9          9          9          9          9          9          9          9          9          9          9          9          9          9          9          9          9          9          9          9          9          9          9          9          9          9          9          9          9          9          9          9          9          9          9          9          9          9          9          9          9          9          9          9          9          9          9          9          9          9          9          9          9          9          9          9          9          9          9          9          9          9          9          9          9          9          9          9          9          9          9          9          9          9          9          9          9          9          9          9          9          9          9          9          9          9          9          9          9          9          9          9          9          9          9          9          9          9          9          9          9          9          9          9          9          9          9          9          9          9          9          9          9          9          9          9          9          9          9          9          9          9          9          9          9          9          9          9          9          9          9          9          9          9          9          9          9          9          9          9          9          9          9          9          9          9          9          9          9          9          9          9          9          9          9          9          9          9          9          9          9          9          9          9          9          9          9          9          9          9          9          9          9          9          9          9          9          9          9          9          9          9          9          9          9          9          9          9          9          9          9          9          9          9          9          9          9          9          9          9          9          9          9          9          9          9          9          9          9          9          9          9          9          9          9          9          9          9          9          9          9          9          9          9          9          9          9          9          9          9          9          9          9          9          9          9          9          9          9          9          9          9          9          9          9          9          9          9          9          9          9          9          9          9          9          9          9          9          9          9          9          9          9          9          9          9          9          9          9          9          9          9          9          9          9          9          9          9          9          9          9          9          9          9          9          9          9          9          9          9          9          9          9          9          9          9          9          9          9          9          9          9          9          9          9          9          9          9          9          9          9          9          9          9          9          9          9          9          9          9          9          9          9          9          9          9          9          9          9          9          9          9          9          9          9          9          9          9          9          9          9          9          9          9          9          9          9          9          9          9          9          9          9          9          9          9          9          9          9          9          9          9          9          9          9          9          9          9          9          9          9          9          9          9          9          9          9          9          9          9          9          9          9          9          9          9          9          9          9          9          9          9          9          9          9          9          9          9          9          9          9          9          9          9          9          9          9          9          9          9          9          9          9          9          9          9          9          9          9          9          9          9          9          9          9          9          9          9          9          9          9          9          9          9          9          9          9          9          9          9          9          9          9          9          9          9          9          9          9          9          9          9          9          9          9          9          9          9          9          9          9          9          9          9          9          9          9          9          9          9          9          9          9          9          9          9          9          9          9          9          9          9          9          9          9          9          9          9          9          9          9          9          9          9          9          9          9          9          9          9          9          9          9          9          9          9          9          9          9          9          9          9          9          9          9          9          9          9          9          9          9          9          9          9          9          9          9          9          9          9          9          9          9          9          9          9          9          9          9          9          9          9          9          9          9          9          9          9          9          9          9          9          9          9          9          9          9          9          9          9          9          9          9          9          9          9          9          9          9          9          9          9          9          9          9          9          9          9          9          9          9          9          9          9          9          9          9          9          9          9          9          9          9          9          9          9          9          9          9          9          9          9          9          9          9          9          9          9          9          9          9          9          9          9          9          9          9          9          9          9          9          9          9          9          9          9          9          9          9          9          9          9          9          9          9          9          9          9          9          9          9          9          9          9          9          9          9          9          9          9          9          9          9          9          9          9          9          9          9          9          9          9          9          9          9          9          9          9          9          9          9          9          9          9          9          9          9          9          9          9          9          9          9          9          9          9          9          9          9          9          9          9          9          9          9          9          9          9          9          9          9          9          9          9          9          9          9          9          9          9          9          9          9          9          9          9          9          9          9          9          9          9          9          9          9          9          9          9          9          9          9          9          9          9          9          9          9          9          9          9          9          9          9          9          9          9          9          9          9          9          9          9          9          9          9          9          9          9          9          9          9          9          9          9          9          9          9          9          9          9          9          9          9          9          9          9          9          9          9          9          9          9          9          9          9          9          9          9          9          9          9          9          9          9          9          9          9          9          9          9          9          9          9          9          9          9          9          9          9          9          9          9          9          9          9          9          9          9          9          9          9          9          9          9          9          9          9          9          9          9          9          9          9          9          9          9          9          9          9          9          9          9          9          9          9          9          9          9          9          9          9          9          9          9          9          9          9          9          9          9          9          9          9          9          9          9          9          9          9          9          9          9          9          9          9          9          9          9          9          9          9          9          9          9          9          9          9          9          9          9          9          9          9          9          9          9          9          9          9          9          9          9          9          9          9          9          9          9          9          9          9          9          9          9          9          9          9          9          9          9          9          9          9          9          9          9          9          9          9          9          9          9          9          9          9          9          9          9          9          9          9          9          9          9          9          9          9          9          9          9          9          9          9          9          9          9          9          9          9          9          9          9          9          9          9          9          9          9          9          9          9          9          9          9          9 </DataArray>
</Cells>
<CellData>
<DataArray type="Int32"                                    Name="material"                                                      NumberOfComponents=" 1" format="ascii">
         1          1          1          1          1          1          1          1          1          1          1          1          1          1          1          1          1          1          1          1          1          1          1          1          1          1          1          1          1          1          1          1          1          1          1          1          1          1          1          1          1          1          1          1          1          1          1          1          1          1          1          1          1          1          1          1          1          1          1          1          1          1          1          1          1          1          1          1          1          1          1          1          1          1          1          1          1          1          1          1          1          1          1          1          1          1          1          1          1          1          1          1          1          1          1          1          1          1          1          1          1          1          1          1          1          1          1          1          1          1          1          1          1          1          1          1          1          1          1          1          1          1          1          1          1          1          1          1          1          1          1          1          1          1          1          1          1          1          1          1          1          1          1          1          1          1          1          1          1          1          1          1          1          1          1          1          1          1          1          1          1          1          1          1          1          1          1          1          1          1          1          1          1          1          1          1          1          1          1          1          1          1          1          1          1          1          1          1          1          1          1          1          1          1          1          1          1          1          1          1          1          1          1          1          1          1          1          1          1          1          1          1          1          1          1          1          1          1          1          1          1          1          1          1          1          1          1          1          1          1          1          1          1          1          1          1          1          1          1          1          1          1          1          1          1          1          1          1          1          1          1          1          1          1          1          1          1          1          1          1          1          1          1          1          1          1          1          1          1          1          1          1          1          1          1          1          1          1          1          1          1          1          1          1          1          1          1          1          1          1          1          1          1          1          1          1          1          1          1          1          1          1          1          1          1          1          1          1          1          1          1          1          1          1          1          1          1          1          1          1          1          1          1          1          1          1          1          1          1          1          1          1          1          1          1          1          1          1          1          1          1          1          1          1          1          1          1          1          1          1          1          1          1          1          1          1          1          1          1          1          1          1          1          1          1          1          1          1          1          1          1          1          1          1          1          1          1          1          1          1          1          1          1          1          1          1          1          1          1          1          1          1          1          1          1          1          1          1          1          1          1          1          1          1          1          1          1          1          1          1          1          1          1          1          1          1          1          1          1          1          1          1          1          1          1          1          1          1          1          1          1          1          1          1          1          1          1          1          1          1          1          1          1          1          1          1          1          1          1          1          1          1          1          1          1          1          1          1          1          1          1          1          1          1          1          1          1          1          1          1          1          1          1          1          1          1          1          1          1          1          1          1          1          1          1          1          1          1          1          1          1          1          1          1          1          1          1          1          1          1          1          1          1          1          1          1          1          1          1          1          1          1          1          1          1          1          1          1          1          1          1          1          1          1          1          1          1          1          1          1          1          1          1          1          1          1          1          1          1          1          1          1          1          1          1          1          1          1          1          1          1          1          1          1          1          1          1          1          1          1          1          1          1          1          1          1          1          1          1          1          1          1          1          1          1          1          1          1          1          1          1          1          1          1          1          1          1          1          1          1          1          1          1          1          1          1          1          1          1          1          1          1          1          1          1          1          1          1          1          1          1          1          1          1          1          1          1          1          1          1          1          1          1          1          1          1          1          1          1          1          1          1          1          1          1          1          1          1          1          1          1          1          1          1          1          1          1          1          1          1          1          1          1          1          1          1          1          1          1          1          1          1          1          1          1          1          1          1          1          1          1          1          1          1          1          1          1          1          1          1          1          1          1          1          1          1          1          1          1          1          1          1          1          1          1          1          1          1          1          1          1          1          1          1          1          1          1          1          1          1          1          1          1          1          1          1          1          1          1          1          1          1          1          1          1          1          1          1          1          1          1          1          1          1          1          1          1          1          1          1          1          1          1          1          1          1          1          1          1          1          1          1          1          1          1          1          1          1          1          1          1          1          1          1          1          1          1          1          1          1          1          1          1          1          1          1          1          1          1          1          1          1          1          1          1          1          1          1          1          1          1          1          1          1          1          1          1          1          1          1          1          1          1          1          1          1          1          1          1          1          1          1          1          1          1          1          1          1          1          1          1          1          1          1          1          1          1          1          1          1          1          1          1          1          1          1          1          1          1          1          1          1          1          1          1          1          1          1          1          1          1          1          1          1          1          1          1          1          1          1          1          1          1          1          1          1          1          1          1          1          1          1          1          1          1          1          1          1          1          1          1          1          1          1          1          1          1          1          1          1          1          1          1          1          1          1          1          1          1          1          1          1          1          1          1          1          1          1          1          1          1          1          1          1          1          1          1          1          1          1          1          1          1          1          1          1          1          1          1          1          1          1          1          1          1          1          1          1          1          1          1          1          1          1          1          1          1          1          1          1          1          1          1          1          1          1          1          1          1          1          1          1          1          1          1          1          1          1          1          1          1          1          1          1          1          1          1          1          1          1          1          1          1          1          1          1          1          1          1          1          1          1          1          1          1          1          1          1          1          1          1          1          1          1          1          1          1          1          1          1          1          1          1          1          1          1          1          1          1          1          1          1          1          1 </DataArray>
</CellData>
<PointData>
<DataArray type="Float64"                                    Name="u"                                                      NumberOfComponents=" 3" format="ascii">
             -0.000170554               0.000000000               0.999999991              -0.000200184              -0.000000000               0.999999991              -0.000214229               0.000000000               0.999999991              -0.000222299               0.000000000               0.999999991              -0.000228326               0.000000000               0.999999991              -0.000234059               0.000000000               0.999999991              -0.000240316               0.000000000               0.999999991              -0.000247437              -0.000000000               0.999999991              -0.000255460               0.000000000               0.999999991              -0.000264495              -0.000000000               0.999999991              -0.000274596               0.000000000               0.999999991              -0.000285836               0.000000000               0.999999991              -0.000298205               0.000000000               0.999999991              -0.000311612               0.000000000               0.999999991              -0.000325892               0.000000000               0.999999991              -0.000340766               0.000000000               0.999999991              -0.000355995              -0.000000000               0.999999991              -0.000169797               0.000074258               0.999999991              -0.000197927               0.000064262               0.999999991              -0.000211024               0.000060875               0.999999991              -0.000218587               0.000060926               0.999999991              -0.000224346               0.000063068               0.999999991              -0.000229944               0.000066548               0.999999991              -0.000236158               0.000070962               0.999999991              -0.000243345               0.000075935               0.999999991              -0.000251555               0.000081245               0.999999991              -0.000260775               0.000086865               0.999999991              -0.000271042               0.000092904               0.999999991              -0.000282387               0.000099140               0.999999991              -0.000294754               0.000105318               0.999999991              -0.000308007               0.000111259               0.999999991              -0.000321999               0.000116687               0.999999991              -0.000336537               0.000121229               0.999999991              -0.000351319               0.000124515               0.999999991              -0.000167337               0.000147791               0.999999991              -0.000190969               0.000127826               0.999999991              -0.000201336               0.000121411               0.999999991              -0.000207407               0.000121967               0.999999991              -0.000212553               0.000126603               0.999999991              -0.000218054               0.000133829               0.999999991              -0.000224473               0.000142761               0.999999991              -0.000231945               0.000152788               0.999999991              -0.000240448               0.000163446               0.999999991              -0.000249988               0.000174818               0.999999991              -0.000260513               0.000186699               0.999999991              -0.000271968               0.000198750               0.999999991              -0.000284133               0.000210738               0.999999991              -0.000296838               0.000222244               0.999999991              -0.000310014               0.000232792               0.999999991              -0.000323441               0.000241870               0.999999991              -0.000336982               0.000248801               0.999999991              -0.000163000               0.000219750               0.999999991              -0.000179373               0.000190117               0.999999991              -0.000185867               0.000181412               0.999999991              -0.000190105               0.000183204               0.999999991              -0.000194686               0.000190827               0.999999991              -0.000200309               0.000202079               0.999999991              -0.000207159               0.000215669               0.999999991              -0.000215078               0.000230702               0.999999991              -0.000224042               0.000246763               0.999999991              -0.000234035               0.000263644               0.999999991              -0.000244859               0.000281085               0.999999991              -0.000256349               0.000298713               0.999999991              -0.000268253               0.000315956               0.999999991              -0.000280372               0.000332430               0.999999991              -0.000292562               0.000347818               0.999999991              -0.000304772               0.000361584               0.999999991              -0.000317071               0.000373379               0.999999991              -0.000156818               0.000289285               0.999999991              -0.000163865               0.000250719               0.999999991              -0.000166225               0.000240720               0.999999991              -0.000168978               0.000244336               0.999999991              -0.000173381               0.000255430               0.999999991              -0.000179498               0.000270940               0.999999991              -0.000187043               0.000289109               0.999999991              -0.000195746               0.000309030               0.999999991              -0.000205462               0.000330230               0.999999991              -0.000216072               0.000352393               0.999999991              -0.000227279               0.000375145               0.999999991              -0.000238781               0.000397785               0.999999991              -0.000250479               0.000419822               0.999999991              -0.000262138               0.000440989               0.999999991              -0.000273665               0.000461083               0.999999991              -0.000285096               0.000479863               0.999999991              -0.000296497               0.000497340               0.999999991              -0.000149012               0.000355656               0.999999991              -0.000145448               0.000309394               0.999999991              -0.000144000               0.000299168               0.999999991              -0.000145934               0.000305166               0.999999991              -0.000150800               0.000319913               0.999999991              -0.000157914               0.000339609               0.999999991              -0.000166641               0.000362156               0.999999991              -0.000176528               0.000386689               0.999999991              -0.000187259               0.000412813               0.999999991              -0.000198574               0.000440014               0.999999991              -0.000210206               0.000467519               0.999999991              -0.000221915               0.000494724               0.999999991              -0.000233468               0.000521249               0.999999991              -0.000244723               0.000546941               0.999999991              -0.000255741               0.000571845               0.999999991              -0.000266505               0.000595750               0.999999991              -0.000277056               0.000618822               0.999999991              -0.000139759               0.000418223               0.999999991              -0.000125105               0.000366010               0.999999991              -0.000120849               0.000356385               0.999999991              -0.000122947               0.000365069               0.999999991              -0.000129107               0.000383287               0.999999991              -0.000137830               0.000406944               0.999999991              -0.000148093               0.000433699               0.999999991              -0.000159211               0.000462734               0.999999991              -0.000170972               0.000493660               0.999999991              -0.000183091               0.000525380               0.999999991              -0.000195131               0.000557256               0.999999991              -0.000206822               0.000588750               0.999999991              -0.000218045               0.000619612               0.999999991              -0.000228788               0.000649812               0.999999991              -0.000239047               0.000679364               0.999999991              -0.000248892               0.000708116               0.999999991              -0.000258409               0.000735949               0.999999991              -0.000129182               0.000476400               0.999999991              -0.000103970               0.000420370               0.999999991              -0.000098263               0.000411906               0.999999991              -0.000101615               0.000423159               0.999999991              -0.000109640               0.000444703               0.999999991              -0.000120167               0.000472158               0.999999991              -0.000131955               0.000503073               0.999999991              -0.000144409               0.000536498               0.999999991              -0.000157246               0.000571778               0.999999991              -0.000169893               0.000607804               0.999999991              -0.000181989               0.000643731               0.999999991              -0.000193362               0.000679197               0.999999991              -0.000203937               0.000714169               0.999999991              -0.000213816               0.000748580               0.999999991              -0.000223154               0.000782408               0.999999991              -0.000232116               0.000815503               0.999999991              -0.000240667               0.000847704               0.999999991              -0.000117789               0.000529249               0.999999991              -0.000082802               0.000472531               0.999999991              -0.000077544               0.000465181               0.999999991              -0.000082800               0.000478735               0.999999991              -0.000092917               0.000503473               0.999999991              -0.000105301               0.000534610               0.999999991              -0.000118590               0.000569635               0.999999991              -0.000132208               0.000607343               0.999999991              -0.000145772               0.000646789               0.999999991              -0.000158632               0.000686669               0.999999991              -0.000170300               0.000726302               0.999999991              -0.000180883               0.000765577               0.999999991              -0.000190487               0.000804356               0.999999991              -0.000199546               0.000842611               0.999999991              -0.000208243               0.000880218               0.999999991              -0.000216734               0.000917120               0.999999991              -0.000225044               0.000953290               0.999999991              -0.000106425               0.000578649               0.999999991              -0.000066131               0.000528178               0.999999991              -0.000058462               0.000516604               0.999999991              -0.000062111               0.000525067               0.999999991              -0.000070868               0.000544817               0.999999991              -0.000082027               0.000571504               0.999999991              -0.000094009               0.000602620               0.999999991              -0.000106382               0.000636673               0.999999991              -0.000118903               0.000672773               0.999999991              -0.000131075               0.000709996               0.999999991              -0.000142033               0.000747430               0.999999991              -0.000151708               0.000784789               0.999999991              -0.000160175               0.000821981               0.999999991              -0.000167794               0.000858901               0.999999991              -0.000175070               0.000895510               0.999999991              -0.000182155               0.000931662               0.999999991              -0.000189335               0.000967296               0.999999991              -0.000093573               0.000623208               0.999999991              -0.000051627               0.000581393               0.999999991              -0.000041493               0.000568751               0.999999991              -0.000043209               0.000573325               0.999999991              -0.000050244               0.000588802               0.999999991              -0.000059754               0.000611442               0.999999991              -0.000070246               0.000638803               0.999999991              -0.000081168               0.000669376               0.999999991              -0.000092419               0.000702339               0.999999991              -0.000103590               0.000736795               0.999999991              -0.000113823               0.000771904               0.999999991              -0.000122726               0.000807214               0.999999991              -0.000130119               0.000842453               0.999999991              -0.000136227               0.000877677               0.999999991              -0.000141468               0.000912786               0.999999991              -0.000146320               0.000947867               0.999999991              -0.000151295               0.000982841               0.999999991              -0.000079705               0.000661951               0.999999991              -0.000039210               0.000630732               0.999999991              -0.000027448               0.000619400               0.999999991              -0.000027125               0.000621974               0.999999991              -0.000032070               0.000634276               0.999999991              -0.000039654               0.000653459               0.999999991              -0.000048433               0.000677506               0.999999991              -0.000057719               0.000704993               0.999999991              -0.000067462               0.000735057               0.999999991              -0.000077312               0.000767073               0.999999991              -0.000086511               0.000800124               0.999999991              -0.000094390               0.000833612               0.999999991              -0.000100752               0.000867167               0.999999991              -0.000105478               0.000900680               0.999999991              -0.000108731               0.000934149               0.999999991              -0.000110838               0.000967677               0.999999991              -0.000112434               0.001001457               0.999999991              -0.000065004               0.000694257               0.999999991              -0.000028842               0.000674245               0.999999991              -0.000016653               0.000666162               0.999999991              -0.000014622               0.000668544               0.999999991              -0.000017528               0.000679042               0.999999991              -0.000023047               0.000695719               0.999999991              -0.000029827               0.000717129               0.999999991              -0.000037374               0.000742060               0.999999991              -0.000045278               0.000769700               0.999999991              -0.000053407               0.000799610               0.999999991              -0.000061201               0.000831047               0.999999991              -0.000067917               0.000863239               0.999999991              -0.000073235               0.000895726               0.999999991              -0.000076730               0.000928189               0.999999991              -0.000078261               0.000960561               0.999999991              -0.000077737               0.000992917               0.999999991              -0.000075348               0.001025540               0.999999991              -0.000049571               0.000719814               0.999999991              -0.000020197               0.000710159               0.999999991              -0.000009002               0.000706361               0.999999991              -0.000006111               0.000709916               0.999999991              -0.000007361               0.000719910               0.999999991              -0.000010858               0.000735225               0.999999991              -0.000015714               0.000754805               0.999999991              -0.000021283               0.000777874               0.999999991              -0.000027254               0.000803680               0.999999991              -0.000033404               0.000831885               0.999999991              -0.000039483               0.000861957               0.999999991              -0.000044815               0.000893236               0.999999991              -0.000048964               0.000925310               0.999999991              -0.000051428               0.000957693               0.999999991              -0.000051694               0.000990091               0.999999991              -0.000049337               0.001022370               0.999999991              -0.000043769               0.001054618               0.999999991              -0.000033483               0.000738396               0.999999991              -0.000012762               0.000737132               0.999999991              -0.000004144               0.000737375               0.999999991              -0.000001459               0.000742610               0.999999991              -0.000001708               0.000752943               0.999999991              -0.000003662               0.000767726               0.999999991              -0.000006670               0.000786401               0.999999991              -0.000010282               0.000808384               0.999999991              -0.000014181               0.000833108               0.999999991              -0.000018245               0.000860157               0.999999991              -0.000022302               0.000889294               0.999999991              -0.000025874               0.000920090               0.999999991              -0.000028607               0.000952074               0.999999991              -0.000030190               0.000984825               0.999999991              -0.000030029               0.001017872               0.999999991              -0.000027432               0.001050923               0.999999991              -0.000021435               0.001083812               0.999999991              -0.000016877               0.000749723               0.999999991              -0.000006151               0.000753915               0.999999991              -0.000001473               0.000757018               0.999999991               0.000000139               0.000763579               0.999999991               0.000000175               0.000774425               0.999999991              -0.000000617               0.000789222               0.999999991              -0.000002037               0.000807589               0.999999991              -0.000003775               0.000829082               0.999999991              -0.000005765               0.000853285               0.999999991              -0.000007733               0.000879889               0.999999991              -0.000009633               0.000908522               0.999999991              -0.000011345               0.000938911               0.999999991              -0.000012689               0.000970717               0.999999991              -0.000013511               0.001003499               0.999999991              -0.000013431               0.001036934               0.999999991              -0.000011927               0.001070647               0.999999991              -0.000008446               0.001104345               0.999999991               0.000000000               0.000753538               0.999999991               0.000000000               0.000759597               0.999999991               0.000000000               0.000763752               0.999999991               0.000000000               0.000770825               0.999999991              -0.000000000               0.000781863               0.999999991              -0.000000000               0.000796737               0.999999991              -0.000000000               0.000815055               0.999999991              -0.000000000               0.000836410               0.999999991              -0.000000000               0.000860528               0.999999991              -0.000000000               0.000887051               0.999999991              -0.000000000               0.000915537               0.999999991               0.000000000               0.000945715               0.999999991               0.000000000               0.000977304               0.999999991               0.000000000               0.001009961               0.999999991               0.000000000               0.001043401               0.999999991               0.000000000               0.001077296               0.999999991               0.000000000               0.001111324               0.999999991              -0.000170554               0.000000000               0.999999991              -0.000200184              -0.000000000               0.999999991              -0.000214229               0.000000000               0.999999991              -0.000222299               0.000000000               0.999999991              -0.000228326               0.000000000               0.999999991              -0.000234059               0.000000000               0.999999991              -0.000240316               0.000000000               0.999999991              -0.000247437              -0.000000000               0.999999991              -0.000255460               0.000000000               0.999999991              -0.000264495              -0.000000000               0.999999991              -0.000274596               0.000000000               0.999999991              -0.000285836               0.000000000               0.999999991              -0.000298205               0.000000000               0.999999991              -0.000311612               0.000000000               0.999999991              -0.000325892               0.000000000               0.999999991              -0.000340766               0.000000000               0.999999991              -0.000355995              -0.000000000               0.999999991              -0.000169797              -0.000074258               0.999999991              -0.000197927              -0.000064262               0.999999991              -0.000211024              -0.000060875               0.999999991              -0.000218587              -0.000060926               0.999999991              -0.000224346              -0.000063068               0.999999991              -0.000229944              -0.000066548               0.999999991              -0.000236158              -0.000070962               0.999999991              -0.000243345              -0.000075935               0.999999991              -0.000251555              -0.000081245               0.999999991              -0.000260775              -0.000086865               0.999999991              -0.000271042              -0.000092904               0.999999991              -0.000282387              -0.000099140               0.999999991              -0.000294754              -0.000105318               0.999999991              -0.000308007              -0.000111259               0.999999991              -0.000321999              -0.000116687               0.999999991              -0.000336537              -0.000121229               0.999999991              -0.000351319              -0.000124515               0.999999991              -0.000167337              -0.000147791               0.999999991              -0.000190969              -0.000127826               0.999999991              -0.000201336              -0.000121411               0.999999991              -0.000207407              -0.000121967               0.999999991              -0.000212553              -0.000126603               0.999999991              -0.000218054              -0.000133829               0.999999991              -0.000224473              -0.000142761               0.999999991              -0.000231945              -0.000152788               0.999999991              -0.000240448              -0.000163446               0.999999991              -0.000249988              -0.000174818               0.999999991              -0.000260513              -0.000186699               0.999999991              -0.000271968              -0.000198750               0.999999991              -0.000284133              -0.000210738               0.999999991              -0.000296838              -0.000222244               0.999999991              -0.000310014              -0.000232792               0.999999991              -0.000323441              -0.000241870               0.999999991              -0.000336982              -0.000248801               0.999999991              -0.000163000              -0.000219750               0.999999991              -0.000179373              -0.000190117               0.999999991              -0.000185867              -0.000181412               0.999999991              -0.000190105              -0.000183204               0.999999991              -0.000194686              -0.000190827               0.999999991              -0.000200309              -0.000202079               0.999999991              -0.000207159              -0.000215669               0.999999991              -0.000215078              -0.000230702               0.999999991              -0.000224042              -0.000246763               0.999999991              -0.000234035              -0.000263644               0.999999991              -0.000244859              -0.000281085               0.999999991              -0.000256349              -0.000298713               0.999999991              -0.000268253              -0.000315956               0.999999991              -0.000280372              -0.000332430               0.999999991              -0.000292562              -0.000347818               0.999999991              -0.000304772              -0.000361584               0.999999991              -0.000317071              -0.000373379               0.999999991              -0.000156818              -0.000289285               0.999999991              -0.000163865              -0.000250719               0.999999991              -0.000166225              -0.000240720               0.999999991              -0.000168978              -0.000244336               0.999999991              -0.000173381              -0.000255430               0.999999991              -0.000179498              -0.000270940               0.999999991              -0.000187043              -0.000289109               0.999999991              -0.000195746              -0.000309030               0.999999991              -0.000205462              -0.000330230               0.999999991              -0.000216072              -0.000352393               0.999999991              -0.000227279              -0.000375145               0.999999991              -0.000238781              -0.000397785               0.999999991              -0.000250479              -0.000419822               0.999999991              -0.000262138              -0.000440989               0.999999991              -0.000273665              -0.000461083               0.999999991              -0.000285096              -0.000479863               0.999999991              -0.000296497              -0.000497340               0.999999991              -0.000149012              -0.000355656               0.999999991              -0.000145448              -0.000309394               0.999999991              -0.000144000              -0.000299168               0.999999991              -0.000145934              -0.000305166               0.999999991              -0.000150800              -0.000319913               0.999999991              -0.000157914              -0.000339609               0.999999991              -0.000166641              -0.000362156               0.999999991              -0.000176528              -0.000386689               0.999999991              -0.000187259              -0.000412813               0.999999991              -0.000198574              -0.000440014               0.999999991              -0.000210206              -0.000467519               0.999999991              -0.000221915              -0.000494724               0.999999991              -0.000233468              -0.000521249               0.999999991              -0.000244723              -0.000546941               0.999999991              -0.000255741              -0.000571845               0.999999991              -0.000266505              -0.000595750               0.999999991              -0.000277056              -0.000618822               0.999999991              -0.000139759              -0.000418223               0.999999991              -0.000125105              -0.000366010               0.999999991              -0.000120849              -0.000356385               0.999999991              -0.000122947              -0.000365069               0.999999991              -0.000129107              -0.000383287               0.999999991              -0.000137830              -0.000406944               0.999999991              -0.000148093              -0.000433699               0.999999991              -0.000159211              -0.000462734               0.999999991              -0.000170972              -0.000493660               0.999999991              -0.000183091              -0.000525380               0.999999991              -0.000195131              -0.000557256               0.999999991              -0.000206822              -0.000588750               0.999999991              -0.000218045              -0.000619612               0.999999991              -0.000228788              -0.000649812               0.999999991              -0.000239047              -0.000679364               0.999999991              -0.000248892              -0.000708116               0.999999991              -0.000258409              -0.000735949               0.999999991              -0.000129182              -0.000476400               0.999999991              -0.000103970              -0.000420370               0.999999991              -0.000098263              -0.000411906               0.999999991              -0.000101615              -0.000423159               0.999999991              -0.000109640              -0.000444703               0.999999991              -0.000120167              -0.000472158               0.999999991              -0.000131955              -0.000503073               0.999999991              -0.000144409              -0.000536498               0.999999991              -0.000157246              -0.000571778               0.999999991              -0.000169893              -0.000607804               0.999999991              -0.000181989              -0.000643731               0.999999991              -0.000193362              -0.000679197               0.999999991              -0.000203937              -0.000714169               0.999999991              -0.000213816              -0.000748580               0.999999991              -0.000223154              -0.000782408               0.999999991              -0.000232116              -0.000815503               0.999999991              -0.000240667              -0.000847704               0.999999991              -0.000117789              -0.000529249               0.999999991              -0.000082802              -0.000472531               0.999999991              -0.000077544              -0.000465181               0.999999991              -0.000082800              -0.000478735               0.999999991              -0.000092917              -0.000503473               0.999999991              -0.000105301              -0.000534610               0.999999991              -0.000118590              -0.000569635               0.999999991              -0.000132208              -0.000607343               0.999999991              -0.000145772              -0.000646789               0.999999991              -0.000158632              -0.000686669               0.999999991              -0.000170300              -0.000726302               0.999999991              -0.000180883              -0.000765577               0.999999991              -0.000190487              -0.000804356               0.999999991              -0.000199546              -0.000842611               0.999999991              -0.000208243              -0.000880218               0.999999991              -0.000216734              -0.000917120               0.999999991              -0.000225044              -0.000953290               0.999999991              -0.000106425              -0.000578649               0.999999991              -0.000066131              -0.000528178               0.999999991              -0.000058462              -0.000516604               0.999999991              -0.000062111              -0.000525067               0.999999991              -0.000070868              -0.000544817               0.999999991              -0.000082027              -0.000571504               0.999999991              -0.000094009              -0.000602620               0.999999991              -0.000106382              -0.000636673               0.999999991              -0.000118903              -0.000672773               0.999999991              -0.000131075              -0.000709996               0.999999991              -0.000142033              -0.000747430               0.999999991              -0.000151708              -0.000784789               0.999999991              -0.000160175              -0.000821981               0.999999991              -0.000167794              -0.000858901               0.999999991              -0.000175070              -0.000895510               0.999999991              -0.000182155              -0.000931662               0.999999991              -0.000189335              -0.000967296               0.999999991              -0.000093573              -0.000623208               0.999999991              -0.000051627              -0.000581393               0.999999991              -0.000041493              -0.000568751               0.999999991              -0.000043209              -0.000573325               0.999999991              -0.000050244              -0.000588802               0.999999991              -0.000059754              -0.000611442               0.999999991              -0.000070246              -0.000638803               0.999999991              -0.000081168              -0.000669376               0.999999991              -0.000092419              -0.000702339               0.999999991              -0.000103590              -0.000736795               0.999999991              -0.000113823              -0.000771904               0.999999991              -0.000122726              -0.000807214               0.999999991              -0.000130119              -0.000842453               0.999999991              -0.000136227              -0.000877677               0.999999991              -0.000141468              -0.000912786               0.999999991              -0.000146320              -0.000947867               0.999999991              -0.000151295              -0.000982841               0.999999991              -0.000079705              -0.000661951               0.999999991              -0.000039210              -0.000630732               0.999999991              -0.000027448              -0.000619400               0.999999991              -0.000027125              -0.000621974               0.999999991              -0.000032070              -0.000634276               0.999999991              -0.000039654              -0.000653459               0.999999991              -0.000048433              -0.000677506               0.999999991              -0.000057719              -0.000704993               0.999999991              -0.000067462              -0.000735057               0.999999991              -0.000077312              -0.000767073               0.999999991              -0.000086511              -0.000800124               0.999999991              -0.000094390              -0.000833612               0.999999991              -0.000100752              -0.000867167               0.999999991              -0.000105478              -0.000900680               0.999999991              -0.000108731              -0.000934149               0.999999991              -0.000110838              -0.000967677               0.999999991              -0.000112434              -0.001001457               0.999999991              -0.000065004              -0.000694257               0.999999991              -0.000028842              -0.000674245               0.999999991              -0.000016653              -0.000666162               0.999999991              -0.000014622              -0.000668544               0.999999991              -0.000017528              -0.000679042               0.999999991              -0.000023047              -0.000695719               0.999999991              -0.000029827              -0.000717129               0.999999991              -0.000037374              -0.000742060               0.999999991              -0.000045278              -0.000769700               0.999999991              -0.000053407              -0.000799610               0.999999991              -0.000061201              -0.000831047               0.999999991              -0.000067917              -0.000863239               0.999999991              -0.000073235              -0.000895726               0.999999991              -0.000076730              -0.000928189               0.999999991              -0.000078261              -0.000960561               0.999999991              -0.000077737              -0.000992917               0.999999991              -0.000075348              -0.001025540               0.999999991              -0.000049571              -0.000719814               0.999999991              -0.000020197              -0.000710159               0.999999991              -0.000009002              -0.000706361               0.999999991              -0.000006111              -0.000709916               0.999999991              -0.000007361              -0.000719910               0.999999991              -0.000010858              -0.000735225               0.999999991              -0.000015714              -0.000754805               0.999999991              -0.000021283              -0.000777874               0.999999991              -0.000027254              -0.000803680               0.999999991              -0.000033404              -0.000831885               0.999999991              -0.000039483              -0.000861957               0.999999991              -0.000044815              -0.000893236               0.999999991              -0.000048964              -0.000925310               0.999999991              -0.000051428              -0.000957693               0.999999991              -0.000051694              -0.000990091               0.999999991              -0.000049337              -0.001022370               0.999999991              -0.000043769              -0.001054618               0.999999991              -0.000033483              -0.000738396               0.999999991              -0.000012762              -0.000737132               0.999999991              -0.000004144              -0.000737375               0.999999991              -0.000001459              -0.000742610               0.999999991              -0.000001708              -0.000752943               0.999999991              -0.000003662              -0.000767726               0.999999991              -0.000006670              -0.000786401               0.999999991              -0.000010282              -0.000808384               0.999999991              -0.000014181              -0.000833108               0.999999991              -0.000018245              -0.000860157               0.999999991              -0.000022302              -0.000889294               0.999999991              -0.000025874              -0.000920090               0.999999991              -0.000028607              -0.000952074               0.999999991              -0.000030190              -0.000984825               0.999999991              -0.000030029              -0.001017872               0.999999991              -0.000027432              -0.001050923               0.999999991              -0.000021435              -0.001083812               0.999999991              -0.000016877              -0.000749723               0.999999991              -0.000006151              -0.000753915               0.999999991              -0.000001473              -0.000757018               0.999999991               0.000000139              -0.000763579               0.999999991               0.000000175              -0.000774425               0.999999991              -0.000000617              -0.000789222               0.999999991              -0.000002037              -0.000807589               0.999999991              -0.000003775              -0.000829082               0.999999991              -0.000005765              -0.000853285               0.999999991              -0.000007733              -0.000879889               0.999999991              -0.000009633              -0.000908522               0.999999991              -0.000011345              -0.000938911               0.999999991              -0.000012689              -0.000970717               0.999999991              -0.000013511              -0.001003499               0.999999991              -0.000013431              -0.001036934               0.999999991              -0.000011927              -0.001070647               0.999999991              -0.000008446              -0.001104345               0.999999991              -0.000000000              -0.000753538               0.999999991              -0.000000000              -0.000759597               0.999999991              -0.000000000              -0.000763752               0.999999991               0.000000000              -0.000770825               0.999999991              -0.000000000              -0.000781863               0.999999991               0.000000000              -0.000796737               0.999999991              -0.000000000              -0.000815055               0.999999991              -0.000000000              -0.000836410               0.999999991              -0.000000000              -0.000860528               0.999999991              -0.000000000              -0.000887051               0.999999991               0.000000000              -0.000915537               0.999999991              -0.000000000              -0.000945715               0.999999991               0.000000000              -0.000977304               0.999999991               0.000000000              -0.001009961               0.999999991              -0.000000000              -0.001043401               0.999999991              -0.000000000              -0.001077296               0.999999991               0.000000000              -0.001111324               0.999999991               0.000170554              -0.000000000               0.999999991               0.000200184              -0.000000000               0.999999991               0.000214229              -0.000000000               0.999999991               0.000222299              -0.000000000               0.999999991               0.000228326               0.000000000               0.999999991               0.000234059               0.000000000               0.999999991               0.000240316               0.000000000               0.999999991               0.000247437               0.000000000               0.999999991               0.000255460               0.000000000               0.999999991               0.000264495              -0.000000000               0.999999991               0.000274596               0.000000000               0.999999991               0.000285836               0.000000000               0.999999991               0.000298205               0.000000000               0.999999991               0.000311612              -0.000000000               0.999999991               0.000325892               0.000000000               0.999999991               0.000340766               0.000000000               0.999999991               0.000355995              -0.000000000               0.999999991               0.000169797              -0.000074258               0.999999991               0.000197927              -0.000064262               0.999999991               0.000211024              -0.000060875               0.999999991               0.000218587              -0.000060926               0.999999991               0.000224346              -0.000063068               0.999999991               0.000229944              -0.000066548               0.999999991               0.000236158              -0.000070962               0.999999991               0.000243345              -0.000075935               0.999999991               0.000251555              -0.000081245               0.999999991               0.000260775              -0.000086865               0.999999991               0.000271042              -0.000092904               0.999999991               0.000282387              -0.000099140               0.999999991               0.000294754              -0.000105318               0.999999991               0.000308007              -0.000111259               0.999999991               0.000321999              -0.000116687               0.999999991               0.000336537              -0.000121229               0.999999991               0.000351319              -0.000124515               0.999999991               0.000167337              -0.000147791               0.999999991               0.000190969              -0.000127826               0.999999991               0.000201336              -0.000121411               0.999999991               0.000207407              -0.000121967               0.999999991               0.000212553              -0.000126603               0.999999991               0.000218054              -0.000133829               0.999999991               0.000224473              -0.000142761               0.999999991               0.000231945              -0.000152788               0.999999991               0.000240448              -0.000163446               0.999999991               0.000249988              -0.000174818               0.999999991               0.000260513              -0.000186699               0.999999991               0.000271968              -0.000198750               0.999999991               0.000284133              -0.000210738               0.999999991               0.000296838              -0.000222244               0.999999991               0.000310014              -0.000232792               0.999999991               0.000323441              -0.000241870               0.999999991               0.000336982              -0.000248801               0.999999991               0.000163000              -0.000219750               0.999999991               0.000179373              -0.000190117               0.999999991               0.000185867              -0.000181412               0.999999991               0.000190105              -0.000183204               0.999999991               0.000194686              -0.000190827               0.999999991               0.000200309              -0.000202079               0.999999991               0.000207159              -0.000215669               0.999999991               0.000215078              -0.000230702               0.999999991               0.000224042              -0.000246763               0.999999991               0.000234035              -0.000263644               0.999999991               0.000244859              -0.000281085               0.999999991               0.000256349              -0.000298713               0.999999991               0.000268253              -0.000315956               0.999999991               0.000280372              -0.000332430               0.999999991               0.000292562              -0.000347818               0.999999991               0.000304772              -0.000361584               0.999999991               0.000317071              -0.000373379               0.999999991               0.000156818              -0.000289285               0.999999991               0.000163865              -0.000250719               0.999999991               0.000166225              -0.000240720               0.999999991               0.000168978              -0.000244336               0.999999991               0.000173381              -0.000255430               0.999999991               0.000179498              -0.000270940               0.999999991               0.000187043              -0.000289109               0.999999991               0.000195746              -0.000309030               0.999999991               0.000205462              -0.000330230               0.999999991               0.000216072              -0.000352393               0.999999991               0.000227279              -0.000375145               0.999999991               0.000238781              -0.000397785               0.999999991               0.000250479              -0.000419822               0.999999991               0.000262138              -0.000440989               0.999999991               0.000273665              -0.000461083               0.999999991               0.000285096              -0.000479863               0.999999991               0.000296497              -0.000497340               0.999999991               0.000149012              -0.000355656               0.999999991               0.000145448              -0.000309394               0.999999991               0.000144000              -0.000299168               0.999999991               0.000145934              -0.000305166               0.999999991               0.000150800              -0.000319913               0.999999991               0.000157914              -0.000339609               0.999999991               0.000166641              -0.000362156               0.999999991               0.000176528              -0.000386689               0.999999991               0.000187259              -0.000412813               0.999999991               0.000198574              -0.000440014               0.999999991               0.000210206              -0.000467519               0.999999991               0.000221915              -0.000494724               0.999999991               0.000233468              -0.000521249               0.999999991               0.000244723              -0.000546941               0.999999991               0.000255741              -0.000571845               0.999999991               0.000266505              -0.000595750               0.999999991               0.000277056              -0.000618822               0.999999991               0.000139759              -0.000418223               0.999999991               0.000125105              -0.000366010               0.999999991               0.000120849              -0.000356385               0.999999991               0.000122947              -0.000365069               0.999999991               0.000129107              -0.000383287               0.999999991               0.000137830              -0.000406944               0.999999991               0.000148093              -0.000433699               0.999999991               0.000159211              -0.000462734               0.999999991               0.000170972              -0.000493660               0.999999991               0.000183091              -0.000525380               0.999999991               0.000195131              -0.000557256               0.999999991               0.000206822              -0.000588750               0.999999991               0.000218045              -0.000619612               0.999999991               0.000228788              -0.000649812               0.999999991               0.000239047              -0.000679364               0.999999991               0.000248892              -0.000708116               0.999999991               0.000258409              -0.000735949               0.999999991               0.000129182              -0.000476400               0.999999991               0.000103970              -0.000420370               0.999999991               0.000098263              -0.000411906               0.999999991               0.000101615              -0.000423159               0.999999991               0.000109640              -0.000444703               0.999999991               0.000120167              -0.000472158               0.999999991               0.000131955              -0.000503073               0.999999991               0.000144409              -0.000536498               0.999999991               0.000157246              -0.000571778               0.999999991               0.000169893              -0.000607804               0.999999991               0.000181989              -0.000643731               0.999999991               0.000193362              -0.000679197               0.999999991               0.000203937              -0.000714169               0.999999991               0.000213816              -0.000748580               0.999999991               0.000223154              -0.000782408               0.999999991               0.000232116              -0.000815503               0.999999991               0.000240667              -0.000847704               0.999999991               0.000117789              -0.000529249               0.999999991               0.000082802              -0.000472531               0.999999991               0.000077544              -0.000465181               0.999999991               0.000082800              -0.000478735               0.999999991               0.000092917              -0.000503473               0.999999991               0.000105301              -0.000534610               0.999999991               0.000118590              -0.000569635               0.999999991               0.000132208              -0.000607343               0.999999991               0.000145772              -0.000646789               0.999999991               0.000158632              -0.000686669               0.999999991               0.000170300              -0.000726302               0.999999991               0.000180883              -0.000765577               0.999999991               0.000190487              -0.000804356               0.999999991               0.000199546              -0.000842611               0.999999991               0.000208243              -0.000880218               0.999999991               0.000216734              -0.000917120               0.999999991               0.000225044              -0.000953290               0.999999991               0.000106425              -0.000578649               0.999999991               0.000066131              -0.000528178               0.999999991               0.000058462              -0.000516604               0.999999991               0.000062111              -0.000525067               0.999999991               0.000070868              -0.000544817               0.999999991               0.000082027              -0.000571504               0.999999991               0.000094009              -0.000602620               0.999999991               0.000106382              -0.000636673               0.999999991               0.000118903              -0.000672773               0.999999991               0.000131075              -0.000709996               0.999999991               0.000142033              -0.000747430               0.999999991               0.000151708              -0.000784789               0.999999991               0.000160175              -0.000821981               0.999999991               0.000167794              -0.000858901               0.999999991               0.000175070              -0.000895510               0.999999991               0.000182155              -0.000931662               0.999999991               0.000189335              -0.000967296               0.999999991               0.000093573              -0.000623208               0.999999991               0.000051627              -0.000581393               0.999999991               0.000041493              -0.000568751               0.999999991               0.000043209              -0.000573325               0.999999991               0.000050244              -0.000588802               0.999999991               0.000059754              -0.000611442               0.999999991               0.000070246              -0.000638803               0.999999991               0.000081168              -0.000669376               0.999999991               0.000092419              -0.000702339               0.999999991               0.000103590              -0.000736795               0.999999991               0.000113823              -0.000771904               0.999999991               0.000122726              -0.000807214               0.999999991               0.000130119              -0.000842453               0.999999991               0.000136227              -0.000877677               0.999999991               0.000141468              -0.000912786               0.999999991               0.000146320              -0.000947867               0.999999991               0.000151295              -0.000982841               0.999999991               0.000079705              -0.000661951               0.999999991               0.000039210              -0.000630732               0.999999991               0.000027448              -0.000619400               0.999999991               0.000027125              -0.000621974               0.999999991               0.000032070              -0.000634276               0.999999991               0.000039654              -0.000653459               0.999999991               0.000048433              -0.000677506               0.999999991               0.000057719              -0.000704993               0.999999991               0.000067462              -0.000735057               0.999999991               0.000077312              -0.000767073               0.999999991               0.000086511              -0.000800124               0.999999991               0.000094390              -0.000833612               0.999999991               0.000100752              -0.000867167               0.999999991               0.000105478              -0.000900680               0.999999991               0.000108731              -0.000934149               0.999999991               0.000110838              -0.000967677               0.999999991               0.000112434              -0.001001457               0.999999991               0.000065004              -0.000694257               0.999999991               0.000028842              -0.000674245               0.999999991               0.000016653              -0.000666162               0.999999991               0.000014622              -0.000668544               0.999999991               0.000017528              -0.000679042               0.999999991               0.000023047              -0.000695719               0.999999991               0.000029827              -0.000717129               0.999999991               0.000037374              -0.000742060               0.999999991               0.000045278              -0.000769700               0.999999991               0.000053407              -0.000799610               0.999999991               0.000061201              -0.000831047               0.999999991               0.000067917              -0.000863239               0.999999991               0.000073235              -0.000895726               0.999999991               0.000076730              -0.000928189               0.999999991               0.000078261              -0.000960561               0.999999991               0.000077737              -0.000992917               0.999999991               0.000075348              -0.001025540               0.999999991               0.000049571              -0.000719814               0.999999991               0.000020197              -0.000710159               0.999999991               0.000009002              -0.000706361               0.999999991               0.000006111              -0.000709916               0.999999991               0.000007361              -0.000719910               0.999999991               0.000010858              -0.000735225               0.999999991               0.000015714              -0.000754805               0.999999991               0.000021283              -0.000777874               0.999999991               0.000027254              -0.000803680               0.999999991               0.000033404              -0.000831885               0.999999991               0.000039483              -0.000861957               0.999999991               0.000044815              -0.000893236               0.999999991               0.000048964              -0.000925310               0.999999991               0.000051428              -0.000957693               0.999999991               0.000051694              -0.000990091               0.999999991               0.000049337              -0.001022370               0.999999991               0.000043769              -0.001054618               0.999999991               0.000033483              -0.000738396               0.999999991               0.000012762              -0.000737132               0.999999991               0.000004144              -0.000737375               0.999999991               0.000001459              -0.000742610               0.999999991               0.000001708              -0.000752943               0.999999991               0.000003662              -0.000767726               0.999999991               0.000006670              -0.000786401               0.999999991               0.000010282              -0.000808384               0.999999991               0.000014181              -0.000833108               0.999999991               0.000018245              -0.000860157               0.999999991               0.000022302              -0.000889294               0.999999991               0.000025874              -0.000920090               0.999999991               0.000028607              -0.000952074               0.999999991               0.000030190              -0.000984825               0.999999991               0.000030029              -0.001017872               0.999999991               0.000027432              -0.001050923               0.999999991               0.000021435              -0.001083812               0.999999991               0.000016877              -0.000749723               0.999999991               0.000006151              -0.000753915               0.999999991               0.000001473              -0.000757018               0.999999991              -0.000000139              -0.000763579               0.999999991              -0.000000175              -0.000774425               0.999999991               0.000000617              -0.000789222               0.999999991               0.000002037              -0.000807589               0.999999991               0.000003775              -0.000829082               0.999999991               0.000005765              -0.000853285               0.999999991               0.000007733              -0.000879889               0.999999991               0.000009633              -0.000908522               0.999999991               0.000011345              -0.000938911               0.999999991               0.000012689              -0.000970717               0.999999991               0.000013511              -0.001003499               0.999999991               0.000013431              -0.001036934               0.999999991               0.000011927              -0.001070647               0.999999991               0.000008446              -0.001104345               0.999999991              -0.000000000              -0.000753538               0.999999991              -0.000000000              -0.000759597               0.999999991              -0.000000000              -0.000763752               0.999999991               0.000000000              -0.000770825               0.999999991              -0.000000000              -0.000781863               0.999999991               0.000000000              -0.000796737               0.999999991              -0.000000000              -0.000815055               0.999999991              -0.000000000              -0.000836410               0.999999991              -0.000000000              -0.000860528               0.999999991              -0.000000000              -0.000887051               0.999999991               0.000000000              -0.000915537               0.999999991              -0.000000000              -0.000945715               0.999999991               0.000000000              -0.000977304               0.999999991               0.000000000              -0.001009961               0.999999991              -0.000000000              -0.001043401               0.999999991              -0.000000000              -0.001077296               0.999999991               0.000000000              -0.001111324               0.999999991               0.000170554              -0.000000000               0.999999991               0.000200184              -0.000000000               0.999999991               0.000214229              -0.000000000               0.999999991               0.000222299              -0.000000000               0.999999991               0.000228326               0.000000000               0.999999991               0.000234059               0.000000000               0.999999991               0.000240316               0.000000000               0.999999991               0.000247437               0.000000000               0.999999991               0.000255460               0.000000000               0.999999991               0.000264495              -0.000000000               0.999999991               0.000274596               0.000000000               0.999999991               0.000285836               0.000000000               0.999999991               0.000298205               0.000000000               0.999999991               0.000311612              -0.000000000               0.999999991               0.000325892               0.000000000               0.999999991               0.000340766               0.000000000               0.999999991               0.000355995              -0.000000000               0.999999991               0.000169797               0.000074258               0.999999991               0.000197927               0.000064262               0.999999991               0.000211024               0.000060875               0.999999991               0.000218587               0.000060926               0.999999991               0.000224346               0.000063068               0.999999991               0.000229944               0.000066548               0.999999991               0.000236158               0.000070962               0.999999991               0.000243345               0.000075935               0.999999991               0.000251555               0.000081245               0.999999991               0.000260775               0.000086865               0.999999991               0.000271042               0.000092904               0.999999991               0.000282387               0.000099140               0.999999991               0.000294754               0.000105318               0.999999991               0.000308007               0.000111259               0.999999991               0.000321999               0.000116687               0.999999991               0.000336537               0.000121229               0.999999991               0.000351319               0.000124515               0.999999991               0.000167337               0.000147791               0.999999991               0.000190969               0.000127826               0.999999991               0.000201336               0.000121411               0.999999991               0.000207407               0.000121967               0.999999991               0.000212553               0.000126603               0.999999991               0.000218054               0.000133829               0.999999991               0.000224473               0.000142761               0.999999991               0.000231945               0.000152788               0.999999991               0.000240448               0.000163446               0.999999991               0.000249988               0.000174818               0.999999991               0.000260513               0.000186699               0.999999991               0.000271968               0.000198750               0.999999991               0.000284133               0.000210738               0.999999991               0.000296838               0.000222244               0.999999991               0.000310014               0.000232792               0.999999991               0.000323441               0.000241870               0.999999991               0.000336982               0.000248801               0.999999991               0.000163000               0.000219750               0.999999991               0.000179373               0.000190117               0.999999991               0.000185867               0.000181412               0.999999991               0.000190105               0.000183204               0.999999991               0.000194686               0.000190827               0.999999991               0.000200309               0.000202079               0.999999991               0.000207159               0.000215669               0.999999991               0.000215078               0.000230702               0.999999991               0.000224042               0.000246763               0.999999991               0.000234035               0.000263644               0.999999991               0.000244859               0.000281085               0.999999991               0.000256349               0.000298713               0.999999991               0.000268253               0.000315956               0.999999991               0.000280372               0.000332430               0.999999991               0.000292562               0.000347818               0.999999991               0.000304772               0.000361584               0.999999991               0.000317071               0.000373379               0.999999991               0.000156818               0.000289285               0.999999991               0.000163865               0.000250719               0.999999991               0.000166225               0.000240720               0.999999991               0.000168978               0.000244336               0.999999991               0.000173381               0.000255430               0.999999991               0.000179498               0.000270940               0.999999991               0.000187043               0.000289109               0.999999991               0.000195746               0.000309030               0.999999991               0.000205462               0.000330230               0.999999991               0.000216072               0.000352393               0.999999991               0.000227279               0.000375145               0.999999991               0.000238781               0.000397785               0.999999991               0.000250479               0.000419822               0.999999991               0.000262138               0.000440989               0.999999991               0.000273665               0.000461083               0.999999991               0.000285096               0.000479863               0.999999991               0.000296497               0.000497340               0.999999991               0.000149012               0.000355656               0.999999991               0.000145448               0.000309394               0.999999991               0.000144000               0.000299168               0.999999991               0.000145934               0.000305166               0.999999991               0.000150800               0.000319913               0.999999991               0.000157914               0.000339609               0.999999991               0.000166641               0.000362156               0.999999991               0.000176528               0.000386689               0.999999991               0.000187259               0.000412813               0.999999991               0.000198574               0.000440014               0.999999991               0.000210206               0.000467519               0.999999991               0.000221915               0.000494724               0.999999991               0.000233468               0.000521249               0.999999991               0.000244723               0.000546941               0.999999991               0.000255741               0.000571845               0.999999991               0.000266505               0.000595750               0.999999991               0.000277056               0.000618822               0.999999991               0.000139759               0.000418223               0.999999991               0.000125105               0.000366010               0.999999991               0.000120849               0.000356385               0.999999991               0.000122947               0.000365069               0.999999991               0.000129107               0.000383287               0.999999991               0.000137830               0.000406944               0.999999991               0.000148093               0.000433699               0.999999991               0.000159211               0.000462734               0.999999991               0.000170972               0.000493660               0.999999991               0.000183091               0.000525380               0.999999991               0.000195131               0.000557256               0.999999991               0.000206822               0.000588750               0.999999991               0.000218045               0.000619612               0.999999991               0.000228788               0.000649812               0.999999991               0.000239047               0.000679364               0.999999991               0.000248892               0.000708116               0.999999991               0.000258409               0.000735949               0.999999991               0.000129182               0.000476400               0.999999991               0.000103970               0.000420370               0.999999991               0.000098263               0.000411906               0.999999991               0.000101615               0.000423159               0.999999991               0.000109640               0.000444703               0.999999991               0.000120167               0.000472158               0.999999991               0.000131955               0.000503073               0.999999991               0.000144409               0.000536498               0.999999991               0.000157246               0.000571778               0.999999991               0.000169893               0.000607804               0.999999991               0.000181989               0.000643731               0.999999991               0.000193362               0.000679197               0.999999991               0.000203937               0.000714169               0.999999991               0.000213816               0.000748580               0.999999991               0.000223154               0.000782408               0.999999991               0.000232116               0.000815503               0.999999991               0.000240667               0.000847704               0.999999991               0.000117789               0.000529249               0.999999991               0.000082802               0.000472531               0.999999991               0.000077544               0.000465181               0.999999991               0.000082800               0.000478735               0.999999991               0.000092917               0.000503473               0.999999991               0.000105301               0.000534610               0.999999991               0.000118590               0.000569635               0.999999991               0.000132208               0.000607343               0.999999991               0.000145772               0.000646789               0.999999991               0.000158632               0.000686669               0.999999991               0.000170300               0.000726302               0.999999991               0.000180883               0.000765577               0.999999991               0.000190487               0.000804356               0.999999991               0.000199546               0.000842611               0.999999991               0.000208243               0.000880218               0.999999991               0.000216734               0.000917120               0.999999991               0.000225044               0.000953290               0.999999991               0.000106425               0.000578649               0.999999991               0.000066131               0.000528178               0.999999991               0.000058462               0.000516604               0.999999991               0.000062111               0.000525067               0.999999991               0.000070868               0.000544817               0.999999991               0.000082027               0.000571504               0.999999991               0.000094009               0.000602620               0.999999991               0.000106382               0.000636673               0.999999991               0.000118903               0.000672773               0.999999991               0.000131075               0.000709996               0.999999991               0.000142033               0.000747430               0.999999991               0.000151708               0.000784789               0.999999991               0.000160175               0.000821981               0.999999991               0.000167794               0.000858901               0.999999991               0.000175070               0.000895510               0.999999991               0.000182155               0.000931662               0.999999991               0.000189335               0.000967296               0.999999991               0.000093573               0.000623208               0.999999991               0.000051627               0.000581393               0.999999991               0.000041493               0.000568751               0.999999991               0.000043209               0.000573325               0.999999991               0.000050244               0.000588802               0.999999991               0.000059754               0.000611442               0.999999991               0.000070246               0.000638803               0.999999991               0.000081168               0.000669376               0.999999991               0.000092419               0.000702339               0.999999991               0.000103590               0.000736795               0.999999991               0.000113823               0.000771904               0.999999991               0.000122726               0.000807214               0.999999991               0.000130119               0.000842453               0.999999991               0.000136227               0.000877677               0.999999991               0.000141468               0.000912786               0.999999991               0.000146320               0.000947867               0.999999991               0.000151295               0.000982841               0.999999991               0.000079705               0.000661951               0.999999991               0.000039210               0.000630732               0.999999991               0.000027448               0.000619400               0.999999991               0.000027125               0.000621974               0.999999991               0.000032070               0.000634276               0.999999991               0.000039654               0.000653459               0.999999991               0.000048433               0.000677506               0.999999991               0.000057719               0.000704993               0.999999991               0.000067462               0.000735057               0.999999991               0.000077312               0.000767073               0.999999991               0.000086511               0.000800124               0.999999991               0.000094390               0.000833612               0.999999991               0.000100752               0.000867167               0.999999991               0.000105478               0.000900680               0.999999991               0.000108731               0.000934149               0.999999991               0.000110838               0.000967677               0.999999991               0.000112434               0.001001457               0.999999991               0.000065004               0.000694257               0.999999991               0.000028842               0.000674245               0.999999991               0.000016653               0.000666162               0.999999991               0.000014622               0.000668544               0.999999991               0.000017528               0.000679042               0.999999991               0.000023047               0.000695719               0.999999991               0.000029827               0.000717129               0.999999991               0.000037374               0.000742060               0.999999991               0.000045278               0.000769700               0.999999991               0.000053407               0.000799610               0.999999991               0.000061201               0.000831047               0.999999991               0.000067917               0.000863239               0.999999991               0.000073235               0.000895726               0.999999991               0.000076730               0.000928189               0.999999991               0.000078261               0.000960561               0.999999991               0.000077737               0.000992917               0.999999991               0.000075348               0.001025540               0.999999991               0.000049571               0.000719814               0.999999991               0.000020197               0.000710159               0.999999991               0.000009002               0.000706361               0.999999991               0.000006111               0.000709916               0.999999991               0.000007361               0.000719910               0.999999991               0.000010858               0.000735225               0.999999991               0.000015714               0.000754805               0.999999991               0.000021283               0.000777874               0.999999991               0.000027254               0.000803680               0.999999991               0.000033404               0.000831885               0.999999991               0.000039483               0.000861957               0.999999991               0.000044815               0.000893236               0.999999991               0.000048964               0.000925310               0.999999991               0.000051428               0.000957693               0.999999991               0.000051694               0.000990091               0.999999991               0.000049337               0.001022370               0.999999991               0.000043769               0.001054618               0.999999991               0.000033483               0.000738396               0.999999991               0.000012762               0.000737132               0.999999991               0.000004144               0.000737375               0.999999991               0.000001459               0.000742610               0.999999991               0.000001708               0.000752943               0.999999991               0.000003662               0.000767726               0.999999991               0.000006670               0.000786401               0.999999991               0.000010282               0.000808384               0.999999991               0.000014181               0.000833108               0.999999991               0.000018245               0.000860157               0.999999991               0.000022302               0.000889294               0.999999991               0.000025874               0.000920090               0.999999991               0.000028607               0.000952074               0.999999991               0.000030190               0.000984825               0.999999991               0.000030029               0.001017872               0.999999991               0.000027432               0.001050923               0.999999991               0.000021435               0.001083812               0.999999991               0.000016877               0.000749723               0.999999991               0.000006151               0.000753915               0.999999991               0.000001473               0.000757018               0.999999991              -0.000000139               0.000763579               0.999999991              -0.000000175               0.000774425               0.999999991               0.000000617               0.000789222               0.999999991               0.000002037               0.000807589               0.999999991               0.000003775               0.000829082               0.999999991               0.000005765               0.000853285               0.999999991               0.000007733               0.000879889               0.999999991               0.000009633               0.000908522               0.999999991               0.000011345               0.000938911               0.999999991               0.000012689               0.000970717               0.999999991               0.000013511               0.001003499               0.999999991               0.000013431               0.001036934               0.999999991               0.000011927               0.001070647               0.999999991               0.000008446               0.001104345               0.999999991               0.000000000               0.000753538               0.999999991               0.000000000               0.000759597               0.999999991               0.000000000               0.000763752               0.999999991               0.000000000               0.000770825               0.999999991              -0.000000000               0.000781863               0.999999991              -0.000000000               0.000796737               0.999999991              -0.000000000               0.000815055               0.999999991              -0.000000000               0.000836410               0.999999991              -0.000000000               0.000860528               0.999999991              -0.000000000               0.000887051               0.999999991              -0.000000000               0.000915537               0.999999991               0.000000000               0.000945715               0.999999991               0.000000000               0.000977304               0.999999991               0.000000000               0.001009961               0.999999991               0.000000000               0.001043401               0.999999991               0.000000000               0.001077296               0.999999991               0.000000000               0.001111324               0.999999991 </DataArray>
<DataArray type="Float64"                                    Name="defo"                                                      NumberOfComponents=" 3" format="ascii">
             -0.000170554               0.000000000               0.999999991              -0.000200184              -0.000000000               0.999999991              -0.000214229               0.000000000               0.999999991              -0.000222299               0.000000000               0.999999991              -0.000228326               0.000000000               0.999999991              -0.000234059               0.000000000               0.999999991              -0.000240316               0.000000000               0.999999991              -0.000247437              -0.000000000               0.999999991              -0.000255460               0.000000000               0.999999991              -0.000264495              -0.000000000               0.999999991              -0.000274596               0.000000000               0.999999991              -0.000285836               0.000000000               0.999999991              -0.000298205               0.000000000               0.999999991              -0.000311612               0.000000000               0.999999991              -0.000325892               0.000000000               0.999999991              -0.000340766               0.000000000               0.999999991              -0.000355995              -0.000000000               0.999999991              -0.000169797               0.000074258               0.999999991              -0.000197927               0.000064262               0.999999991              -0.000211024               0.000060875               0.999999991              -0.000218587               0.000060926               0.999999991              -0.000224346               0.000063068               0.999999991              -0.000229944               0.000066548               0.999999991              -0.000236158               0.000070962               0.999999991              -0.000243345               0.000075935               0.999999991              -0.000251555               0.000081245               0.999999991              -0.000260775               0.000086865               0.999999991              -0.000271042               0.000092904               0.999999991              -0.000282387               0.000099140               0.999999991              -0.000294754               0.000105318               0.999999991              -0.000308007               0.000111259               0.999999991              -0.000321999               0.000116687               0.999999991              -0.000336537               0.000121229               0.999999991              -0.000351319               0.000124515               0.999999991              -0.000167337               0.000147791               0.999999991              -0.000190969               0.000127826               0.999999991              -0.000201336               0.000121411               0.999999991              -0.000207407               0.000121967               0.999999991              -0.000212553               0.000126603               0.999999991              -0.000218054               0.000133829               0.999999991              -0.000224473               0.000142761               0.999999991              -0.000231945               0.000152788               0.999999991              -0.000240448               0.000163446               0.999999991              -0.000249988               0.000174818               0.999999991              -0.000260513               0.000186699               0.999999991              -0.000271968               0.000198750               0.999999991              -0.000284133               0.000210738               0.999999991              -0.000296838               0.000222244               0.999999991              -0.000310014               0.000232792               0.999999991              -0.000323441               0.000241870               0.999999991              -0.000336982               0.000248801               0.999999991              -0.000163000               0.000219750               0.999999991              -0.000179373               0.000190117               0.999999991              -0.000185867               0.000181412               0.999999991              -0.000190105               0.000183204               0.999999991              -0.000194686               0.000190827               0.999999991              -0.000200309               0.000202079               0.999999991              -0.000207159               0.000215669               0.999999991              -0.000215078               0.000230702               0.999999991              -0.000224042               0.000246763               0.999999991              -0.000234035               0.000263644               0.999999991              -0.000244859               0.000281085               0.999999991              -0.000256349               0.000298713               0.999999991              -0.000268253               0.000315956               0.999999991              -0.000280372               0.000332430               0.999999991              -0.000292562               0.000347818               0.999999991              -0.000304772               0.000361584               0.999999991              -0.000317071               0.000373379               0.999999991              -0.000156818               0.000289285               0.999999991              -0.000163865               0.000250719               0.999999991              -0.000166225               0.000240720               0.999999991              -0.000168978               0.000244336               0.999999991              -0.000173381               0.000255430               0.999999991              -0.000179498               0.000270940               0.999999991              -0.000187043               0.000289109               0.999999991              -0.000195746               0.000309030               0.999999991              -0.000205462               0.000330230               0.999999991              -0.000216072               0.000352393               0.999999991              -0.000227279               0.000375145               0.999999991              -0.000238781               0.000397785               0.999999991              -0.000250479               0.000419822               0.999999991              -0.000262138               0.000440989               0.999999991              -0.000273665               0.000461083               0.999999991              -0.000285096               0.000479863               0.999999991              -0.000296497               0.000497340               0.999999991              -0.000149012               0.000355656               0.999999991              -0.000145448               0.000309394               0.999999991              -0.000144000               0.000299168               0.999999991              -0.000145934               0.000305166               0.999999991              -0.000150800               0.000319913               0.999999991              -0.000157914               0.000339609               0.999999991              -0.000166641               0.000362156               0.999999991              -0.000176528               0.000386689               0.999999991              -0.000187259               0.000412813               0.999999991              -0.000198574               0.000440014               0.999999991              -0.000210206               0.000467519               0.999999991              -0.000221915               0.000494724               0.999999991              -0.000233468               0.000521249               0.999999991              -0.000244723               0.000546941               0.999999991              -0.000255741               0.000571845               0.999999991              -0.000266505               0.000595750               0.999999991              -0.000277056               0.000618822               0.999999991              -0.000139759               0.000418223               0.999999991              -0.000125105               0.000366010               0.999999991              -0.000120849               0.000356385               0.999999991              -0.000122947               0.000365069               0.999999991              -0.000129107               0.000383287               0.999999991              -0.000137830               0.000406944               0.999999991              -0.000148093               0.000433699               0.999999991              -0.000159211               0.000462734               0.999999991              -0.000170972               0.000493660               0.999999991              -0.000183091               0.000525380               0.999999991              -0.000195131               0.000557256               0.999999991              -0.000206822               0.000588750               0.999999991              -0.000218045               0.000619612               0.999999991              -0.000228788               0.000649812               0.999999991              -0.000239047               0.000679364               0.999999991              -0.000248892               0.000708116               0.999999991              -0.000258409               0.000735949               0.999999991              -0.000129182               0.000476400               0.999999991              -0.000103970               0.000420370               0.999999991              -0.000098263               0.000411906               0.999999991              -0.000101615               0.000423159               0.999999991              -0.000109640               0.000444703               0.999999991              -0.000120167               0.000472158               0.999999991              -0.000131955               0.000503073               0.999999991              -0.000144409               0.000536498               0.999999991              -0.000157246               0.000571778               0.999999991              -0.000169893               0.000607804               0.999999991              -0.000181989               0.000643731               0.999999991              -0.000193362               0.000679197               0.999999991              -0.000203937               0.000714169               0.999999991              -0.000213816               0.000748580               0.999999991              -0.000223154               0.000782408               0.999999991              -0.000232116               0.000815503               0.999999991              -0.000240667               0.000847704               0.999999991              -0.000117789               0.000529249               0.999999991              -0.000082802               0.000472531               0.999999991              -0.000077544               0.000465181               0.999999991              -0.000082800               0.000478735               0.999999991              -0.000092917               0.000503473               0.999999991              -0.000105301               0.000534610               0.999999991              -0.000118590               0.000569635               0.999999991              -0.000132208               0.000607343               0.999999991              -0.000145772               0.000646789               0.999999991              -0.000158632               0.000686669               0.999999991              -0.000170300               0.000726302               0.999999991              -0.000180883               0.000765577               0.999999991              -0.000190487               0.000804356               0.999999991              -0.000199546               0.000842611               0.999999991              -0.000208243               0.000880218               0.999999991              -0.000216734               0.000917120               0.999999991              -0.000225044               0.000953290               0.999999991              -0.000106425               0.000578649               0.999999991              -0.000066131               0.000528178               0.999999991              -0.000058462               0.000516604               0.999999991              -0.000062111               0.000525067               0.999999991              -0.000070868               0.000544817               0.999999991              -0.000082027               0.000571504               0.999999991              -0.000094009               0.000602620               0.999999991              -0.000106382               0.000636673               0.999999991              -0.000118903               0.000672773               0.999999991              -0.000131075               0.000709996               0.999999991              -0.000142033               0.000747430               0.999999991              -0.000151708               0.000784789               0.999999991              -0.000160175               0.000821981               0.999999991              -0.000167794               0.000858901               0.999999991              -0.000175070               0.000895510               0.999999991              -0.000182155               0.000931662               0.999999991              -0.000189335               0.000967296               0.999999991              -0.000093573               0.000623208               0.999999991              -0.000051627               0.000581393               0.999999991              -0.000041493               0.000568751               0.999999991              -0.000043209               0.000573325               0.999999991              -0.000050244               0.000588802               0.999999991              -0.000059754               0.000611442               0.999999991              -0.000070246               0.000638803               0.999999991              -0.000081168               0.000669376               0.999999991              -0.000092419               0.000702339               0.999999991              -0.000103590               0.000736795               0.999999991              -0.000113823               0.000771904               0.999999991              -0.000122726               0.000807214               0.999999991              -0.000130119               0.000842453               0.999999991              -0.000136227               0.000877677               0.999999991              -0.000141468               0.000912786               0.999999991              -0.000146320               0.000947867               0.999999991              -0.000151295               0.000982841               0.999999991              -0.000079705               0.000661951               0.999999991              -0.000039210               0.000630732               0.999999991              -0.000027448               0.000619400               0.999999991              -0.000027125               0.000621974               0.999999991              -0.000032070               0.000634276               0.999999991              -0.000039654               0.000653459               0.999999991              -0.000048433               0.000677506               0.999999991              -0.000057719               0.000704993               0.999999991              -0.000067462               0.000735057               0.999999991              -0.000077312               0.000767073               0.999999991              -0.000086511               0.000800124               0.999999991              -0.000094390               0.000833612               0.999999991              -0.000100752               0.000867167               0.999999991              -0.000105478               0.000900680               0.999999991              -0.000108731               0.000934149               0.999999991              -0.000110838               0.000967677               0.999999991              -0.000112434               0.001001457               0.999999991              -0.000065004               0.000694257               0.999999991              -0.000028842               0.000674245               0.999999991              -0.000016653               0.000666162               0.999999991              -0.000014622               0.000668544               0.999999991              -0.000017528               0.000679042               0.999999991              -0.000023047               0.000695719               0.999999991              -0.000029827               0.000717129               0.999999991              -0.000037374               0.000742060               0.999999991              -0.000045278               0.000769700               0.999999991              -0.000053407               0.000799610               0.999999991              -0.000061201               0.000831047               0.999999991              -0.000067917               0.000863239               0.999999991              -0.000073235               0.000895726               0.999999991              -0.000076730               0.000928189               0.999999991              -0.000078261               0.000960561               0.999999991              -0.000077737               0.000992917               0.999999991              -0.000075348               0.001025540               0.999999991              -0.000049571               0.000719814               0.999999991              -0.000020197               0.000710159               0.999999991              -0.000009002               0.000706361               0.999999991              -0.000006111               0.000709916               0.999999991              -0.000007361               0.000719910               0.999999991              -0.000010858               0.000735225               0.999999991              -0.000015714               0.000754805               0.999999991              -0.000021283               0.000777874               0.999999991              -0.000027254               0.000803680               0.999999991              -0.000033404               0.000831885               0.999999991              -0.000039483               0.000861957               0.999999991              -0.000044815               0.000893236               0.999999991              -0.000048964               0.000925310               0.999999991              -0.000051428               0.000957693               0.999999991              -0.000051694               0.000990091               0.999999991              -0.000049337               0.001022370               0.999999991              -0.000043769               0.001054618               0.999999991              -0.000033483               0.000738396               0.999999991              -0.000012762               0.000737132               0.999999991              -0.000004144               0.000737375               0.999999991              -0.000001459               0.000742610               0.999999991              -0.000001708               0.000752943               0.999999991              -0.000003662               0.000767726               0.999999991              -0.000006670               0.000786401               0.999999991              -0.000010282               0.000808384               0.999999991              -0.000014181               0.000833108               0.999999991              -0.000018245               0.000860157               0.999999991              -0.000022302               0.000889294               0.999999991              -0.000025874               0.000920090               0.999999991              -0.000028607               0.000952074               0.999999991              -0.000030190               0.000984825               0.999999991              -0.000030029               0.001017872               0.999999991              -0.000027432               0.001050923               0.999999991              -0.000021435               0.001083812               0.999999991              -0.000016877               0.000749723               0.999999991              -0.000006151               0.000753915               0.999999991              -0.000001473               0.000757018               0.999999991               0.000000139               0.000763579               0.999999991               0.000000175               0.000774425               0.999999991              -0.000000617               0.000789222               0.999999991              -0.000002037               0.000807589               0.999999991              -0.000003775               0.000829082               0.999999991              -0.000005765               0.000853285               0.999999991              -0.000007733               0.000879889               0.999999991              -0.000009633               0.000908522               0.999999991              -0.000011345               0.000938911               0.999999991              -0.000012689               0.000970717               0.999999991              -0.000013511               0.001003499               0.999999991              -0.000013431               0.001036934               0.999999991              -0.000011927               0.001070647               0.999999991              -0.000008446               0.001104345               0.999999991               0.000000000               0.000753538               0.999999991               0.000000000               0.000759597               0.999999991               0.000000000               0.000763752               0.999999991               0.000000000               0.000770825               0.999999991              -0.000000000               0.000781863               0.999999991              -0.000000000               0.000796737               0.999999991              -0.000000000               0.000815055               0.999999991              -0.000000000               0.000836410               0.999999991              -0.000000000               0.000860528               0.999999991              -0.000000000               0.000887051               0.999999991              -0.000000000               0.000915537               0.999999991               0.000000000               0.000945715               0.999999991               0.000000000               0.000977304               0.999999991               0.000000000               0.001009961               0.999999991               0.000000000               0.001043401               0.999999991               0.000000000               0.001077296               0.999999991               0.000000000               0.001111324               0.999999991              -0.000170554               0.000000000               0.999999991              -0.000200184              -0.000000000               0.999999991              -0.000214229               0.000000000               0.999999991              -0.000222299               0.000000000               0.999999991              -0.000228326               0.000000000               0.999999991              -0.000234059               0.000000000               0.999999991              -0.000240316               0.000000000               0.999999991              -0.000247437              -0.000000000               0.999999991              -0.000255460               0.000000000               0.999999991              -0.000264495              -0.000000000               0.999999991              -0.000274596               0.000000000               0.999999991              -0.000285836               0.000000000               0.999999991              -0.000298205               0.000000000               0.999999991              -0.000311612               0.000000000               0.999999991              -0.000325892               0.000000000               0.999999991              -0.000340766               0.000000000               0.999999991              -0.000355995              -0.000000000               0.999999991              -0.000169797              -0.000074258               0.999999991              -0.000197927              -0.000064262               0.999999991              -0.000211024              -0.000060875               0.999999991              -0.000218587              -0.000060926               0.999999991              -0.000224346              -0.000063068               0.999999991              -0.000229944              -0.000066548               0.999999991              -0.000236158              -0.000070962               0.999999991              -0.000243345              -0.000075935               0.999999991              -0.000251555              -0.000081245               0.999999991              -0.000260775              -0.000086865               0.999999991              -0.000271042              -0.000092904               0.999999991              -0.000282387              -0.000099140               0.999999991              -0.000294754              -0.000105318               0.999999991              -0.000308007              -0.000111259               0.999999991              -0.000321999              -0.000116687               0.999999991              -0.000336537              -0.000121229               0.999999991              -0.000351319              -0.000124515               0.999999991              -0.000167337              -0.000147791               0.999999991              -0.000190969              -0.000127826               0.999999991              -0.000201336              -0.000121411               0.999999991              -0.000207407              -0.000121967               0.999999991              -0.000212553              -0.000126603               0.999999991              -0.000218054              -0.000133829               0.999999991              -0.000224473              -0.000142761               0.999999991              -0.000231945              -0.000152788               0.999999991              -0.000240448              -0.000163446               0.999999991              -0.000249988              -0.000174818               0.999999991              -0.000260513              -0.000186699               0.999999991              -0.000271968              -0.000198750               0.999999991              -0.000284133              -0.000210738               0.999999991              -0.000296838              -0.000222244               0.999999991              -0.000310014              -0.000232792               0.999999991              -0.000323441              -0.000241870               0.999999991              -0.000336982              -0.000248801               0.999999991              -0.000163000              -0.000219750               0.999999991              -0.000179373              -0.000190117               0.999999991              -0.000185867              -0.000181412               0.999999991              -0.000190105              -0.000183204               0.999999991              -0.000194686              -0.000190827               0.999999991              -0.000200309              -0.000202079               0.999999991              -0.000207159              -0.000215669               0.999999991              -0.000215078              -0.000230702               0.999999991              -0.000224042              -0.000246763               0.999999991              -0.000234035              -0.000263644               0.999999991              -0.000244859              -0.000281085               0.999999991              -0.000256349              -0.000298713               0.999999991              -0.000268253              -0.000315956               0.999999991              -0.000280372              -0.000332430               0.999999991              -0.000292562              -0.000347818               0.999999991              -0.000304772              -0.000361584               0.999999991              -0.000317071              -0.000373379               0.999999991              -0.000156818              -0.000289285               0.999999991              -0.000163865              -0.000250719               0.999999991              -0.000166225              -0.000240720               0.999999991              -0.000168978              -0.000244336               0.999999991              -0.000173381              -0.000255430               0.999999991              -0.000179498              -0.000270940               0.999999991              -0.000187043              -0.000289109               0.999999991              -0.000195746              -0.000309030               0.999999991              -0.000205462              -0.000330230               0.999999991              -0.000216072              -0.000352393               0.999999991              -0.000227279              -0.000375145               0.999999991              -0.000238781              -0.000397785               0.999999991              -0.000250479              -0.000419822               0.999999991              -0.000262138              -0.000440989               0.999999991              -0.000273665              -0.000461083               0.999999991              -0.000285096              -0.000479863               0.999999991              -0.000296497              -0.000497340               0.999999991              -0.000149012              -0.000355656               0.999999991              -0.000145448              -0.000309394               0.999999991              -0.000144000              -0.000299168               0.999999991              -0.000145934              -0.000305166               0.999999991              -0.000150800              -0.000319913               0.999999991              -0.000157914              -0.000339609               0.999999991              -0.000166641              -0.000362156               0.999999991              -0.000176528              -0.000386689               0.999999991              -0.000187259              -0.000412813               0.999999991              -0.000198574              -0.000440014               0.999999991              -0.000210206              -0.000467519               0.999999991              -0.000221915              -0.000494724               0.999999991              -0.000233468              -0.000521249               0.999999991              -0.000244723              -0.000546941               0.999999991              -0.000255741              -0.000571845               0.999999991              -0.000266505              -0.000595750               0.999999991              -0.000277056              -0.000618822               0.999999991              -0.000139759              -0.000418223               0.999999991              -0.000125105              -0.000366010               0.999999991              -0.000120849              -0.000356385               0.999999991              -0.000122947              -0.000365069               0.999999991              -0.000129107              -0.000383287               0.999999991              -0.000137830              -0.000406944               0.999999991              -0.000148093              -0.000433699               0.999999991              -0.000159211              -0.000462734               0.999999991              -0.000170972              -0.000493660               0.999999991              -0.000183091              -0.000525380               0.999999991              -0.000195131              -0.000557256               0.999999991              -0.000206822              -0.000588750               0.999999991              -0.000218045              -0.000619612               0.999999991              -0.000228788              -0.000649812               0.999999991              -0.000239047              -0.000679364               0.999999991              -0.000248892              -0.000708116               0.999999991              -0.000258409              -0.000735949               0.999999991              -0.000129182              -0.000476400               0.999999991              -0.000103970              -0.000420370               0.999999991              -0.000098263              -0.000411906               0.999999991              -0.000101615              -0.000423159               0.999999991              -0.000109640              -0.000444703               0.999999991              -0.000120167              -0.000472158               0.999999991              -0.000131955              -0.000503073               0.999999991              -0.000144409              -0.000536498               0.999999991              -0.000157246              -0.000571778               0.999999991              -0.000169893              -0.000607804               0.999999991              -0.000181989              -0.000643731               0.999999991              -0.000193362              -0.000679197               0.999999991              -0.000203937              -0.000714169               0.999999991              -0.000213816              -0.000748580               0.999999991              -0.000223154              -0.000782408               0.999999991              -0.000232116              -0.000815503               0.999999991              -0.000240667              -0.000847704               0.999999991              -0.000117789              -0.000529249               0.999999991              -0.000082802              -0.000472531               0.999999991              -0.000077544              -0.000465181               0.999999991              -0.000082800              -0.000478735               0.999999991              -0.000092917              -0.000503473               0.999999991              -0.000105301              -0.000534610               0.999999991              -0.000118590              -0.000569635               0.999999991              -0.000132208              -0.000607343               0.999999991              -0.000145772              -0.000646789               0.999999991              -0.000158632              -0.000686669               0.999999991              -0.000170300              -0.000726302               0.999999991              -0.000180883              -0.000765577               0.999999991              -0.000190487              -0.000804356               0.999999991              -0.000199546              -0.000842611               0.999999991              -0.000208243              -0.000880218               0.999999991              -0.000216734              -0.000917120               0.999999991              -0.000225044              -0.000953290               0.999999991              -0.000106425              -0.000578649               0.999999991              -0.000066131              -0.000528178               0.999999991              -0.000058462              -0.000516604               0.999999991              -0.000062111              -0.000525067               0.999999991              -0.000070868              -0.000544817               0.999999991              -0.000082027              -0.000571504               0.999999991              -0.000094009              -0.000602620               0.999999991              -0.000106382              -0.000636673               0.999999991              -0.000118903              -0.000672773               0.999999991              -0.000131075              -0.000709996               0.999999991              -0.000142033              -0.000747430               0.999999991              -0.000151708              -0.000784789               0.999999991              -0.000160175              -0.000821981               0.999999991              -0.000167794              -0.000858901               0.999999991              -0.000175070              -0.000895510               0.999999991              -0.000182155              -0.000931662               0.999999991              -0.000189335              -0.000967296               0.999999991              -0.000093573              -0.000623208               0.999999991              -0.000051627              -0.000581393               0.999999991              -0.000041493              -0.000568751               0.999999991              -0.000043209              -0.000573325               0.999999991              -0.000050244              -0.000588802               0.999999991              -0.000059754              -0.000611442               0.999999991              -0.000070246              -0.000638803               0.999999991              -0.000081168              -0.000669376               0.999999991              -0.000092419              -0.000702339               0.999999991              -0.000103590              -0.000736795               0.999999991              -0.000113823              -0.000771904               0.999999991              -0.000122726              -0.000807214               0.999999991              -0.000130119              -0.000842453               0.999999991              -0.000136227              -0.000877677               0.999999991              -0.000141468              -0.000912786               0.999999991              -0.000146320              -0.000947867               0.999999991              -0.000151295              -0.000982841               0.999999991              -0.000079705              -0.000661951               0.999999991              -0.000039210              -0.000630732               0.999999991              -0.000027448              -0.000619400               0.999999991              -0.000027125              -0.000621974               0.999999991              -0.000032070              -0.000634276               0.999999991              -0.000039654              -0.000653459               0.999999991              -0.000048433              -0.000677506               0.999999991              -0.000057719              -0.000704993               0.999999991              -0.000067462              -0.000735057               0.999999991              -0.000077312              -0.000767073               0.999999991              -0.000086511              -0.000800124               0.999999991              -0.000094390              -0.000833612               0.999999991              -0.000100752              -0.000867167               0.999999991              -0.000105478              -0.000900680               0.999999991              -0.000108731              -0.000934149               0.999999991              -0.000110838              -0.000967677               0.999999991              -0.000112434              -0.001001457               0.999999991              -0.000065004              -0.000694257               0.999999991              -0.000028842              -0.000674245               0.999999991              -0.000016653              -0.000666162               0.999999991              -0.000014622              -0.000668544               0.999999991              -0.000017528              -0.000679042               0.999999991              -0.000023047              -0.000695719               0.999999991              -0.000029827              -0.000717129               0.999999991              -0.000037374              -0.000742060               0.999999991              -0.000045278              -0.000769700               0.999999991              -0.000053407              -0.000799610               0.999999991              -0.000061201              -0.000831047               0.999999991              -0.000067917              -0.000863239               0.999999991              -0.000073235              -0.000895726               0.999999991              -0.000076730              -0.000928189               0.999999991              -0.000078261              -0.000960561               0.999999991              -0.000077737              -0.000992917               0.999999991              -0.000075348              -0.001025540               0.999999991              -0.000049571              -0.000719814               0.999999991              -0.000020197              -0.000710159               0.999999991              -0.000009002              -0.000706361               0.999999991              -0.000006111              -0.000709916               0.999999991              -0.000007361              -0.000719910               0.999999991              -0.000010858              -0.000735225               0.999999991              -0.000015714              -0.000754805               0.999999991              -0.000021283              -0.000777874               0.999999991              -0.000027254              -0.000803680               0.999999991              -0.000033404              -0.000831885               0.999999991              -0.000039483              -0.000861957               0.999999991              -0.000044815              -0.000893236               0.999999991              -0.000048964              -0.000925310               0.999999991              -0.000051428              -0.000957693               0.999999991              -0.000051694              -0.000990091               0.999999991              -0.000049337              -0.001022370               0.999999991              -0.000043769              -0.001054618               0.999999991              -0.000033483              -0.000738396               0.999999991              -0.000012762              -0.000737132               0.999999991              -0.000004144              -0.000737375               0.999999991              -0.000001459              -0.000742610               0.999999991              -0.000001708              -0.000752943               0.999999991              -0.000003662              -0.000767726               0.999999991              -0.000006670              -0.000786401               0.999999991              -0.000010282              -0.000808384               0.999999991              -0.000014181              -0.000833108               0.999999991              -0.000018245              -0.000860157               0.999999991              -0.000022302              -0.000889294               0.999999991              -0.000025874              -0.000920090               0.999999991              -0.000028607              -0.000952074               0.999999991              -0.000030190              -0.000984825               0.999999991              -0.000030029              -0.001017872               0.999999991              -0.000027432              -0.001050923               0.999999991              -0.000021435              -0.001083812               0.999999991              -0.000016877              -0.000749723               0.999999991              -0.000006151              -0.000753915               0.999999991              -0.000001473              -0.000757018               0.999999991               0.000000139              -0.000763579               0.999999991               0.000000175              -0.000774425               0.999999991              -0.000000617              -0.000789222               0.999999991              -0.000002037              -0.000807589               0.999999991              -0.000003775              -0.000829082               0.999999991              -0.000005765              -0.000853285               0.999999991              -0.000007733              -0.000879889               0.999999991              -0.000009633              -0.000908522               0.999999991              -0.000011345              -0.000938911               0.999999991              -0.000012689              -0.000970717               0.999999991              -0.000013511              -0.001003499               0.999999991              -0.000013431              -0.001036934               0.999999991              -0.000011927              -0.001070647               0.999999991              -0.000008446              -0.001104345               0.999999991              -0.000000000              -0.000753538               0.999999991              -0.000000000              -0.000759597               0.999999991              -0.000000000              -0.000763752               0.999999991               0.000000000              -0.000770825               0.999999991              -0.000000000              -0.000781863               0.999999991               0.000000000              -0.000796737               0.999999991              -0.000000000              -0.000815055               0.999999991              -0.000000000              -0.000836410               0.999999991              -0.000000000              -0.000860528               0.999999991              -0.000000000              -0.000887051               0.999999991               0.000000000              -0.000915537               0.999999991              -0.000000000              -0.000945715               0.999999991               0.000000000              -0.000977304               0.999999991               0.000000000              -0.001009961               0.999999991              -0.000000000              -0.001043401               0.999999991              -0.000000000              -0.001077296               0.999999991               0.000000000              -0.001111324               0.999999991               0.000170554              -0.000000000               0.999999991               0.000200184              -0.000000000               0.999999991               0.000214229              -0.000000000               0.999999991               0.000222299              -0.000000000               0.999999991               0.000228326               0.000000000               0.999999991               0.000234059               0.000000000               0.999999991               0.000240316               0.000000000               0.999999991               0.000247437               0.000000000               0.999999991               0.000255460               0.000000000               0.999999991               0.000264495              -0.000000000               0.999999991               0.000274596               0.000000000               0.999999991               0.000285836               0.000000000               0.999999991               0.000298205               0.000000000               0.999999991               0.000311612              -0.000000000               0.999999991               0.000325892               0.000000000               0.999999991               0.000340766               0.000000000               0.999999991               0.000355995              -0.000000000               0.999999991               0.000169797              -0.000074258               0.999999991               0.000197927              -0.000064262               0.999999991               0.000211024              -0.000060875               0.999999991               0.000218587              -0.000060926               0.999999991               0.000224346              -0.000063068               0.999999991               0.000229944              -0.000066548               0.999999991               0.000236158              -0.000070962               0.999999991               0.000243345              -0.000075935               0.999999991               0.000251555              -0.000081245               0.999999991               0.000260775              -0.000086865               0.999999991               0.000271042              -0.000092904               0.999999991               0.000282387              -0.000099140               0.999999991               0.000294754              -0.000105318               0.999999991               0.000308007              -0.000111259               0.999999991               0.000321999              -0.000116687               0.999999991               0.000336537              -0.000121229               0.999999991               0.000351319              -0.000124515               0.999999991               0.000167337              -0.000147791               0.999999991               0.000190969              -0.000127826               0.999999991               0.000201336              -0.000121411               0.999999991               0.000207407              -0.000121967               0.999999991               0.000212553              -0.000126603               0.999999991               0.000218054              -0.000133829               0.999999991               0.000224473              -0.000142761               0.999999991               0.000231945              -0.000152788               0.999999991               0.000240448              -0.000163446               0.999999991               0.000249988              -0.000174818               0.999999991               0.000260513              -0.000186699               0.999999991               0.000271968              -0.000198750               0.999999991               0.000284133              -0.000210738               0.999999991               0.000296838              -0.000222244               0.999999991               0.000310014              -0.000232792               0.999999991               0.000323441              -0.000241870               0.999999991               0.000336982              -0.000248801               0.999999991               0.000163000              -0.000219750               0.999999991               0.000179373              -0.000190117               0.999999991               0.000185867              -0.000181412               0.999999991               0.000190105              -0.000183204               0.999999991               0.000194686              -0.000190827               0.999999991               0.000200309              -0.000202079               0.999999991               0.000207159              -0.000215669               0.999999991               0.000215078              -0.000230702               0.999999991               0.000224042              -0.000246763               0.999999991               0.000234035              -0.000263644               0.999999991               0.000244859              -0.000281085               0.999999991               0.000256349              -0.000298713               0.999999991               0.000268253              -0.000315956               0.999999991               0.000280372              -0.000332430               0.999999991               0.000292562              -0.000347818               0.999999991               0.000304772              -0.000361584               0.999999991               0.000317071              -0.000373379               0.999999991               0.000156818              -0.000289285               0.999999991               0.000163865              -0.000250719               0.999999991               0.000166225              -0.000240720               0.999999991               0.000168978              -0.000244336               0.999999991               0.000173381              -0.000255430               0.999999991               0.000179498              -0.000270940               0.999999991               0.000187043              -0.000289109               0.999999991               0.000195746              -0.000309030               0.999999991               0.000205462              -0.000330230               0.999999991               0.000216072              -0.000352393               0.999999991               0.000227279              -0.000375145               0.999999991               0.000238781              -0.000397785               0.999999991               0.000250479              -0.000419822               0.999999991               0.000262138              -0.000440989               0.999999991               0.000273665              -0.000461083               0.999999991               0.000285096              -0.000479863               0.999999991               0.000296497              -0.000497340               0.999999991               0.000149012              -0.000355656               0.999999991               0.000145448              -0.000309394               0.999999991               0.000144000              -0.000299168               0.999999991               0.000145934              -0.000305166               0.999999991               0.000150800              -0.000319913               0.999999991               0.000157914              -0.000339609               0.999999991               0.000166641              -0.000362156               0.999999991               0.000176528              -0.000386689               0.999999991               0.000187259              -0.000412813               0.999999991               0.000198574              -0.000440014               0.999999991               0.000210206              -0.000467519               0.999999991               0.000221915              -0.000494724               0.999999991               0.000233468              -0.000521249               0.999999991               0.000244723              -0.000546941               0.999999991               0.000255741              -0.000571845               0.999999991               0.000266505              -0.000595750               0.999999991               0.000277056              -0.000618822               0.999999991               0.000139759              -0.000418223               0.999999991               0.000125105              -0.000366010               0.999999991               0.000120849              -0.000356385               0.999999991               0.000122947              -0.000365069               0.999999991               0.000129107              -0.000383287               0.999999991               0.000137830              -0.000406944               0.999999991               0.000148093              -0.000433699               0.999999991               0.000159211              -0.000462734               0.999999991               0.000170972              -0.000493660               0.999999991               0.000183091              -0.000525380               0.999999991               0.000195131              -0.000557256               0.999999991               0.000206822              -0.000588750               0.999999991               0.000218045              -0.000619612               0.999999991               0.000228788              -0.000649812               0.999999991               0.000239047              -0.000679364               0.999999991               0.000248892              -0.000708116               0.999999991               0.000258409              -0.000735949               0.999999991               0.000129182              -0.000476400               0.999999991               0.000103970              -0.000420370               0.999999991               0.000098263              -0.000411906               0.999999991               0.000101615              -0.000423159               0.999999991               0.000109640              -0.000444703               0.999999991               0.000120167              -0.000472158               0.999999991               0.000131955              -0.000503073               0.999999991               0.000144409              -0.000536498               0.999999991               0.000157246              -0.000571778               0.999999991               0.000169893              -0.000607804               0.999999991               0.000181989              -0.000643731               0.999999991               0.000193362              -0.000679197               0.999999991               0.000203937              -0.000714169               0.999999991               0.000213816              -0.000748580               0.999999991               0.000223154              -0.000782408               0.999999991               0.000232116              -0.000815503               0.999999991               0.000240667              -0.000847704               0.999999991               0.000117789              -0.000529249               0.999999991               0.000082802              -0.000472531               0.999999991               0.000077544              -0.000465181               0.999999991               0.000082800              -0.000478735               0.999999991               0.000092917              -0.000503473               0.999999991               0.000105301              -0.000534610               0.999999991               0.000118590              -0.000569635               0.999999991               0.000132208              -0.000607343               0.999999991               0.000145772              -0.000646789               0.999999991               0.000158632              -0.000686669               0.999999991               0.000170300              -0.000726302               0.999999991               0.000180883              -0.000765577               0.999999991               0.000190487              -0.000804356               0.999999991               0.000199546              -0.000842611               0.999999991               0.000208243              -0.000880218               0.999999991               0.000216734              -0.000917120               0.999999991               0.000225044              -0.000953290               0.999999991               0.000106425              -0.000578649               0.999999991               0.000066131              -0.000528178               0.999999991               0.000058462              -0.000516604               0.999999991               0.000062111              -0.000525067               0.999999991               0.000070868              -0.000544817               0.999999991               0.000082027              -0.000571504               0.999999991               0.000094009              -0.000602620               0.999999991               0.000106382              -0.000636673               0.999999991               0.000118903              -0.000672773               0.999999991               0.000131075              -0.000709996               0.999999991               0.000142033              -0.000747430               0.999999991               0.000151708              -0.000784789               0.999999991               0.000160175              -0.000821981               0.999999991               0.000167794              -0.000858901               0.999999991               0.000175070              -0.000895510               0.999999991               0.000182155              -0.000931662               0.999999991               0.000189335              -0.000967296               0.999999991               0.000093573              -0.000623208               0.999999991               0.000051627              -0.000581393               0.999999991               0.000041493              -0.000568751               0.999999991               0.000043209              -0.000573325               0.999999991               0.000050244              -0.000588802               0.999999991               0.000059754              -0.000611442               0.999999991               0.000070246              -0.000638803               0.999999991               0.000081168              -0.000669376               0.999999991               0.000092419              -0.000702339               0.999999991               0.000103590              -0.000736795               0.999999991               0.000113823              -0.000771904               0.999999991               0.000122726              -0.000807214               0.999999991               0.000130119              -0.000842453               0.999999991               0.000136227              -0.000877677               0.999999991               0.000141468              -0.000912786               0.999999991               0.000146320              -0.000947867               0.999999991               0.000151295              -0.000982841               0.999999991               0.000079705              -0.000661951               0.999999991               0.000039210              -0.000630732               0.999999991               0.000027448              -0.000619400               0.999999991               0.000027125              -0.000621974               0.999999991               0.000032070              -0.000634276               0.999999991               0.000039654              -0.000653459               0.999999991               0.000048433              -0.000677506               0.999999991               0.000057719              -0.000704993               0.999999991               0.000067462              -0.000735057               0.999999991               0.000077312              -0.000767073               0.999999991               0.000086511              -0.000800124               0.999999991               0.000094390              -0.000833612               0.999999991               0.000100752              -0.000867167               0.999999991               0.000105478              -0.000900680               0.999999991               0.000108731              -0.000934149               0.999999991               0.000110838              -0.000967677               0.999999991               0.000112434              -0.001001457               0.999999991               0.000065004              -0.000694257               0.999999991               0.000028842              -0.000674245               0.999999991               0.000016653              -0.000666162               0.999999991               0.000014622              -0.000668544               0.999999991               0.000017528              -0.000679042               0.999999991               0.000023047              -0.000695719               0.999999991               0.000029827              -0.000717129               0.999999991               0.000037374              -0.000742060               0.999999991               0.000045278              -0.000769700               0.999999991               0.000053407              -0.000799610               0.999999991               0.000061201              -0.000831047               0.999999991               0.000067917              -0.000863239               0.999999991               0.000073235              -0.000895726               0.999999991               0.000076730              -0.000928189               0.999999991               0.000078261              -0.000960561               0.999999991               0.000077737              -0.000992917               0.999999991               0.000075348              -0.001025540               0.999999991               0.000049571              -0.000719814               0.999999991               0.000020197              -0.000710159               0.999999991               0.000009002              -0.000706361               0.999999991               0.000006111              -0.000709916               0.999999991               0.000007361              -0.000719910               0.999999991               0.000010858              -0.000735225               0.999999991               0.000015714              -0.000754805               0.999999991               0.000021283              -0.000777874               0.999999991               0.000027254              -0.000803680               0.999999991               0.000033404              -0.000831885               0.999999991               0.000039483              -0.000861957               0.999999991               0.000044815              -0.000893236               0.999999991               0.000048964              -0.000925310               0.999999991               0.000051428              -0.000957693               0.999999991               0.000051694              -0.000990091               0.999999991               0.000049337              -0.001022370               0.999999991               0.000043769              -0.001054618               0.999999991               0.000033483              -0.000738396               0.999999991               0.000012762              -0.000737132               0.999999991               0.000004144              -0.000737375               0.999999991               0.000001459              -0.000742610               0.999999991               0.000001708              -0.000752943               0.999999991               0.000003662              -0.000767726               0.999999991               0.000006670              -0.000786401               0.999999991               0.000010282              -0.000808384               0.999999991               0.000014181              -0.000833108               0.999999991               0.000018245              -0.000860157               0.999999991               0.000022302              -0.000889294               0.999999991               0.000025874              -0.000920090               0.999999991               0.000028607              -0.000952074               0.999999991               0.000030190              -0.000984825               0.999999991               0.000030029              -0.001017872               0.999999991               0.000027432              -0.001050923               0.999999991               0.000021435              -0.001083812               0.999999991               0.000016877              -0.000749723               0.999999991               0.000006151              -0.000753915               0.999999991               0.000001473              -0.000757018               0.999999991              -0.000000139              -0.000763579               0.999999991              -0.000000175              -0.000774425               0.999999991               0.000000617              -0.000789222               0.999999991               0.000002037              -0.000807589               0.999999991               0.000003775              -0.000829082               0.999999991               0.000005765              -0.000853285               0.999999991               0.000007733              -0.000879889               0.999999991               0.000009633              -0.000908522               0.999999991               0.000011345              -0.000938911               0.999999991               0.000012689              -0.000970717               0.999999991               0.000013511              -0.001003499               0.999999991               0.000013431              -0.001036934               0.999999991               0.000011927              -0.001070647               0.999999991               0.000008446              -0.001104345               0.999999991              -0.000000000              -0.000753538               0.999999991              -0.000000000              -0.000759597               0.999999991              -0.000000000              -0.000763752               0.999999991               0.000000000              -0.000770825               0.999999991              -0.000000000              -0.000781863               0.999999991               0.000000000              -0.000796737               0.999999991              -0.000000000              -0.000815055               0.999999991              -0.000000000              -0.000836410               0.999999991              -0.000000000              -0.000860528               0.999999991              -0.000000000              -0.000887051               0.999999991               0.000000000              -0.000915537               0.999999991              -0.000000000              -0.000945715               0.999999991               0.000000000              -0.000977304               0.999999991               0.000000000              -0.001009961               0.999999991              -0.000000000              -0.001043401               0.999999991              -0.000000000              -0.001077296               0.999999991               0.000000000              -0.001111324               0.999999991               0.000170554              -0.000000000               0.999999991               0.000200184              -0.000000000               0.999999991               0.000214229              -0.000000000               0.999999991               0.000222299              -0.000000000               0.999999991               0.000228326               0.000000000               0.999999991               0.000234059               0.000000000               0.999999991               0.000240316               0.000000000               0.999999991               0.000247437               0.000000000               0.999999991               0.000255460               0.000000000               0.999999991               0.000264495              -0.000000000               0.999999991               0.000274596               0.000000000               0.999999991               0.000285836               0.000000000               0.999999991               0.000298205               0.000000000               0.999999991               0.000311612              -0.000000000               0.999999991               0.000325892               0.000000000               0.999999991               0.000340766               0.000000000               0.999999991               0.000355995              -0.000000000               0.999999991               0.000169797               0.000074258               0.999999991               0.000197927               0.000064262               0.999999991               0.000211024               0.000060875               0.999999991               0.000218587               0.000060926               0.999999991               0.000224346               0.000063068               0.999999991               0.000229944               0.000066548               0.999999991               0.000236158               0.000070962               0.999999991               0.000243345               0.000075935               0.999999991               0.000251555               0.000081245               0.999999991               0.000260775               0.000086865               0.999999991               0.000271042               0.000092904               0.999999991               0.000282387               0.000099140               0.999999991               0.000294754               0.000105318               0.999999991               0.000308007               0.000111259               0.999999991               0.000321999               0.000116687               0.999999991               0.000336537               0.000121229               0.999999991               0.000351319               0.000124515               0.999999991               0.000167337               0.000147791               0.999999991               0.000190969               0.000127826               0.999999991               0.000201336               0.000121411               0.999999991               0.000207407               0.000121967               0.999999991               0.000212553               0.000126603               0.999999991               0.000218054               0.000133829               0.999999991               0.000224473               0.000142761               0.999999991               0.000231945               0.000152788               0.999999991               0.000240448               0.000163446               0.999999991               0.000249988               0.000174818               0.999999991               0.000260513               0.000186699               0.999999991               0.000271968               0.000198750               0.999999991               0.000284133               0.000210738               0.999999991               0.000296838               0.000222244               0.999999991               0.000310014               0.000232792               0.999999991               0.000323441               0.000241870               0.999999991               0.000336982               0.000248801               0.999999991               0.000163000               0.000219750               0.999999991               0.000179373               0.000190117               0.999999991               0.000185867               0.000181412               0.999999991               0.000190105               0.000183204               0.999999991               0.000194686               0.000190827               0.999999991               0.000200309               0.000202079               0.999999991               0.000207159               0.000215669               0.999999991               0.000215078               0.000230702               0.999999991               0.000224042               0.000246763               0.999999991               0.000234035               0.000263644               0.999999991               0.000244859               0.000281085               0.999999991               0.000256349               0.000298713               0.999999991               0.000268253               0.000315956               0.999999991               0.000280372               0.000332430               0.999999991               0.000292562               0.000347818               0.999999991               0.000304772               0.000361584               0.999999991               0.000317071               0.000373379               0.999999991               0.000156818               0.000289285               0.999999991               0.000163865               0.000250719               0.999999991               0.000166225               0.000240720               0.999999991               0.000168978               0.000244336               0.999999991               0.000173381               0.000255430               0.999999991               0.000179498               0.000270940               0.999999991               0.000187043               0.000289109               0.999999991               0.000195746               0.000309030               0.999999991               0.000205462               0.000330230               0.999999991               0.000216072               0.000352393               0.999999991               0.000227279               0.000375145               0.999999991               0.000238781               0.000397785               0.999999991               0.000250479               0.000419822               0.999999991               0.000262138               0.000440989               0.999999991               0.000273665               0.000461083               0.999999991               0.000285096               0.000479863               0.999999991               0.000296497               0.000497340               0.999999991               0.000149012               0.000355656               0.999999991               0.000145448               0.000309394               0.999999991               0.000144000               0.000299168               0.999999991               0.000145934               0.000305166               0.999999991               0.000150800               0.000319913               0.999999991               0.000157914               0.000339609               0.999999991               0.000166641               0.000362156               0.999999991               0.000176528               0.000386689               0.999999991               0.000187259               0.000412813               0.999999991               0.000198574               0.000440014               0.999999991               0.000210206               0.000467519               0.999999991               0.000221915               0.000494724               0.999999991               0.000233468               0.000521249               0.999999991               0.000244723               0.000546941               0.999999991               0.000255741               0.000571845               0.999999991               0.000266505               0.000595750               0.999999991               0.000277056               0.000618822               0.999999991               0.000139759               0.000418223               0.999999991               0.000125105               0.000366010               0.999999991               0.000120849               0.000356385               0.999999991               0.000122947               0.000365069               0.999999991               0.000129107               0.000383287               0.999999991               0.000137830               0.000406944               0.999999991               0.000148093               0.000433699               0.999999991               0.000159211               0.000462734               0.999999991               0.000170972               0.000493660               0.999999991               0.000183091               0.000525380               0.999999991               0.000195131               0.000557256               0.999999991               0.000206822               0.000588750               0.999999991               0.000218045               0.000619612               0.999999991               0.000228788               0.000649812               0.999999991               0.000239047               0.000679364               0.999999991               0.000248892               0.000708116               0.999999991               0.000258409               0.000735949               0.999999991               0.000129182               0.000476400               0.999999991               0.000103970               0.000420370               0.999999991               0.000098263               0.000411906               0.999999991               0.000101615               0.000423159               0.999999991               0.000109640               0.000444703               0.999999991               0.000120167               0.000472158               0.999999991               0.000131955               0.000503073               0.999999991               0.000144409               0.000536498               0.999999991               0.000157246               0.000571778               0.999999991               0.000169893               0.000607804               0.999999991               0.000181989               0.000643731               0.999999991               0.000193362               0.000679197               0.999999991               0.000203937               0.000714169               0.999999991               0.000213816               0.000748580               0.999999991               0.000223154               0.000782408               0.999999991               0.000232116               0.000815503               0.999999991               0.000240667               0.000847704               0.999999991               0.000117789               0.000529249               0.999999991               0.000082802               0.000472531               0.999999991               0.000077544               0.000465181               0.999999991               0.000082800               0.000478735               0.999999991               0.000092917               0.000503473               0.999999991               0.000105301               0.000534610               0.999999991               0.000118590               0.000569635               0.999999991               0.000132208               0.000607343               0.999999991               0.000145772               0.000646789               0.999999991               0.000158632               0.000686669               0.999999991               0.000170300               0.000726302               0.999999991               0.000180883               0.000765577               0.999999991               0.000190487               0.000804356               0.999999991               0.000199546               0.000842611               0.999999991               0.000208243               0.000880218               0.999999991               0.000216734               0.000917120               0.999999991               0.000225044               0.000953290               0.999999991               0.000106425               0.000578649               0.999999991               0.000066131               0.000528178               0.999999991               0.000058462               0.000516604               0.999999991               0.000062111               0.000525067               0.999999991               0.000070868               0.000544817               0.999999991               0.000082027               0.000571504               0.999999991               0.000094009               0.000602620               0.999999991               0.000106382               0.000636673               0.999999991               0.000118903               0.000672773               0.999999991               0.000131075               0.000709996               0.999999991               0.000142033               0.000747430               0.999999991               0.000151708               0.000784789               0.999999991               0.000160175               0.000821981               0.999999991               0.000167794               0.000858901               0.999999991               0.000175070               0.000895510               0.999999991               0.000182155               0.000931662               0.999999991               0.000189335               0.000967296               0.999999991               0.000093573               0.000623208               0.999999991               0.000051627               0.000581393               0.999999991               0.000041493               0.000568751               0.999999991               0.000043209               0.000573325               0.999999991               0.000050244               0.000588802               0.999999991               0.000059754               0.000611442               0.999999991               0.000070246               0.000638803               0.999999991               0.000081168               0.000669376               0.999999991               0.000092419               0.000702339               0.999999991               0.000103590               0.000736795               0.999999991               0.000113823               0.000771904               0.999999991               0.000122726               0.000807214               0.999999991               0.000130119               0.000842453               0.999999991               0.000136227               0.000877677               0.999999991               0.000141468               0.000912786               0.999999991               0.000146320               0.000947867               0.999999991               0.000151295               0.000982841               0.999999991               0.000079705               0.000661951               0.999999991               0.000039210               0.000630732               0.999999991               0.000027448               0.000619400               0.999999991               0.000027125               0.000621974               0.999999991               0.000032070               0.000634276               0.999999991               0.000039654               0.000653459               0.999999991               0.000048433               0.000677506               0.999999991               0.000057719               0.000704993               0.999999991               0.000067462               0.000735057               0.999999991               0.000077312               0.000767073               0.999999991               0.000086511               0.000800124               0.999999991               0.000094390               0.000833612               0.999999991               0.000100752               0.000867167               0.999999991               0.000105478               0.000900680               0.999999991               0.000108731               0.000934149               0.999999991               0.000110838               0.000967677               0.999999991               0.000112434               0.001001457               0.999999991               0.000065004               0.000694257               0.999999991               0.000028842               0.000674245               0.999999991               0.000016653               0.000666162               0.999999991               0.000014622               0.000668544               0.999999991               0.000017528               0.000679042               0.999999991               0.000023047               0.000695719               0.999999991               0.000029827               0.000717129               0.999999991               0.000037374               0.000742060               0.999999991               0.000045278               0.000769700               0.999999991               0.000053407               0.000799610               0.999999991               0.000061201               0.000831047               0.999999991               0.000067917               0.000863239               0.999999991               0.000073235               0.000895726               0.999999991               0.000076730               0.000928189               0.999999991               0.000078261               0.000960561               0.999999991               0.000077737               0.000992917               0.999999991               0.000075348               0.001025540               0.999999991               0.000049571               0.000719814               0.999999991               0.000020197               0.000710159               0.999999991               0.000009002               0.000706361               0.999999991               0.000006111               0.000709916               0.999999991               0.000007361               0.000719910               0.999999991               0.000010858               0.000735225               0.999999991               0.000015714               0.000754805               0.999999991               0.000021283               0.000777874               0.999999991               0.000027254               0.000803680               0.999999991               0.000033404               0.000831885               0.999999991               0.000039483               0.000861957               0.999999991               0.000044815               0.000893236               0.999999991               0.000048964               0.000925310               0.999999991               0.000051428               0.000957693               0.999999991               0.000051694               0.000990091               0.999999991               0.000049337               0.001022370               0.999999991               0.000043769               0.001054618               0.999999991               0.000033483               0.000738396               0.999999991               0.000012762               0.000737132               0.999999991               0.000004144               0.000737375               0.999999991               0.000001459               0.000742610               0.999999991               0.000001708               0.000752943               0.999999991               0.000003662               0.000767726               0.999999991               0.000006670               0.000786401               0.999999991               0.000010282               0.000808384               0.999999991               0.000014181               0.000833108               0.999999991               0.000018245               0.000860157               0.999999991               0.000022302               0.000889294               0.999999991               0.000025874               0.000920090               0.999999991               0.000028607               0.000952074               0.999999991               0.000030190               0.000984825               0.999999991               0.000030029               0.001017872               0.999999991               0.000027432               0.001050923               0.999999991               0.000021435               0.001083812               0.999999991               0.000016877               0.000749723               0.999999991               0.000006151               0.000753915               0.999999991               0.000001473               0.000757018               0.999999991              -0.000000139               0.000763579               0.999999991              -0.000000175               0.000774425               0.999999991               0.000000617               0.000789222               0.999999991               0.000002037               0.000807589               0.999999991               0.000003775               0.000829082               0.999999991               0.000005765               0.000853285               0.999999991               0.000007733               0.000879889               0.999999991               0.000009633               0.000908522               0.999999991               0.000011345               0.000938911               0.999999991               0.000012689               0.000970717               0.999999991               0.000013511               0.001003499               0.999999991               0.000013431               0.001036934               0.999999991               0.000011927               0.001070647               0.999999991               0.000008446               0.001104345               0.999999991               0.000000000               0.000753538               0.999999991               0.000000000               0.000759597               0.999999991               0.000000000               0.000763752               0.999999991               0.000000000               0.000770825               0.999999991              -0.000000000               0.000781863               0.999999991              -0.000000000               0.000796737               0.999999991              -0.000000000               0.000815055               0.999999991              -0.000000000               0.000836410               0.999999991              -0.000000000               0.000860528               0.999999991              -0.000000000               0.000887051               0.999999991              -0.000000000               0.000915537               0.999999991               0.000000000               0.000945715               0.999999991               0.000000000               0.000977304               0.999999991               0.000000000               0.001009961               0.999999991               0.000000000               0.001043401               0.999999991               0.000000000               0.001077296               0.999999991               0.000000000               0.001111324               0.999999991 </DataArray>
<DataArray type="Float64"                                    Name="stress"                                                      NumberOfComponents="10" format="ascii">
              0.001213513               0.013806089              -0.000000000              -0.001270690               0.005025547               0.003754857               0.000000000               0.000000000               0.000000000               0.000000000               0.001292169               0.011210694              -0.000000000              -0.000916771               0.004042451               0.003125680               0.000000000               0.000000000               0.000000000               0.000000000               0.001778998               0.009105938               0.000000000              -0.000471117               0.003192321               0.002721205               0.000000000               0.000000000               0.000000000               0.000000000               0.001824200               0.007925174               0.000000000              -0.000306571               0.002743889               0.002437318               0.000000000               0.000000000               0.000000000               0.000000000               0.001710748               0.007210822               0.000000000              -0.000259821               0.002490190               0.002230369               0.000000000               0.000000000               0.000000000               0.000000000               0.001540349               0.006754167               0.000000000              -0.000266639               0.002340246               0.002073607               0.000000000               0.000000000               0.000000000               0.000000000               0.001355303               0.006449739              -0.000000000              -0.000297978               0.002249218               0.001951240               0.000000000               0.000000000               0.000000000               0.000000000               0.001178759               0.006236126              -0.000000000              -0.000337480               0.002191181               0.001853701               0.000000000               0.000000000               0.000000000               0.000000000               0.001014131               0.006077763              -0.000000000              -0.000379420               0.002152374               0.001772954               0.000000000               0.000000000               0.000000000               0.000000000               0.000855638               0.005958794               0.000000000              -0.000423984               0.002127573               0.001703589               0.000000000               0.000000000               0.000000000               0.000000000               0.000701561               0.005872623               0.000000000              -0.000470991               0.002114519               0.001643527               0.000000000               0.000000000               0.000000000               0.000000000               0.000550814               0.005802936              -0.000000000              -0.000518811               0.002107230               0.001588419               0.000000000               0.000000000               0.000000000               0.000000000               0.000408256               0.005735917               0.000000000              -0.000563892               0.002099917               0.001536025               0.000000000               0.000000000               0.000000000               0.000000000               0.000278738               0.005662839               0.000000000              -0.000603327               0.002088703               0.001485376               0.000000000               0.000000000               0.000000000               0.000000000               0.000167617               0.005574100              -0.000000000              -0.000633905               0.002069316               0.001435412               0.000000000               0.000000000               0.000000000               0.000000000               0.000076744               0.005457789              -0.000000000              -0.000653443               0.002037059               0.001383616               0.000000000               0.000000000               0.000000000               0.000000000               0.000026697               0.005363125              -0.000000000              -0.000660378               0.002007816               0.001347439               0.000000000               0.000000000               0.000000000               0.000000000               0.001281323               0.013558833              -0.001015454              -0.001214355               0.004924351               0.003709996               0.000000000               0.000000000               0.000000000               0.000000000               0.001301296               0.011035898              -0.000606408              -0.000891499               0.003975762               0.003084263               0.000000000               0.000000000               0.000000000               0.000000000               0.001723224               0.009012306              -0.000189505              -0.000480328               0.003164181               0.002683853               0.000000000               0.000000000               0.000000000               0.000000000               0.001739711               0.007880276              -0.000000622              -0.000332642               0.002737613               0.002404971               0.000000000               0.000000000               0.000000000               0.000000000               0.001618413               0.007195006               0.000087553              -0.000292470               0.002495802               0.002203331               0.000000000               0.000000000               0.000000000               0.000000000               0.001449511               0.006754706               0.000127746              -0.000300771               0.002351803               0.002051032               0.000000000               0.000000000               0.000000000               0.000000000               0.001268000               0.006456617               0.000142531              -0.000331576               0.002262710               0.001931133               0.000000000               0.000000000               0.000000000               0.000000000               0.001094327               0.006245002               0.000142722              -0.000370252               0.002205064               0.001834812               0.000000000               0.000000000               0.000000000               0.000000000               0.000934715               0.006088041               0.000138473              -0.000410486               0.002166155               0.001755669               0.000000000               0.000000000               0.000000000               0.000000000               0.000785112               0.005971587               0.000136576              -0.000452030               0.002141186               0.001689156               0.000000000               0.000000000               0.000000000               0.000000000               0.000639430               0.005880220               0.000133832              -0.000495240               0.002125134               0.001629894               0.000000000               0.000000000               0.000000000               0.000000000               0.000499039               0.005801190               0.000126311              -0.000538008               0.002113046               0.001575039               0.000000000               0.000000000               0.000000000               0.000000000               0.000370288               0.005727309               0.000115642              -0.000577054               0.002101435               0.001524381               0.000000000               0.000000000               0.000000000               0.000000000               0.000253503               0.005648624               0.000100774              -0.000611013               0.002086527               0.001475514               0.000000000               0.000000000               0.000000000               0.000000000               0.000150912               0.005556247               0.000077594              -0.000637937               0.002064710               0.001426772               0.000000000               0.000000000               0.000000000               0.000000000               0.000067851               0.005442988               0.000043215              -0.000654928               0.002032620               0.001377693               0.000000000               0.000000000               0.000000000               0.000000000               0.000022607               0.005354143               0.000025832              -0.000660789               0.002004959               0.001344171               0.000000000               0.000000000               0.000000000               0.000000000               0.001456109               0.012837438              -0.001898704              -0.001058637               0.004631982               0.003573345               0.000000000               0.000000000               0.000000000               0.000000000               0.001313068               0.010535321              -0.001129102              -0.000824513               0.003786576               0.002962063               0.000000000               0.000000000               0.000000000               0.000000000               0.001559518               0.008752033              -0.000351681              -0.000509184               0.003087043               0.002577859               0.000000000               0.000000000               0.000000000               0.000000000               0.001499578               0.007753410              -0.000009972              -0.000406833               0.002720055               0.002313222               0.000000000               0.000000000               0.000000000               0.000000000               0.001352172               0.007140190               0.000143983              -0.000385458               0.002508526               0.002123067               0.000000000               0.000000000               0.000000000               0.000000000               0.001185320               0.006737759               0.000211123              -0.000397724               0.002378472               0.001980748               0.000000000               0.000000000               0.000000000               0.000000000               0.001020972               0.006457093               0.000235442              -0.000424271               0.002293766               0.001869495               0.000000000               0.000000000               0.000000000               0.000000000               0.000869572               0.006252126               0.000238431              -0.000455425               0.002235830               0.001780404               0.000000000               0.000000000               0.000000000               0.000000000               0.000730101               0.006098670               0.000236185              -0.000488545               0.002195718               0.001707173               0.000000000               0.000000000               0.000000000               0.000000000               0.000600565               0.005979160               0.000234535              -0.000522182               0.002167094               0.001644912               0.000000000               0.000000000               0.000000000               0.000000000               0.000478017               0.005876805               0.000228360              -0.000555343               0.002144030               0.001588687               0.000000000               0.000000000               0.000000000               0.000000000               0.000367706               0.005784555               0.000216480              -0.000585178               0.002123225               0.001538047               0.000000000               0.000000000               0.000000000               0.000000000               0.000273554               0.005695762               0.000198886              -0.000609386               0.002101697               0.001492311               0.000000000               0.000000000               0.000000000               0.000000000               0.000187903               0.005603581               0.000172420              -0.000629983               0.002077836               0.001447853               0.000000000               0.000000000               0.000000000               0.000000000               0.000113013               0.005508058               0.000132983              -0.000646126               0.002051376               0.001405251               0.000000000               0.000000000               0.000000000               0.000000000               0.000052576               0.005409378               0.000074972              -0.000656454               0.002021926               0.001365472               0.000000000               0.000000000               0.000000000               0.000000000               0.000019223               0.005342941               0.000043857              -0.000660657               0.002001182               0.001340524               0.000000000               0.000000000               0.000000000               0.000000000               0.001673210               0.011717765              -0.002563316              -0.000837266               0.004184971               0.003347705               0.000000000               0.000000000               0.000000000               0.000000000               0.001297882               0.009776228              -0.001530792              -0.000735322               0.003503817               0.002768496               0.000000000               0.000000000               0.000000000               0.000000000               0.001297598               0.008365315              -0.000500274              -0.000559064               0.002974765               0.002415701               0.000000000               0.000000000               0.000000000               0.000000000               0.001146062               0.007550376              -0.000064994              -0.000514022               0.002688108               0.002174085               0.000000000               0.000000000               0.000000000               0.000000000               0.000975693               0.007033132               0.000126542              -0.000513255               0.002515439               0.002002184               0.000000000               0.000000000               0.000000000               0.000000000               0.000821498               0.006678421               0.000210834              -0.000526740               0.002401698               0.001874958               0.000000000               0.000000000               0.000000000               0.000000000               0.000687873               0.006416839               0.000244604              -0.000544151               0.002320308               0.001776157               0.000000000               0.000000000               0.000000000               0.000000000               0.000571441               0.006217566               0.000254992              -0.000562904               0.002260136               0.001697232               0.000000000               0.000000000               0.000000000               0.000000000               0.000461731               0.006062728               0.000257528              -0.000584690               0.002215786               0.001631096               0.000000000               0.000000000               0.000000000               0.000000000               0.000362457               0.005935776               0.000257434              -0.000606049               0.002180589               0.001574539               0.000000000               0.000000000               0.000000000               0.000000000               0.000277351               0.005825672               0.000251669              -0.000624201               0.002149938               0.001525737               0.000000000               0.000000000               0.000000000               0.000000000               0.000204862               0.005721029               0.000236751              -0.000638304               0.002119759               0.001481455               0.000000000               0.000000000               0.000000000               0.000000000               0.000147932               0.005617972               0.000212140              -0.000646771               0.002088229               0.001441458               0.000000000               0.000000000               0.000000000               0.000000000               0.000103392               0.005519466               0.000179600              -0.000651160               0.002056857               0.001405697               0.000000000               0.000000000               0.000000000               0.000000000               0.000066717               0.005430338               0.000134273              -0.000653772               0.002028018               0.001374247               0.000000000               0.000000000               0.000000000               0.000000000               0.000033515               0.005356300               0.000072150              -0.000656968               0.002004405               0.001347437               0.000000000               0.000000000               0.000000000               0.000000000               0.000015148               0.005319861               0.000038914              -0.000659300               0.001993036               0.001333736               0.000000000               0.000000000               0.000000000               0.000000000               0.001860168               0.010330016              -0.002970509              -0.000593690               0.003641200               0.003047510               0.000000000               0.000000000               0.000000000               0.000000000               0.001235021               0.008855858              -0.001802165              -0.000643849               0.003166539               0.002522690               0.000000000               0.000000000               0.000000000               0.000000000               0.000965843               0.007900311              -0.000647566              -0.000625346               0.002841859               0.002216513               0.000000000               0.000000000               0.000000000               0.000000000               0.000741093               0.007290031              -0.000175104              -0.000633343               0.002641100               0.002007758               0.000000000               0.000000000               0.000000000               0.000000000               0.000570069               0.006871687               0.000032876              -0.000645183               0.002505601               0.001860417               0.000000000               0.000000000               0.000000000               0.000000000               0.000443744               0.006560374               0.000125601              -0.000653641               0.002404650               0.001751009               0.000000000               0.000000000               0.000000000               0.000000000               0.000348398               0.006313224               0.000167648              -0.000658502               0.002323888               0.001665386               0.000000000               0.000000000               0.000000000               0.000000000               0.000271897               0.006118331               0.000188425              -0.000662828               0.002260366               0.001597538               0.000000000               0.000000000               0.000000000               0.000000000               0.000202385               0.005963878               0.000200717              -0.000669589               0.002211136               0.001541547               0.000000000               0.000000000               0.000000000               0.000000000               0.000142944               0.005834579               0.000207591              -0.000675717               0.002170079               0.001494362               0.000000000               0.000000000               0.000000000               0.000000000               0.000099239               0.005715240               0.000204130              -0.000677189               0.002130790               0.001453602               0.000000000               0.000000000               0.000000000               0.000000000               0.000064495               0.005597979               0.000188036              -0.000675560               0.002091161               0.001415601               0.000000000               0.000000000               0.000000000               0.000000000               0.000040659               0.005488661               0.000163730              -0.000670834               0.002053147               0.001382313               0.000000000               0.000000000               0.000000000               0.000000000               0.000029091               0.005394198               0.000134013              -0.000663364               0.002019169               0.001355805               0.000000000               0.000000000               0.000000000               0.000000000               0.000021993               0.005318607               0.000094657              -0.000656577               0.001991710               0.001335133               0.000000000               0.000000000               0.000000000               0.000000000               0.000014513               0.005266195               0.000047004              -0.000652830               0.001972991               0.001320161               0.000000000               0.000000000               0.000000000               0.000000000               0.000009488               0.005245759               0.000023218              -0.000652160               0.001965955               0.001313795               0.000000000               0.000000000               0.000000000               0.000000000               0.001955727               0.008820740              -0.003117531              -0.000369197               0.003063282               0.002694085               0.000000000               0.000000000               0.000000000               0.000000000               0.001117357               0.007872683              -0.001946625              -0.000565077               0.002812560               0.002247483               0.000000000               0.000000000               0.000000000               0.000000000               0.000610182               0.007396733              -0.000794454              -0.000695772               0.002697477               0.002001705               0.000000000               0.000000000               0.000000000               0.000000000               0.000347690               0.006985648              -0.000332418              -0.000742821               0.002576133               0.001833312               0.000000000               0.000000000               0.000000000               0.000000000               0.000200596               0.006650155              -0.000123047              -0.000756044               0.002468711               0.001712667               0.000000000               0.000000000               0.000000000               0.000000000               0.000115325               0.006374167              -0.000024635              -0.000753522               0.002375875               0.001622353               0.000000000               0.000000000               0.000000000               0.000000000               0.000064648               0.006146338               0.000028317              -0.000744048               0.002296775               0.001552727               0.000000000               0.000000000               0.000000000               0.000000000               0.000030578               0.005965226               0.000067252              -0.000734185               0.002233117               0.001498932               0.000000000               0.000000000               0.000000000               0.000000000               0.000005093               0.005820208               0.000095683              -0.000725615               0.002181921               0.001456307               0.000000000               0.000000000               0.000000000               0.000000000              -0.000013952               0.005686531               0.000111488              -0.000716047               0.002134174               0.001418127               0.000000000               0.000000000               0.000000000               0.000000000              -0.000025096               0.005556444               0.000113848              -0.000703965               0.002086784               0.001382820               0.000000000               0.000000000               0.000000000               0.000000000              -0.000027615               0.005435338               0.000105119              -0.000689771               0.002041685               0.001351914               0.000000000               0.000000000               0.000000000               0.000000000              -0.000021295               0.005330208               0.000090640              -0.000674260               0.002001472               0.001327212               0.000000000               0.000000000               0.000000000               0.000000000              -0.000011829               0.005243915               0.000073952              -0.000659924               0.001967929               0.001308005               0.000000000               0.000000000               0.000000000               0.000000000              -0.000003789               0.005177025               0.000051555              -0.000648547               0.001941840               0.001293293               0.000000000               0.000000000               0.000000000               0.000000000               0.000002390               0.005128258               0.000025021              -0.000640135               0.001922780               0.001282646               0.000000000               0.000000000               0.000000000               0.000000000               0.000000859               0.005101690               0.000014571              -0.000637388               0.001913009               0.001275621               0.000000000               0.000000000               0.000000000               0.000000000               0.001916221               0.007312453              -0.003033746              -0.000195477               0.002502618               0.002307141               0.000000000               0.000000000               0.000000000               0.000000000               0.000945101               0.006897861              -0.001986613              -0.000507820               0.002468537               0.001960717               0.000000000               0.000000000               0.000000000               0.000000000               0.000271018               0.006872027              -0.000946922              -0.000757370               0.002543109               0.001785739               0.000000000               0.000000000               0.000000000               0.000000000               0.000014005               0.006631085              -0.000524921              -0.000823632               0.002484883               0.001661252               0.000000000               0.000000000               0.000000000               0.000000000              -0.000090113               0.006370812              -0.000317402              -0.000830142               0.002400297               0.001570155               0.000000000               0.000000000               0.000000000               0.000000000              -0.000126459               0.006137057              -0.000204868              -0.000814552               0.002317183               0.001502630               0.000000000               0.000000000               0.000000000               0.000000000              -0.000128601               0.005942128              -0.000131871              -0.000790989               0.002244353               0.001453363               0.000000000               0.000000000               0.000000000               0.000000000              -0.000121556               0.005783527              -0.000070237              -0.000768522               0.002183997               0.001415475               0.000000000               0.000000000               0.000000000               0.000000000              -0.000115318               0.005642807              -0.000025081              -0.000748593               0.002130448               0.001381855               0.000000000               0.000000000               0.000000000               0.000000000              -0.000103772               0.005505440               0.000002085              -0.000727093               0.002077493               0.001350400               0.000000000               0.000000000               0.000000000               0.000000000              -0.000085391               0.005372897               0.000018132              -0.000703632               0.002025492               0.001321860               0.000000000               0.000000000               0.000000000               0.000000000              -0.000064341               0.005252129               0.000026275              -0.000680642               0.001977573               0.001296931               0.000000000               0.000000000               0.000000000               0.000000000              -0.000043502               0.005149826               0.000030010              -0.000660040               0.001936605               0.001276565               0.000000000               0.000000000               0.000000000               0.000000000              -0.000025338               0.005065514               0.000031154              -0.000642689               0.001902718               0.001260028               0.000000000               0.000000000               0.000000000               0.000000000              -0.000012200               0.004995067               0.000026684              -0.000628957               0.001874658               0.001245701               0.000000000               0.000000000               0.000000000               0.000000000              -0.000003650               0.004935909               0.000014289              -0.000618356               0.001851405               0.001233049               0.000000000               0.000000000               0.000000000               0.000000000              -0.000006534               0.004897641               0.000010599              -0.000614654               0.001837415               0.001222762               0.000000000               0.000000000               0.000000000               0.000000000               0.001737027               0.005891891              -0.002769547              -0.000085104               0.001992311               0.001907207               0.000000000               0.000000000               0.000000000               0.000000000               0.000727939               0.005988369              -0.001952094              -0.000475570               0.002154626               0.001679056               0.000000000               0.000000000               0.000000000               0.000000000              -0.000017598               0.006342763              -0.001107201              -0.000799443               0.002380714               0.001581271               0.000000000               0.000000000               0.000000000               0.000000000              -0.000230330               0.006242898              -0.000726609              -0.000866734               0.002369857               0.001503122               0.000000000               0.000000000               0.000000000               0.000000000              -0.000280550               0.006061987              -0.000511447              -0.000862953               0.002308293               0.001445340               0.000000000               0.000000000               0.000000000               0.000000000              -0.000269482               0.005879583              -0.000376095              -0.000836002               0.002238509               0.001402507               0.000000000               0.000000000               0.000000000               0.000000000              -0.000235674               0.005721329              -0.000279158              -0.000803542               0.002174938               0.001371396               0.000000000               0.000000000               0.000000000               0.000000000              -0.000202940               0.005581809              -0.000198061              -0.000773827               0.002118526               0.001344700               0.000000000               0.000000000               0.000000000               0.000000000              -0.000170737               0.005444159              -0.000134692              -0.000744544               0.002062883               0.001318339               0.000000000               0.000000000               0.000000000               0.000000000              -0.000132435               0.005305584              -0.000090408              -0.000712859               0.002006130               0.001293271               0.000000000               0.000000000               0.000000000               0.000000000              -0.000098151               0.005169896              -0.000056070              -0.000683042               0.001950962               0.001267920               0.000000000               0.000000000               0.000000000               0.000000000              -0.000067632               0.005048619              -0.000027655              -0.000656438               0.001901669               0.001245231               0.000000000               0.000000000               0.000000000               0.000000000              -0.000044936               0.004942955              -0.000004580              -0.000634719               0.001859208               0.001224489               0.000000000               0.000000000               0.000000000               0.000000000              -0.000031075               0.004849921               0.000011105              -0.000617892               0.001822588               0.001204696               0.000000000               0.000000000               0.000000000               0.000000000              -0.000023892               0.004766222               0.000017437              -0.000604736               0.001790303               0.001185568               0.000000000               0.000000000               0.000000000               0.000000000              -0.000014624               0.004694576               0.000012284              -0.000592305               0.001762278               0.001169973               0.000000000               0.000000000               0.000000000               0.000000000              -0.000010959               0.004652278               0.000010210              -0.000585643               0.001745958               0.001160315               0.000000000               0.000000000               0.000000000               0.000000000               0.001474110               0.004665904              -0.002392733              -0.000030450               0.001565435               0.001534985               0.000000000               0.000000000               0.000000000               0.000000000               0.000522896               0.005179912              -0.001887365              -0.000451404               0.001877087               0.001425684               0.000000000               0.000000000               0.000000000               0.000000000              -0.000214845               0.005846189              -0.001293782              -0.000811339               0.002219156               0.001407817               0.000000000               0.000000000               0.000000000               0.000000000              -0.000371652               0.005893601              -0.000940421              -0.000876068               0.002256537               0.001380469               0.000000000               0.000000000               0.000000000               0.000000000              -0.000379294               0.005799534              -0.000709657              -0.000867175               0.002222217               0.001355042               0.000000000               0.000000000               0.000000000               0.000000000              -0.000335774               0.005672741              -0.000547731              -0.000835006               0.002169230               0.001334224               0.000000000               0.000000000               0.000000000               0.000000000              -0.000281259               0.005550962              -0.000425339              -0.000799340               0.002116749               0.001317408               0.000000000               0.000000000               0.000000000               0.000000000              -0.000230711               0.005433939              -0.000327184              -0.000765757               0.002066547               0.001300790               0.000000000               0.000000000               0.000000000               0.000000000              -0.000179796               0.005304549              -0.000248913              -0.000730490               0.002011662               0.001281172               0.000000000               0.000000000               0.000000000               0.000000000              -0.000122249               0.005163270              -0.000185555              -0.000691250               0.001951490               0.001260239               0.000000000               0.000000000               0.000000000               0.000000000              -0.000076172               0.005024415              -0.000128641              -0.000656615               0.001893660               0.001237045               0.000000000               0.000000000               0.000000000               0.000000000              -0.000047207               0.004898482              -0.000078634              -0.000630011               0.001842815               0.001212803               0.000000000               0.000000000               0.000000000               0.000000000              -0.000037452               0.004782724              -0.000038545              -0.000611884               0.001798187               0.001186303               0.000000000               0.000000000               0.000000000               0.000000000              -0.000042710               0.004675015              -0.000011581              -0.000600392               0.001758453               0.001158062               0.000000000               0.000000000               0.000000000               0.000000000              -0.000051414               0.004575441               0.000002772              -0.000591209               0.001722201               0.001130993               0.000000000               0.000000000               0.000000000               0.000000000              -0.000056209               0.004486409               0.000006373              -0.000581878               0.001689414               0.001107536               0.000000000               0.000000000               0.000000000               0.000000000              -0.000053080               0.004441083               0.000006035              -0.000575039               0.001672026               0.001096987               0.000000000               0.000000000               0.000000000               0.000000000               0.001116901               0.003502760              -0.001968544              -0.000019010               0.001173911               0.001154901               0.000000000               0.000000000               0.000000000               0.000000000               0.000374264               0.004254886              -0.001809348              -0.000391512               0.001548784               0.001157272               0.000000000               0.000000000               0.000000000               0.000000000              -0.000282650               0.005148432              -0.001506526              -0.000749547               0.001965975               0.001216428               0.000000000               0.000000000               0.000000000               0.000000000              -0.000409552               0.005387937              -0.001191192              -0.000827073               0.002071652               0.001244579               0.000000000               0.000000000               0.000000000               0.000000000              -0.000402535               0.005422244              -0.000947202              -0.000828729               0.002083640               0.001254910               0.000000000               0.000000000               0.000000000               0.000000000              -0.000354070               0.005386042              -0.000757061              -0.000806030               0.002064006               0.001257976               0.000000000               0.000000000               0.000000000               0.000000000              -0.000299361               0.005321291              -0.000607710              -0.000777420               0.002032886               0.001255466               0.000000000               0.000000000               0.000000000               0.000000000              -0.000247722               0.005246133              -0.000492508              -0.000748660               0.001998247               0.001249586               0.000000000               0.000000000               0.000000000               0.000000000              -0.000193716               0.005158279              -0.000400880              -0.000717427               0.001958551               0.001241125               0.000000000               0.000000000               0.000000000               0.000000000              -0.000136777               0.005046558              -0.000317525              -0.000682109               0.001909539               0.001227429               0.000000000               0.000000000               0.000000000               0.000000000              -0.000086792               0.004924092              -0.000237327              -0.000648057               0.001857367               0.001209310               0.000000000               0.000000000               0.000000000               0.000000000              -0.000054100               0.004806650              -0.000163477              -0.000621117               0.001809240               0.001188123               0.000000000               0.000000000               0.000000000               0.000000000              -0.000044504               0.004694442              -0.000099089              -0.000603493               0.001765963               0.001162470               0.000000000               0.000000000               0.000000000               0.000000000              -0.000057666               0.004587843              -0.000050901              -0.000595104               0.001727634               0.001132530               0.000000000               0.000000000               0.000000000               0.000000000              -0.000084694               0.004486319              -0.000018167              -0.000592549               0.001692941               0.001100392               0.000000000               0.000000000               0.000000000               0.000000000              -0.000113885               0.004393009              -0.000000904              -0.000591832               0.001661599               0.001069767               0.000000000               0.000000000               0.000000000               0.000000000              -0.000125780               0.004347812               0.000003458              -0.000590642               0.001646137               0.001055495               0.000000000               0.000000000               0.000000000               0.000000000               0.000606011               0.002428028              -0.001515473              -0.000076251               0.000834751               0.000758500               0.000000000               0.000000000               0.000000000               0.000000000               0.000210043               0.003331525              -0.001678615              -0.000337675               0.001223055               0.000885379               0.000000000               0.000000000               0.000000000               0.000000000              -0.000273110               0.004367168              -0.001672446              -0.000648312               0.001671811               0.001023499               0.000000000               0.000000000               0.000000000               0.000000000              -0.000372628               0.004790203              -0.001436317              -0.000738510               0.001842888               0.001104378               0.000000000               0.000000000               0.000000000               0.000000000              -0.000366291               0.004971222              -0.001196520              -0.000758761               0.001909977               0.001151217               0.000000000               0.000000000               0.000000000               0.000000000              -0.000325952               0.005039907              -0.000989407              -0.000752219               0.001930692               0.001178473               0.000000000               0.000000000               0.000000000               0.000000000              -0.000275990               0.005048828              -0.000820352              -0.000734598               0.001927792               0.001193194               0.000000000               0.000000000               0.000000000               0.000000000              -0.000228637               0.005032911              -0.000688874              -0.000714851               0.001915904               0.001201053               0.000000000               0.000000000               0.000000000               0.000000000              -0.000180643               0.005000611              -0.000584921              -0.000692816               0.001897792               0.001204976               0.000000000               0.000000000               0.000000000               0.000000000              -0.000131362               0.004937693              -0.000488944              -0.000666471               0.001868038               0.001201567               0.000000000               0.000000000               0.000000000               0.000000000              -0.000082861               0.004851020              -0.000393226              -0.000637449               0.001829474               0.001192025               0.000000000               0.000000000               0.000000000               0.000000000              -0.000048140               0.004752295              -0.000298937              -0.000612088               0.001788112               0.001176024               0.000000000               0.000000000               0.000000000               0.000000000              -0.000033142               0.004652655              -0.000209476              -0.000594009               0.001748872               0.001154863               0.000000000               0.000000000               0.000000000               0.000000000              -0.000044756               0.004555280              -0.000131297              -0.000586192               0.001713809               0.001127617               0.000000000               0.000000000               0.000000000               0.000000000              -0.000084388               0.004461420              -0.000067577              -0.000589321               0.001683566               0.001094244               0.000000000               0.000000000               0.000000000               0.000000000              -0.000141721               0.004378344              -0.000023702              -0.000600437               0.001659579               0.001059142               0.000000000               0.000000000               0.000000000               0.000000000              -0.000183135               0.004331697              -0.000003557              -0.000610136               0.001647264               0.001037127               0.000000000               0.000000000               0.000000000               0.000000000              -0.000018260               0.001513767              -0.001053775              -0.000196069               0.000569939               0.000373871               0.000000000               0.000000000               0.000000000               0.000000000              -0.000013012               0.002455644              -0.001466834              -0.000311836               0.000922484               0.000610649               0.000000000               0.000000000               0.000000000               0.000000000              -0.000227898               0.003510187              -0.001713340              -0.000524235               0.001344795               0.000820560               0.000000000               0.000000000               0.000000000               0.000000000              -0.000267437               0.004069788              -0.001583267              -0.000609012               0.001559586               0.000950574               0.000000000               0.000000000               0.000000000               0.000000000              -0.000256497               0.004383094              -0.001379212              -0.000644072               0.001675707               0.001031635               0.000000000               0.000000000               0.000000000               0.000000000              -0.000225767               0.004562124              -0.001178947              -0.000654927               0.001739001               0.001084074               0.000000000               0.000000000               0.000000000               0.000000000              -0.000186965               0.004662671              -0.001005012              -0.000652944               0.001771856               0.001118912               0.000000000               0.000000000               0.000000000               0.000000000              -0.000147030               0.004720367              -0.000865570              -0.000645181               0.001788500               0.001143319               0.000000000               0.000000000               0.000000000               0.000000000              -0.000110490               0.004755409              -0.000752619              -0.000635858               0.001797073               0.001161215               0.000000000               0.000000000               0.000000000               0.000000000              -0.000073754               0.004759207              -0.000650301              -0.000622557               0.001793905               0.001171348               0.000000000               0.000000000               0.000000000               0.000000000              -0.000036473               0.004724207              -0.000547172              -0.000604202               0.001776120               0.001171919               0.000000000               0.000000000               0.000000000               0.000000000              -0.000006133               0.004661842              -0.000443434              -0.000585029               0.001748941               0.001163913               0.000000000               0.000000000               0.000000000               0.000000000               0.000013143               0.004587320              -0.000341648              -0.000568485               0.001718586               0.001150101               0.000000000               0.000000000               0.000000000               0.000000000               0.000010347               0.004507596              -0.000241642              -0.000559568               0.001689039               0.001129472               0.000000000               0.000000000               0.000000000               0.000000000              -0.000022888               0.004429462              -0.000147651              -0.000562264               0.001663894               0.001101630               0.000000000               0.000000000               0.000000000               0.000000000              -0.000090339               0.004361989              -0.000066055              -0.000579124               0.001647023               0.001067899               0.000000000               0.000000000               0.000000000               0.000000000              -0.000153958               0.004318236              -0.000022058              -0.000597512               0.001638568               0.001041056               0.000000000               0.000000000               0.000000000               0.000000000              -0.000708025               0.000812445              -0.000636510              -0.000367065               0.000393166               0.000026102               0.000000000               0.000000000               0.000000000               0.000000000              -0.000281853               0.001679333              -0.001191580              -0.000315612               0.000664975               0.000349363               0.000000000               0.000000000               0.000000000               0.000000000              -0.000173391               0.002648971              -0.001607603              -0.000396144               0.001015028               0.000618885               0.000000000               0.000000000               0.000000000               0.000000000              -0.000112762               0.003279710              -0.001584306              -0.000452250               0.001243975               0.000791725               0.000000000               0.000000000               0.000000000               0.000000000              -0.000077169               0.003693840              -0.001439653              -0.000490668               0.001394823               0.000904155               0.000000000               0.000000000               0.000000000               0.000000000              -0.000051556               0.003974604              -0.001269921              -0.000516159               0.001496907               0.000980749               0.000000000               0.000000000               0.000000000               0.000000000              -0.000024742               0.004169137              -0.001110995              -0.000530420               0.001566505               0.001036085               0.000000000               0.000000000               0.000000000               0.000000000               0.000001255               0.004306728              -0.000975427              -0.000537870               0.001614851               0.001076982               0.000000000               0.000000000               0.000000000               0.000000000               0.000023998               0.004415719              -0.000860527              -0.000542965               0.001652880               0.001109915               0.000000000               0.000000000               0.000000000               0.000000000               0.000045531               0.004494286              -0.000758264              -0.000544711               0.001679650               0.001134940               0.000000000               0.000000000               0.000000000               0.000000000               0.000069536               0.004525393              -0.000656900              -0.000539597               0.001688315               0.001148718               0.000000000               0.000000000               0.000000000               0.000000000               0.000094971               0.004518292              -0.000555370              -0.000529171               0.001682473               0.001153301               0.000000000               0.000000000               0.000000000               0.000000000               0.000116451               0.004486980              -0.000453446              -0.000517202               0.001668046               0.001150843               0.000000000               0.000000000               0.000000000               0.000000000               0.000125192               0.004440202              -0.000346832              -0.000508077               0.001649411               0.001141334               0.000000000               0.000000000               0.000000000               0.000000000               0.000110196               0.004388618              -0.000235009              -0.000507252               0.001631942               0.001124690               0.000000000               0.000000000               0.000000000               0.000000000               0.000059984               0.004343605              -0.000118542              -0.000520455               0.001621339               0.001100884               0.000000000               0.000000000               0.000000000               0.000000000              -0.000000259               0.004309924              -0.000051949              -0.000538836               0.001616239               0.001077403               0.000000000               0.000000000               0.000000000               0.000000000              -0.001400014               0.000326521              -0.000317736              -0.000565820               0.000297445              -0.000268375               0.000000000               0.000000000               0.000000000               0.000000000              -0.000576032               0.001049395              -0.000886404              -0.000347186               0.000465523               0.000118337               0.000000000               0.000000000               0.000000000               0.000000000              -0.000126093               0.001862394              -0.001355923              -0.000280085               0.000714153               0.000434068               0.000000000               0.000000000               0.000000000               0.000000000               0.000064703               0.002501722              -0.001410030              -0.000288452               0.000930049               0.000641597               0.000000000               0.000000000               0.000000000               0.000000000               0.000145632               0.002977613              -0.001326552              -0.000317590               0.001098391               0.000780801               0.000000000               0.000000000               0.000000000               0.000000000               0.000179128               0.003334730              -0.001203865              -0.000349668               0.001228121               0.000878453               0.000000000               0.000000000               0.000000000               0.000000000               0.000198331               0.003611515              -0.001078212              -0.000377065               0.001329514               0.000952449               0.000000000               0.000000000               0.000000000               0.000000000               0.000208668               0.003827217              -0.000962321              -0.000400151               0.001409110               0.001008958               0.000000000               0.000000000               0.000000000               0.000000000               0.000215512               0.004005096              -0.000860122              -0.000419819               0.001474958               0.001055139               0.000000000               0.000000000               0.000000000               0.000000000               0.000221668               0.004153024              -0.000768303              -0.000436002               0.001529661               0.001093659               0.000000000               0.000000000               0.000000000               0.000000000               0.000230016               0.004256780              -0.000678378              -0.000445841               0.001567526               0.001121685               0.000000000               0.000000000               0.000000000               0.000000000               0.000245306               0.004322236              -0.000587652              -0.000448289               0.001590161               0.001141872               0.000000000               0.000000000               0.000000000               0.000000000               0.000266050               0.004355821              -0.000496097              -0.000444708               0.001600162               0.001155454               0.000000000               0.000000000               0.000000000               0.000000000               0.000289780               0.004360593              -0.000397632              -0.000436406               0.001598985               0.001162579               0.000000000               0.000000000               0.000000000               0.000000000               0.000308024               0.004346476              -0.000286228              -0.000427799               0.001591411               0.001163611               0.000000000               0.000000000               0.000000000               0.000000000               0.000309196               0.004325811              -0.000153918              -0.000424777               0.001583515               0.001158738               0.000000000               0.000000000               0.000000000               0.000000000               0.000293449               0.004308879              -0.000077995              -0.000428565               0.001579134               0.001150568               0.000000000               0.000000000               0.000000000               0.000000000              -0.002002465               0.000025871              -0.000119402              -0.000754158               0.000260008              -0.000494150               0.000000000               0.000000000               0.000000000               0.000000000              -0.000847811               0.000585798              -0.000581135              -0.000391154               0.000325648              -0.000065506               0.000000000               0.000000000               0.000000000               0.000000000              -0.000088930               0.001223238              -0.000981572              -0.000186254               0.000469826               0.000283572               0.000000000               0.000000000               0.000000000               0.000000000               0.000230511               0.001834698              -0.001060148              -0.000142896               0.000659192               0.000516295               0.000000000               0.000000000               0.000000000               0.000000000               0.000365830               0.002338404              -0.001022804              -0.000155115               0.000831165               0.000676050               0.000000000               0.000000000               0.000000000               0.000000000               0.000416998               0.002746620              -0.000948593              -0.000186954               0.000977848               0.000790895               0.000000000               0.000000000               0.000000000               0.000000000               0.000433189               0.003085606              -0.000865337              -0.000223255               0.001102943               0.000879688               0.000000000               0.000000000               0.000000000               0.000000000               0.000433379               0.003364588              -0.000783104              -0.000258056               0.001207537               0.000949480               0.000000000               0.000000000               0.000000000               0.000000000               0.000427854               0.003598532              -0.000707988              -0.000289371               0.001295956               0.001006585               0.000000000               0.000000000               0.000000000               0.000000000               0.000420021               0.003801436              -0.000639553              -0.000317671               0.001373023               0.001055352               0.000000000               0.000000000               0.000000000               0.000000000               0.000414217               0.003970932              -0.000571136              -0.000341035               0.001437309               0.001096274               0.000000000               0.000000000               0.000000000               0.000000000               0.000419014               0.004102963              -0.000500764              -0.000355740               0.001486221               0.001130481               0.000000000               0.000000000               0.000000000               0.000000000               0.000438289               0.004197977              -0.000430285              -0.000360388               0.001519441               0.001159053               0.000000000               0.000000000               0.000000000               0.000000000               0.000474845               0.004256827              -0.000353624              -0.000354036               0.001536940               0.001182904               0.000000000               0.000000000               0.000000000               0.000000000               0.000529117               0.004286906              -0.000261778              -0.000337443               0.001541436               0.001203992               0.000000000               0.000000000               0.000000000               0.000000000               0.000599798               0.004301019              -0.000144548              -0.000312702               0.001537893               0.001225191               0.000000000               0.000000000               0.000000000               0.000000000               0.000655853               0.004310655              -0.000079682              -0.000292886               0.001534499               0.001241613               0.000000000               0.000000000               0.000000000               0.000000000              -0.002413876              -0.000134140              -0.000027933              -0.000888435               0.000251430              -0.000637005               0.000000000               0.000000000               0.000000000               0.000000000              -0.001036283               0.000300055              -0.000286172              -0.000426112               0.000242054              -0.000184058               0.000000000               0.000000000               0.000000000               0.000000000              -0.000062979               0.000801509              -0.000515975              -0.000123806               0.000308435               0.000184629               0.000000000               0.000000000               0.000000000               0.000000000               0.000348682               0.001379798              -0.000569819              -0.000041720               0.000473834               0.000432115               0.000000000               0.000000000               0.000000000               0.000000000               0.000525454               0.001895945              -0.000556966              -0.000039949               0.000645292               0.000605343               0.000000000               0.000000000               0.000000000               0.000000000               0.000593880               0.002333435              -0.000523584              -0.000068975               0.000800796               0.000731821               0.000000000               0.000000000               0.000000000               0.000000000               0.000611369               0.002706047              -0.000483489              -0.000108993               0.000938337               0.000829345               0.000000000               0.000000000               0.000000000               0.000000000               0.000606200               0.003023523              -0.000442265              -0.000150615               0.001058036               0.000907421               0.000000000               0.000000000               0.000000000               0.000000000               0.000594284               0.003298837              -0.000403171              -0.000189498               0.001162767               0.000973269               0.000000000               0.000000000               0.000000000               0.000000000               0.000580501               0.003536165              -0.000365860              -0.000224332               0.001253487               0.001029155               0.000000000               0.000000000               0.000000000               0.000000000               0.000569988               0.003738457              -0.000328690              -0.000253561               0.001330660               0.001077099               0.000000000               0.000000000               0.000000000               0.000000000               0.000572496               0.003909355              -0.000289804              -0.000273983               0.001394433               0.001120450               0.000000000               0.000000000               0.000000000               0.000000000               0.000591489               0.004043233              -0.000250372              -0.000283595               0.001442263               0.001158668               0.000000000               0.000000000               0.000000000               0.000000000               0.000631791               0.004142313              -0.000206863              -0.000280867               0.001474379               0.001193513               0.000000000               0.000000000               0.000000000               0.000000000               0.000703667               0.004213899              -0.000153119              -0.000262862               0.001492240               0.001229378               0.000000000               0.000000000               0.000000000               0.000000000               0.000819212               0.004265389              -0.000084598              -0.000225969               0.001497105               0.001271136               0.000000000               0.000000000               0.000000000               0.000000000               0.000925010               0.004299618              -0.000048601              -0.000190573               0.001496716               0.001306143               0.000000000               0.000000000               0.000000000               0.000000000              -0.002559826              -0.000185161              -0.000000000              -0.000936789               0.000250541              -0.000686248               0.000000000               0.000000000               0.000000000               0.000000000              -0.001102737               0.000203432               0.000000000              -0.000438955               0.000214128              -0.000224827               0.000000000               0.000000000               0.000000000               0.000000000              -0.000053234               0.000654417               0.000000000              -0.000101765               0.000252058               0.000150293               0.000000000               0.000000000               0.000000000               0.000000000               0.000391824               0.001217530              -0.000000000              -0.000005257               0.000407592               0.000402334               0.000000000               0.000000000               0.000000000               0.000000000               0.000582695               0.001737199              -0.000000000               0.000001361               0.000578607               0.000579968               0.000000000               0.000000000               0.000000000               0.000000000               0.000660293               0.002185341               0.000000000              -0.000025558               0.000736959               0.000711401               0.000000000               0.000000000               0.000000000               0.000000000               0.000678688               0.002567422               0.000000000              -0.000066420               0.000877938               0.000811519               0.000000000               0.000000000               0.000000000               0.000000000               0.000672195               0.002898981              -0.000000000              -0.000110300               0.001003084               0.000892784               0.000000000               0.000000000               0.000000000               0.000000000               0.000655894               0.003189521              -0.000000000              -0.000152729               0.001114073               0.000961343               0.000000000               0.000000000               0.000000000               0.000000000               0.000641316               0.003436861               0.000000000              -0.000189114               0.001208647               0.001019533               0.000000000               0.000000000               0.000000000               0.000000000               0.000632712               0.003646545              -0.000000000              -0.000218551               0.001288353               0.001069803               0.000000000               0.000000000               0.000000000               0.000000000               0.000635911               0.003827055              -0.000000000              -0.000239915               0.001355644               0.001115729               0.000000000               0.000000000               0.000000000               0.000000000               0.000654152               0.003973559               0.000000000              -0.000251387               0.001408302               0.001156915               0.000000000               0.000000000               0.000000000               0.000000000               0.000693470               0.004088474              -0.000000000              -0.000251008               0.001446480               0.001195473               0.000000000               0.000000000               0.000000000               0.000000000               0.000768097               0.004178271              -0.000000000              -0.000234247               0.001470825               0.001236579               0.000000000               0.000000000               0.000000000               0.000000000               0.000895523               0.004248065              -0.000000000              -0.000195187               0.001481070               0.001285883               0.000000000               0.000000000               0.000000000               0.000000000               0.001014090               0.004292354               0.000000000              -0.000156260               0.001482857               0.001326597               0.000000000               0.000000000               0.000000000               0.000000000               0.000000000               0.000000000               0.000000000               0.000000000               0.000000000               0.000000000               0.000000000               0.000000000               0.000000000               0.000000000               0.000000000               0.000000000               0.000000000               0.000000000               0.000000000               0.000000000               0.000000000               0.000000000               0.000000000               0.000000000               0.000000000               0.000000000               0.000000000               0.000000000               0.000000000               0.000000000               0.000000000               0.000000000               0.000000000               0.000000000               0.000000000               0.000000000               0.000000000               0.000000000               0.000000000               0.000000000               0.000000000               0.000000000               0.000000000               0.000000000               0.000000000               0.000000000               0.000000000               0.000000000               0.000000000               0.000000000               0.000000000               0.000000000               0.000000000               0.000000000               0.000000000               0.000000000               0.000000000               0.000000000               0.000000000               0.000000000               0.000000000               0.000000000               0.000000000               0.000000000               0.000000000               0.000000000               0.000000000               0.000000000               0.000000000               0.000000000               0.000000000               0.000000000               0.000000000               0.000000000               0.000000000               0.000000000               0.000000000               0.000000000               0.000000000               0.000000000               0.000000000               0.000000000               0.000000000               0.000000000               0.000000000               0.000000000               0.000000000               0.000000000               0.000000000               0.000000000               0.000000000               0.000000000               0.000000000               0.000000000               0.000000000               0.000000000               0.000000000               0.000000000               0.000000000               0.000000000               0.000000000               0.000000000               0.000000000               0.000000000               0.000000000               0.000000000               0.000000000               0.000000000               0.000000000               0.000000000               0.000000000               0.000000000               0.000000000               0.000000000               0.000000000               0.000000000               0.000000000               0.000000000               0.000000000               0.000000000               0.000000000               0.000000000               0.000000000               0.000000000               0.000000000               0.000000000               0.000000000               0.000000000               0.000000000               0.000000000               0.000000000               0.000000000               0.000000000               0.000000000               0.000000000               0.000000000               0.000000000               0.000000000               0.000000000               0.000000000               0.000000000               0.000000000               0.000000000               0.000000000               0.000000000               0.000000000               0.000000000               0.000000000               0.000000000               0.000000000               0.000000000               0.000000000               0.000000000               0.000000000               0.000000000               0.000000000               0.000000000               0.000000000               0.000000000               0.000000000               0.000000000               0.000000000               0.000000000               0.000000000               0.000000000               0.000000000               0.000000000               0.000000000               0.000000000               0.000000000               0.000000000               0.000000000               0.000000000               0.000000000               0.001281323               0.013558833               0.001015454              -0.001214355               0.004924351               0.003709996               0.000000000               0.000000000               0.000000000               0.000000000               0.001301296               0.011035898               0.000606408              -0.000891499               0.003975762               0.003084263               0.000000000               0.000000000               0.000000000               0.000000000               0.001723224               0.009012306               0.000189505              -0.000480328               0.003164181               0.002683853               0.000000000               0.000000000               0.000000000               0.000000000               0.001739711               0.007880276               0.000000622              -0.000332642               0.002737613               0.002404971               0.000000000               0.000000000               0.000000000               0.000000000               0.001618413               0.007195006              -0.000087553              -0.000292470               0.002495802               0.002203331               0.000000000               0.000000000               0.000000000               0.000000000               0.001449511               0.006754706              -0.000127746              -0.000300771               0.002351803               0.002051032               0.000000000               0.000000000               0.000000000               0.000000000               0.001268000               0.006456617              -0.000142531              -0.000331576               0.002262710               0.001931133               0.000000000               0.000000000               0.000000000               0.000000000               0.001094327               0.006245002              -0.000142722              -0.000370252               0.002205064               0.001834812               0.000000000               0.000000000               0.000000000               0.000000000               0.000934715               0.006088041              -0.000138473              -0.000410486               0.002166155               0.001755669               0.000000000               0.000000000               0.000000000               0.000000000               0.000785112               0.005971587              -0.000136576              -0.000452030               0.002141186               0.001689156               0.000000000               0.000000000               0.000000000               0.000000000               0.000639430               0.005880220              -0.000133832              -0.000495240               0.002125134               0.001629894               0.000000000               0.000000000               0.000000000               0.000000000               0.000499039               0.005801190              -0.000126311              -0.000538008               0.002113046               0.001575039               0.000000000               0.000000000               0.000000000               0.000000000               0.000370288               0.005727309              -0.000115642              -0.000577054               0.002101435               0.001524381               0.000000000               0.000000000               0.000000000               0.000000000               0.000253503               0.005648624              -0.000100774              -0.000611013               0.002086527               0.001475514               0.000000000               0.000000000               0.000000000               0.000000000               0.000150912               0.005556247              -0.000077594              -0.000637937               0.002064710               0.001426772               0.000000000               0.000000000               0.000000000               0.000000000               0.000067851               0.005442988              -0.000043215              -0.000654928               0.002032620               0.001377693               0.000000000               0.000000000               0.000000000               0.000000000               0.000022607               0.005354143              -0.000025832              -0.000660789               0.002004959               0.001344171               0.000000000               0.000000000               0.000000000               0.000000000               0.001456109               0.012837438               0.001898704              -0.001058637               0.004631982               0.003573345               0.000000000               0.000000000               0.000000000               0.000000000               0.001313068               0.010535321               0.001129102              -0.000824513               0.003786576               0.002962063               0.000000000               0.000000000               0.000000000               0.000000000               0.001559518               0.008752033               0.000351681              -0.000509184               0.003087043               0.002577859               0.000000000               0.000000000               0.000000000               0.000000000               0.001499578               0.007753410               0.000009972              -0.000406833               0.002720055               0.002313222               0.000000000               0.000000000               0.000000000               0.000000000               0.001352172               0.007140190              -0.000143983              -0.000385458               0.002508526               0.002123067               0.000000000               0.000000000               0.000000000               0.000000000               0.001185320               0.006737759              -0.000211123              -0.000397724               0.002378472               0.001980748               0.000000000               0.000000000               0.000000000               0.000000000               0.001020972               0.006457093              -0.000235442              -0.000424271               0.002293766               0.001869495               0.000000000               0.000000000               0.000000000               0.000000000               0.000869572               0.006252126              -0.000238431              -0.000455425               0.002235830               0.001780404               0.000000000               0.000000000               0.000000000               0.000000000               0.000730101               0.006098670              -0.000236185              -0.000488545               0.002195718               0.001707173               0.000000000               0.000000000               0.000000000               0.000000000               0.000600565               0.005979160              -0.000234535              -0.000522182               0.002167094               0.001644912               0.000000000               0.000000000               0.000000000               0.000000000               0.000478017               0.005876805              -0.000228360              -0.000555343               0.002144030               0.001588687               0.000000000               0.000000000               0.000000000               0.000000000               0.000367706               0.005784555              -0.000216480              -0.000585178               0.002123225               0.001538047               0.000000000               0.000000000               0.000000000               0.000000000               0.000273554               0.005695762              -0.000198886              -0.000609386               0.002101697               0.001492311               0.000000000               0.000000000               0.000000000               0.000000000               0.000187903               0.005603581              -0.000172420              -0.000629983               0.002077836               0.001447853               0.000000000               0.000000000               0.000000000               0.000000000               0.000113013               0.005508058              -0.000132983              -0.000646126               0.002051376               0.001405251               0.000000000               0.000000000               0.000000000               0.000000000               0.000052576               0.005409378              -0.000074972              -0.000656454               0.002021926               0.001365472               0.000000000               0.000000000               0.000000000               0.000000000               0.000019223               0.005342941              -0.000043857              -0.000660657               0.002001182               0.001340524               0.000000000               0.000000000               0.000000000               0.000000000               0.001673210               0.011717765               0.002563316              -0.000837266               0.004184971               0.003347705               0.000000000               0.000000000               0.000000000               0.000000000               0.001297882               0.009776228               0.001530792              -0.000735322               0.003503817               0.002768496               0.000000000               0.000000000               0.000000000               0.000000000               0.001297598               0.008365315               0.000500274              -0.000559064               0.002974765               0.002415701               0.000000000               0.000000000               0.000000000               0.000000000               0.001146062               0.007550376               0.000064994              -0.000514022               0.002688108               0.002174085               0.000000000               0.000000000               0.000000000               0.000000000               0.000975693               0.007033132              -0.000126542              -0.000513255               0.002515439               0.002002184               0.000000000               0.000000000               0.000000000               0.000000000               0.000821498               0.006678421              -0.000210834              -0.000526740               0.002401698               0.001874958               0.000000000               0.000000000               0.000000000               0.000000000               0.000687873               0.006416839              -0.000244604              -0.000544151               0.002320308               0.001776157               0.000000000               0.000000000               0.000000000               0.000000000               0.000571441               0.006217566              -0.000254992              -0.000562904               0.002260136               0.001697232               0.000000000               0.000000000               0.000000000               0.000000000               0.000461731               0.006062728              -0.000257528              -0.000584690               0.002215786               0.001631096               0.000000000               0.000000000               0.000000000               0.000000000               0.000362457               0.005935776              -0.000257434              -0.000606049               0.002180589               0.001574539               0.000000000               0.000000000               0.000000000               0.000000000               0.000277351               0.005825672              -0.000251669              -0.000624201               0.002149938               0.001525737               0.000000000               0.000000000               0.000000000               0.000000000               0.000204862               0.005721029              -0.000236751              -0.000638304               0.002119759               0.001481455               0.000000000               0.000000000               0.000000000               0.000000000               0.000147932               0.005617972              -0.000212140              -0.000646771               0.002088229               0.001441458               0.000000000               0.000000000               0.000000000               0.000000000               0.000103392               0.005519466              -0.000179600              -0.000651160               0.002056857               0.001405697               0.000000000               0.000000000               0.000000000               0.000000000               0.000066717               0.005430338              -0.000134273              -0.000653772               0.002028018               0.001374247               0.000000000               0.000000000               0.000000000               0.000000000               0.000033515               0.005356300              -0.000072150              -0.000656968               0.002004405               0.001347437               0.000000000               0.000000000               0.000000000               0.000000000               0.000015148               0.005319861              -0.000038914              -0.000659300               0.001993036               0.001333736               0.000000000               0.000000000               0.000000000               0.000000000               0.001860168               0.010330016               0.002970509              -0.000593690               0.003641200               0.003047510               0.000000000               0.000000000               0.000000000               0.000000000               0.001235021               0.008855858               0.001802165              -0.000643849               0.003166539               0.002522690               0.000000000               0.000000000               0.000000000               0.000000000               0.000965843               0.007900311               0.000647566              -0.000625346               0.002841859               0.002216513               0.000000000               0.000000000               0.000000000               0.000000000               0.000741093               0.007290031               0.000175104              -0.000633343               0.002641100               0.002007758               0.000000000               0.000000000               0.000000000               0.000000000               0.000570069               0.006871687              -0.000032876              -0.000645183               0.002505601               0.001860417               0.000000000               0.000000000               0.000000000               0.000000000               0.000443744               0.006560374              -0.000125601              -0.000653641               0.002404650               0.001751009               0.000000000               0.000000000               0.000000000               0.000000000               0.000348398               0.006313224              -0.000167648              -0.000658502               0.002323888               0.001665386               0.000000000               0.000000000               0.000000000               0.000000000               0.000271897               0.006118331              -0.000188425              -0.000662828               0.002260366               0.001597538               0.000000000               0.000000000               0.000000000               0.000000000               0.000202385               0.005963878              -0.000200717              -0.000669589               0.002211136               0.001541547               0.000000000               0.000000000               0.000000000               0.000000000               0.000142944               0.005834579              -0.000207591              -0.000675717               0.002170079               0.001494362               0.000000000               0.000000000               0.000000000               0.000000000               0.000099239               0.005715240              -0.000204130              -0.000677189               0.002130790               0.001453602               0.000000000               0.000000000               0.000000000               0.000000000               0.000064495               0.005597979              -0.000188036              -0.000675560               0.002091161               0.001415601               0.000000000               0.000000000               0.000000000               0.000000000               0.000040659               0.005488661              -0.000163730              -0.000670834               0.002053147               0.001382313               0.000000000               0.000000000               0.000000000               0.000000000               0.000029091               0.005394198              -0.000134013              -0.000663364               0.002019169               0.001355805               0.000000000               0.000000000               0.000000000               0.000000000               0.000021993               0.005318607              -0.000094657              -0.000656577               0.001991710               0.001335133               0.000000000               0.000000000               0.000000000               0.000000000               0.000014513               0.005266195              -0.000047004              -0.000652830               0.001972991               0.001320161               0.000000000               0.000000000               0.000000000               0.000000000               0.000009488               0.005245759              -0.000023218              -0.000652160               0.001965955               0.001313795               0.000000000               0.000000000               0.000000000               0.000000000               0.001955727               0.008820740               0.003117531              -0.000369197               0.003063282               0.002694085               0.000000000               0.000000000               0.000000000               0.000000000               0.001117357               0.007872683               0.001946625              -0.000565077               0.002812560               0.002247483               0.000000000               0.000000000               0.000000000               0.000000000               0.000610182               0.007396733               0.000794454              -0.000695772               0.002697477               0.002001705               0.000000000               0.000000000               0.000000000               0.000000000               0.000347690               0.006985648               0.000332418              -0.000742821               0.002576133               0.001833312               0.000000000               0.000000000               0.000000000               0.000000000               0.000200596               0.006650155               0.000123047              -0.000756044               0.002468711               0.001712667               0.000000000               0.000000000               0.000000000               0.000000000               0.000115325               0.006374167               0.000024635              -0.000753522               0.002375875               0.001622353               0.000000000               0.000000000               0.000000000               0.000000000               0.000064648               0.006146338              -0.000028317              -0.000744048               0.002296775               0.001552727               0.000000000               0.000000000               0.000000000               0.000000000               0.000030578               0.005965226              -0.000067252              -0.000734185               0.002233117               0.001498932               0.000000000               0.000000000               0.000000000               0.000000000               0.000005093               0.005820208              -0.000095683              -0.000725615               0.002181921               0.001456307               0.000000000               0.000000000               0.000000000               0.000000000              -0.000013952               0.005686531              -0.000111488              -0.000716047               0.002134174               0.001418127               0.000000000               0.000000000               0.000000000               0.000000000              -0.000025096               0.005556444              -0.000113848              -0.000703965               0.002086784               0.001382820               0.000000000               0.000000000               0.000000000               0.000000000              -0.000027615               0.005435338              -0.000105119              -0.000689771               0.002041685               0.001351914               0.000000000               0.000000000               0.000000000               0.000000000              -0.000021295               0.005330208              -0.000090640              -0.000674260               0.002001472               0.001327212               0.000000000               0.000000000               0.000000000               0.000000000              -0.000011829               0.005243915              -0.000073952              -0.000659924               0.001967929               0.001308005               0.000000000               0.000000000               0.000000000               0.000000000              -0.000003789               0.005177025              -0.000051555              -0.000648547               0.001941840               0.001293293               0.000000000               0.000000000               0.000000000               0.000000000               0.000002390               0.005128258              -0.000025021              -0.000640135               0.001922780               0.001282646               0.000000000               0.000000000               0.000000000               0.000000000               0.000000859               0.005101690              -0.000014571              -0.000637388               0.001913009               0.001275621               0.000000000               0.000000000               0.000000000               0.000000000               0.001916221               0.007312453               0.003033746              -0.000195477               0.002502618               0.002307141               0.000000000               0.000000000               0.000000000               0.000000000               0.000945101               0.006897861               0.001986613              -0.000507820               0.002468537               0.001960717               0.000000000               0.000000000               0.000000000               0.000000000               0.000271018               0.006872027               0.000946922              -0.000757370               0.002543109               0.001785739               0.000000000               0.000000000               0.000000000               0.000000000               0.000014005               0.006631085               0.000524921              -0.000823632               0.002484883               0.001661252               0.000000000               0.000000000               0.000000000               0.000000000              -0.000090113               0.006370812               0.000317402              -0.000830142               0.002400297               0.001570155               0.000000000               0.000000000               0.000000000               0.000000000              -0.000126459               0.006137057               0.000204868              -0.000814552               0.002317183               0.001502630               0.000000000               0.000000000               0.000000000               0.000000000              -0.000128601               0.005942128               0.000131871              -0.000790989               0.002244353               0.001453363               0.000000000               0.000000000               0.000000000               0.000000000              -0.000121556               0.005783527               0.000070237              -0.000768522               0.002183997               0.001415475               0.000000000               0.000000000               0.000000000               0.000000000              -0.000115318               0.005642807               0.000025081              -0.000748593               0.002130448               0.001381855               0.000000000               0.000000000               0.000000000               0.000000000              -0.000103772               0.005505440              -0.000002085              -0.000727093               0.002077493               0.001350400               0.000000000               0.000000000               0.000000000               0.000000000              -0.000085391               0.005372897              -0.000018132              -0.000703632               0.002025492               0.001321860               0.000000000               0.000000000               0.000000000               0.000000000              -0.000064341               0.005252129              -0.000026275              -0.000680642               0.001977573               0.001296931               0.000000000               0.000000000               0.000000000               0.000000000              -0.000043502               0.005149826              -0.000030010              -0.000660040               0.001936605               0.001276565               0.000000000               0.000000000               0.000000000               0.000000000              -0.000025338               0.005065514              -0.000031154              -0.000642689               0.001902718               0.001260028               0.000000000               0.000000000               0.000000000               0.000000000              -0.000012200               0.004995067              -0.000026684              -0.000628957               0.001874658               0.001245701               0.000000000               0.000000000               0.000000000               0.000000000              -0.000003650               0.004935909              -0.000014289              -0.000618356               0.001851405               0.001233049               0.000000000               0.000000000               0.000000000               0.000000000              -0.000006534               0.004897641              -0.000010599              -0.000614654               0.001837415               0.001222762               0.000000000               0.000000000               0.000000000               0.000000000               0.001737027               0.005891891               0.002769547              -0.000085104               0.001992311               0.001907207               0.000000000               0.000000000               0.000000000               0.000000000               0.000727939               0.005988369               0.001952094              -0.000475570               0.002154626               0.001679056               0.000000000               0.000000000               0.000000000               0.000000000              -0.000017598               0.006342763               0.001107201              -0.000799443               0.002380714               0.001581271               0.000000000               0.000000000               0.000000000               0.000000000              -0.000230330               0.006242898               0.000726609              -0.000866734               0.002369857               0.001503122               0.000000000               0.000000000               0.000000000               0.000000000              -0.000280550               0.006061987               0.000511447              -0.000862953               0.002308293               0.001445340               0.000000000               0.000000000               0.000000000               0.000000000              -0.000269482               0.005879583               0.000376095              -0.000836002               0.002238509               0.001402507               0.000000000               0.000000000               0.000000000               0.000000000              -0.000235674               0.005721329               0.000279158              -0.000803542               0.002174938               0.001371396               0.000000000               0.000000000               0.000000000               0.000000000              -0.000202940               0.005581809               0.000198061              -0.000773827               0.002118526               0.001344700               0.000000000               0.000000000               0.000000000               0.000000000              -0.000170737               0.005444159               0.000134692              -0.000744544               0.002062883               0.001318339               0.000000000               0.000000000               0.000000000               0.000000000              -0.000132435               0.005305584               0.000090408              -0.000712859               0.002006130               0.001293271               0.000000000               0.000000000               0.000000000               0.000000000              -0.000098151               0.005169896               0.000056070              -0.000683042               0.001950962               0.001267920               0.000000000               0.000000000               0.000000000               0.000000000              -0.000067632               0.005048619               0.000027655              -0.000656438               0.001901669               0.001245231               0.000000000               0.000000000               0.000000000               0.000000000              -0.000044936               0.004942955               0.000004580              -0.000634719               0.001859208               0.001224489               0.000000000               0.000000000               0.000000000               0.000000000              -0.000031075               0.004849921              -0.000011105              -0.000617892               0.001822588               0.001204696               0.000000000               0.000000000               0.000000000               0.000000000              -0.000023892               0.004766222              -0.000017437              -0.000604736               0.001790303               0.001185568               0.000000000               0.000000000               0.000000000               0.000000000              -0.000014624               0.004694576              -0.000012284              -0.000592305               0.001762278               0.001169973               0.000000000               0.000000000               0.000000000               0.000000000              -0.000010959               0.004652278              -0.000010210              -0.000585643               0.001745958               0.001160315               0.000000000               0.000000000               0.000000000               0.000000000               0.001474110               0.004665904               0.002392733              -0.000030450               0.001565435               0.001534985               0.000000000               0.000000000               0.000000000               0.000000000               0.000522896               0.005179912               0.001887365              -0.000451404               0.001877087               0.001425684               0.000000000               0.000000000               0.000000000               0.000000000              -0.000214845               0.005846189               0.001293782              -0.000811339               0.002219156               0.001407817               0.000000000               0.000000000               0.000000000               0.000000000              -0.000371652               0.005893601               0.000940421              -0.000876068               0.002256537               0.001380469               0.000000000               0.000000000               0.000000000               0.000000000              -0.000379294               0.005799534               0.000709657              -0.000867175               0.002222217               0.001355042               0.000000000               0.000000000               0.000000000               0.000000000              -0.000335774               0.005672741               0.000547731              -0.000835006               0.002169230               0.001334224               0.000000000               0.000000000               0.000000000               0.000000000              -0.000281259               0.005550962               0.000425339              -0.000799340               0.002116749               0.001317408               0.000000000               0.000000000               0.000000000               0.000000000              -0.000230711               0.005433939               0.000327184              -0.000765757               0.002066547               0.001300790               0.000000000               0.000000000               0.000000000               0.000000000              -0.000179796               0.005304549               0.000248913              -0.000730490               0.002011662               0.001281172               0.000000000               0.000000000               0.000000000               0.000000000              -0.000122249               0.005163270               0.000185555              -0.000691250               0.001951490               0.001260239               0.000000000               0.000000000               0.000000000               0.000000000              -0.000076172               0.005024415               0.000128641              -0.000656615               0.001893660               0.001237045               0.000000000               0.000000000               0.000000000               0.000000000              -0.000047207               0.004898482               0.000078634              -0.000630011               0.001842815               0.001212803               0.000000000               0.000000000               0.000000000               0.000000000              -0.000037452               0.004782724               0.000038545              -0.000611884               0.001798187               0.001186303               0.000000000               0.000000000               0.000000000               0.000000000              -0.000042710               0.004675015               0.000011581              -0.000600392               0.001758453               0.001158062               0.000000000               0.000000000               0.000000000               0.000000000              -0.000051414               0.004575441              -0.000002772              -0.000591209               0.001722201               0.001130993               0.000000000               0.000000000               0.000000000               0.000000000              -0.000056209               0.004486409              -0.000006373              -0.000581878               0.001689414               0.001107536               0.000000000               0.000000000               0.000000000               0.000000000              -0.000053080               0.004441083              -0.000006035              -0.000575039               0.001672026               0.001096987               0.000000000               0.000000000               0.000000000               0.000000000               0.001116901               0.003502760               0.001968544              -0.000019010               0.001173911               0.001154901               0.000000000               0.000000000               0.000000000               0.000000000               0.000374264               0.004254886               0.001809348              -0.000391512               0.001548784               0.001157272               0.000000000               0.000000000               0.000000000               0.000000000              -0.000282650               0.005148432               0.001506526              -0.000749547               0.001965975               0.001216428               0.000000000               0.000000000               0.000000000               0.000000000              -0.000409552               0.005387937               0.001191192              -0.000827073               0.002071652               0.001244579               0.000000000               0.000000000               0.000000000               0.000000000              -0.000402535               0.005422244               0.000947202              -0.000828729               0.002083640               0.001254910               0.000000000               0.000000000               0.000000000               0.000000000              -0.000354070               0.005386042               0.000757061              -0.000806030               0.002064006               0.001257976               0.000000000               0.000000000               0.000000000               0.000000000              -0.000299361               0.005321291               0.000607710              -0.000777420               0.002032886               0.001255466               0.000000000               0.000000000               0.000000000               0.000000000              -0.000247722               0.005246133               0.000492508              -0.000748660               0.001998247               0.001249586               0.000000000               0.000000000               0.000000000               0.000000000              -0.000193716               0.005158279               0.000400880              -0.000717427               0.001958551               0.001241125               0.000000000               0.000000000               0.000000000               0.000000000              -0.000136777               0.005046558               0.000317525              -0.000682109               0.001909539               0.001227429               0.000000000               0.000000000               0.000000000               0.000000000              -0.000086792               0.004924092               0.000237327              -0.000648057               0.001857367               0.001209310               0.000000000               0.000000000               0.000000000               0.000000000              -0.000054100               0.004806650               0.000163477              -0.000621117               0.001809240               0.001188123               0.000000000               0.000000000               0.000000000               0.000000000              -0.000044504               0.004694442               0.000099089              -0.000603493               0.001765963               0.001162470               0.000000000               0.000000000               0.000000000               0.000000000              -0.000057666               0.004587843               0.000050901              -0.000595104               0.001727634               0.001132530               0.000000000               0.000000000               0.000000000               0.000000000              -0.000084694               0.004486319               0.000018167              -0.000592549               0.001692941               0.001100392               0.000000000               0.000000000               0.000000000               0.000000000              -0.000113885               0.004393009               0.000000904              -0.000591832               0.001661599               0.001069767               0.000000000               0.000000000               0.000000000               0.000000000              -0.000125780               0.004347812              -0.000003458              -0.000590642               0.001646137               0.001055495               0.000000000               0.000000000               0.000000000               0.000000000               0.000606011               0.002428028               0.001515473              -0.000076251               0.000834751               0.000758500               0.000000000               0.000000000               0.000000000               0.000000000               0.000210043               0.003331525               0.001678615              -0.000337675               0.001223055               0.000885379               0.000000000               0.000000000               0.000000000               0.000000000              -0.000273110               0.004367168               0.001672446              -0.000648312               0.001671811               0.001023499               0.000000000               0.000000000               0.000000000               0.000000000              -0.000372628               0.004790203               0.001436317              -0.000738510               0.001842888               0.001104378               0.000000000               0.000000000               0.000000000               0.000000000              -0.000366291               0.004971222               0.001196520              -0.000758761               0.001909977               0.001151217               0.000000000               0.000000000               0.000000000               0.000000000              -0.000325952               0.005039907               0.000989407              -0.000752219               0.001930692               0.001178473               0.000000000               0.000000000               0.000000000               0.000000000              -0.000275990               0.005048828               0.000820352              -0.000734598               0.001927792               0.001193194               0.000000000               0.000000000               0.000000000               0.000000000              -0.000228637               0.005032911               0.000688874              -0.000714851               0.001915904               0.001201053               0.000000000               0.000000000               0.000000000               0.000000000              -0.000180643               0.005000611               0.000584921              -0.000692816               0.001897792               0.001204976               0.000000000               0.000000000               0.000000000               0.000000000              -0.000131362               0.004937693               0.000488944              -0.000666471               0.001868038               0.001201567               0.000000000               0.000000000               0.000000000               0.000000000              -0.000082861               0.004851020               0.000393226              -0.000637449               0.001829474               0.001192025               0.000000000               0.000000000               0.000000000               0.000000000              -0.000048140               0.004752295               0.000298937              -0.000612088               0.001788112               0.001176024               0.000000000               0.000000000               0.000000000               0.000000000              -0.000033142               0.004652655               0.000209476              -0.000594009               0.001748872               0.001154863               0.000000000               0.000000000               0.000000000               0.000000000              -0.000044756               0.004555280               0.000131297              -0.000586192               0.001713809               0.001127617               0.000000000               0.000000000               0.000000000               0.000000000              -0.000084388               0.004461420               0.000067577              -0.000589321               0.001683566               0.001094244               0.000000000               0.000000000               0.000000000               0.000000000              -0.000141721               0.004378344               0.000023702              -0.000600437               0.001659579               0.001059142               0.000000000               0.000000000               0.000000000               0.000000000              -0.000183135               0.004331697               0.000003557              -0.000610136               0.001647264               0.001037127               0.000000000               0.000000000               0.000000000               0.000000000              -0.000018260               0.001513767               0.001053775              -0.000196069               0.000569939               0.000373871               0.000000000               0.000000000               0.000000000               0.000000000              -0.000013012               0.002455644               0.001466834              -0.000311836               0.000922484               0.000610649               0.000000000               0.000000000               0.000000000               0.000000000              -0.000227898               0.003510187               0.001713340              -0.000524235               0.001344795               0.000820560               0.000000000               0.000000000               0.000000000               0.000000000              -0.000267437               0.004069788               0.001583267              -0.000609012               0.001559586               0.000950574               0.000000000               0.000000000               0.000000000               0.000000000              -0.000256497               0.004383094               0.001379212              -0.000644072               0.001675707               0.001031635               0.000000000               0.000000000               0.000000000               0.000000000              -0.000225767               0.004562124               0.001178947              -0.000654927               0.001739001               0.001084074               0.000000000               0.000000000               0.000000000               0.000000000              -0.000186965               0.004662671               0.001005012              -0.000652944               0.001771856               0.001118912               0.000000000               0.000000000               0.000000000               0.000000000              -0.000147030               0.004720367               0.000865570              -0.000645181               0.001788500               0.001143319               0.000000000               0.000000000               0.000000000               0.000000000              -0.000110490               0.004755409               0.000752619              -0.000635858               0.001797073               0.001161215               0.000000000               0.000000000               0.000000000               0.000000000              -0.000073754               0.004759207               0.000650301              -0.000622557               0.001793905               0.001171348               0.000000000               0.000000000               0.000000000               0.000000000              -0.000036473               0.004724207               0.000547172              -0.000604202               0.001776120               0.001171919               0.000000000               0.000000000               0.000000000               0.000000000              -0.000006133               0.004661842               0.000443434              -0.000585029               0.001748941               0.001163913               0.000000000               0.000000000               0.000000000               0.000000000               0.000013143               0.004587320               0.000341648              -0.000568485               0.001718586               0.001150101               0.000000000               0.000000000               0.000000000               0.000000000               0.000010347               0.004507596               0.000241642              -0.000559568               0.001689039               0.001129472               0.000000000               0.000000000               0.000000000               0.000000000              -0.000022888               0.004429462               0.000147651              -0.000562264               0.001663894               0.001101630               0.000000000               0.000000000               0.000000000               0.000000000              -0.000090339               0.004361989               0.000066055              -0.000579124               0.001647023               0.001067899               0.000000000               0.000000000               0.000000000               0.000000000              -0.000153958               0.004318236               0.000022058              -0.000597512               0.001638568               0.001041056               0.000000000               0.000000000               0.000000000               0.000000000              -0.000708025               0.000812445               0.000636510              -0.000367065               0.000393166               0.000026102               0.000000000               0.000000000               0.000000000               0.000000000              -0.000281853               0.001679333               0.001191580              -0.000315612               0.000664975               0.000349363               0.000000000               0.000000000               0.000000000               0.000000000              -0.000173391               0.002648971               0.001607603              -0.000396144               0.001015028               0.000618885               0.000000000               0.000000000               0.000000000               0.000000000              -0.000112762               0.003279710               0.001584306              -0.000452250               0.001243975               0.000791725               0.000000000               0.000000000               0.000000000               0.000000000              -0.000077169               0.003693840               0.001439653              -0.000490668               0.001394823               0.000904155               0.000000000               0.000000000               0.000000000               0.000000000              -0.000051556               0.003974604               0.001269921              -0.000516159               0.001496907               0.000980749               0.000000000               0.000000000               0.000000000               0.000000000              -0.000024742               0.004169137               0.001110995              -0.000530420               0.001566505               0.001036085               0.000000000               0.000000000               0.000000000               0.000000000               0.000001255               0.004306728               0.000975427              -0.000537870               0.001614851               0.001076982               0.000000000               0.000000000               0.000000000               0.000000000               0.000023998               0.004415719               0.000860527              -0.000542965               0.001652880               0.001109915               0.000000000               0.000000000               0.000000000               0.000000000               0.000045531               0.004494286               0.000758264              -0.000544711               0.001679650               0.001134940               0.000000000               0.000000000               0.000000000               0.000000000               0.000069536               0.004525393               0.000656900              -0.000539597               0.001688315               0.001148718               0.000000000               0.000000000               0.000000000               0.000000000               0.000094971               0.004518292               0.000555370              -0.000529171               0.001682473               0.001153301               0.000000000               0.000000000               0.000000000               0.000000000               0.000116451               0.004486980               0.000453446              -0.000517202               0.001668046               0.001150843               0.000000000               0.000000000               0.000000000               0.000000000               0.000125192               0.004440202               0.000346832              -0.000508077               0.001649411               0.001141334               0.000000000               0.000000000               0.000000000               0.000000000               0.000110196               0.004388618               0.000235009              -0.000507252               0.001631942               0.001124690               0.000000000               0.000000000               0.000000000               0.000000000               0.000059984               0.004343605               0.000118542              -0.000520455               0.001621339               0.001100884               0.000000000               0.000000000               0.000000000               0.000000000              -0.000000259               0.004309924               0.000051949              -0.000538836               0.001616239               0.001077403               0.000000000               0.000000000               0.000000000               0.000000000              -0.001400014               0.000326521               0.000317736              -0.000565820               0.000297445              -0.000268375               0.000000000               0.000000000               0.000000000               0.000000000              -0.000576032               0.001049395               0.000886404              -0.000347186               0.000465523               0.000118337               0.000000000               0.000000000               0.000000000               0.000000000              -0.000126093               0.001862394               0.001355923              -0.000280085               0.000714153               0.000434068               0.000000000               0.000000000               0.000000000               0.000000000               0.000064703               0.002501722               0.001410030              -0.000288452               0.000930049               0.000641597               0.000000000               0.000000000               0.000000000               0.000000000               0.000145632               0.002977613               0.001326552              -0.000317590               0.001098391               0.000780801               0.000000000               0.000000000               0.000000000               0.000000000               0.000179128               0.003334730               0.001203865              -0.000349668               0.001228121               0.000878453               0.000000000               0.000000000               0.000000000               0.000000000               0.000198331               0.003611515               0.001078212              -0.000377065               0.001329514               0.000952449               0.000000000               0.000000000               0.000000000               0.000000000               0.000208668               0.003827217               0.000962321              -0.000400151               0.001409110               0.001008958               0.000000000               0.000000000               0.000000000               0.000000000               0.000215512               0.004005096               0.000860122              -0.000419819               0.001474958               0.001055139               0.000000000               0.000000000               0.000000000               0.000000000               0.000221668               0.004153024               0.000768303              -0.000436002               0.001529661               0.001093659               0.000000000               0.000000000               0.000000000               0.000000000               0.000230016               0.004256780               0.000678378              -0.000445841               0.001567526               0.001121685               0.000000000               0.000000000               0.000000000               0.000000000               0.000245306               0.004322236               0.000587652              -0.000448289               0.001590161               0.001141872               0.000000000               0.000000000               0.000000000               0.000000000               0.000266050               0.004355821               0.000496097              -0.000444708               0.001600162               0.001155454               0.000000000               0.000000000               0.000000000               0.000000000               0.000289780               0.004360593               0.000397632              -0.000436406               0.001598985               0.001162579               0.000000000               0.000000000               0.000000000               0.000000000               0.000308024               0.004346476               0.000286228              -0.000427799               0.001591411               0.001163611               0.000000000               0.000000000               0.000000000               0.000000000               0.000309196               0.004325811               0.000153918              -0.000424777               0.001583515               0.001158738               0.000000000               0.000000000               0.000000000               0.000000000               0.000293449               0.004308879               0.000077995              -0.000428565               0.001579134               0.001150568               0.000000000               0.000000000               0.000000000               0.000000000              -0.002002465               0.000025871               0.000119402              -0.000754158               0.000260008              -0.000494150               0.000000000               0.000000000               0.000000000               0.000000000              -0.000847811               0.000585798               0.000581135              -0.000391154               0.000325648              -0.000065506               0.000000000               0.000000000               0.000000000               0.000000000              -0.000088930               0.001223238               0.000981572              -0.000186254               0.000469826               0.000283572               0.000000000               0.000000000               0.000000000               0.000000000               0.000230511               0.001834698               0.001060148              -0.000142896               0.000659192               0.000516295               0.000000000               0.000000000               0.000000000               0.000000000               0.000365830               0.002338404               0.001022804              -0.000155115               0.000831165               0.000676050               0.000000000               0.000000000               0.000000000               0.000000000               0.000416998               0.002746620               0.000948593              -0.000186954               0.000977848               0.000790895               0.000000000               0.000000000               0.000000000               0.000000000               0.000433189               0.003085606               0.000865337              -0.000223255               0.001102943               0.000879688               0.000000000               0.000000000               0.000000000               0.000000000               0.000433379               0.003364588               0.000783104              -0.000258056               0.001207537               0.000949480               0.000000000               0.000000000               0.000000000               0.000000000               0.000427854               0.003598532               0.000707988              -0.000289371               0.001295956               0.001006585               0.000000000               0.000000000               0.000000000               0.000000000               0.000420021               0.003801436               0.000639553              -0.000317671               0.001373023               0.001055352               0.000000000               0.000000000               0.000000000               0.000000000               0.000414217               0.003970932               0.000571136              -0.000341035               0.001437309               0.001096274               0.000000000               0.000000000               0.000000000               0.000000000               0.000419014               0.004102963               0.000500764              -0.000355740               0.001486221               0.001130481               0.000000000               0.000000000               0.000000000               0.000000000               0.000438289               0.004197977               0.000430285              -0.000360388               0.001519441               0.001159053               0.000000000               0.000000000               0.000000000               0.000000000               0.000474845               0.004256827               0.000353624              -0.000354036               0.001536940               0.001182904               0.000000000               0.000000000               0.000000000               0.000000000               0.000529117               0.004286906               0.000261778              -0.000337443               0.001541436               0.001203992               0.000000000               0.000000000               0.000000000               0.000000000               0.000599798               0.004301019               0.000144548              -0.000312702               0.001537893               0.001225191               0.000000000               0.000000000               0.000000000               0.000000000               0.000655853               0.004310655               0.000079682              -0.000292886               0.001534499               0.001241613               0.000000000               0.000000000               0.000000000               0.000000000              -0.002413876              -0.000134140               0.000027933              -0.000888435               0.000251430              -0.000637005               0.000000000               0.000000000               0.000000000               0.000000000              -0.001036283               0.000300055               0.000286172              -0.000426112               0.000242054              -0.000184058               0.000000000               0.000000000               0.000000000               0.000000000              -0.000062979               0.000801509               0.000515975              -0.000123806               0.000308435               0.000184629               0.000000000               0.000000000               0.000000000               0.000000000               0.000348682               0.001379798               0.000569819              -0.000041720               0.000473834               0.000432115               0.000000000               0.000000000               0.000000000               0.000000000               0.000525454               0.001895945               0.000556966              -0.000039949               0.000645292               0.000605343               0.000000000               0.000000000               0.000000000               0.000000000               0.000593880               0.002333435               0.000523584              -0.000068975               0.000800796               0.000731821               0.000000000               0.000000000               0.000000000               0.000000000               0.000611369               0.002706047               0.000483489              -0.000108993               0.000938337               0.000829345               0.000000000               0.000000000               0.000000000               0.000000000               0.000606200               0.003023523               0.000442265              -0.000150615               0.001058036               0.000907421               0.000000000               0.000000000               0.000000000               0.000000000               0.000594284               0.003298837               0.000403171              -0.000189498               0.001162767               0.000973269               0.000000000               0.000000000               0.000000000               0.000000000               0.000580501               0.003536165               0.000365860              -0.000224332               0.001253487               0.001029155               0.000000000               0.000000000               0.000000000               0.000000000               0.000569988               0.003738457               0.000328690              -0.000253561               0.001330660               0.001077099               0.000000000               0.000000000               0.000000000               0.000000000               0.000572496               0.003909355               0.000289804              -0.000273983               0.001394433               0.001120450               0.000000000               0.000000000               0.000000000               0.000000000               0.000591489               0.004043233               0.000250372              -0.000283595               0.001442263               0.001158668               0.000000000               0.000000000               0.000000000               0.000000000               0.000631791               0.004142313               0.000206863              -0.000280867               0.001474379               0.001193513               0.000000000               0.000000000               0.000000000               0.000000000               0.000703667               0.004213899               0.000153119              -0.000262862               0.001492240               0.001229378               0.000000000               0.000000000               0.000000000               0.000000000               0.000819212               0.004265389               0.000084598              -0.000225969               0.001497105               0.001271136               0.000000000               0.000000000               0.000000000               0.000000000               0.000925010               0.004299618               0.000048601              -0.000190573               0.001496716               0.001306143               0.000000000               0.000000000               0.000000000               0.000000000              -0.002559826              -0.000185161               0.000000000              -0.000936789               0.000250541              -0.000686248               0.000000000               0.000000000               0.000000000               0.000000000              -0.001102737               0.000203432              -0.000000000              -0.000438955               0.000214128              -0.000224827               0.000000000               0.000000000               0.000000000               0.000000000              -0.000053234               0.000654417              -0.000000000              -0.000101765               0.000252058               0.000150293               0.000000000               0.000000000               0.000000000               0.000000000               0.000391824               0.001217530               0.000000000              -0.000005257               0.000407592               0.000402334               0.000000000               0.000000000               0.000000000               0.000000000               0.000582695               0.001737199               0.000000000               0.000001361               0.000578607               0.000579968               0.000000000               0.000000000               0.000000000               0.000000000               0.000660293               0.002185341              -0.000000000              -0.000025558               0.000736959               0.000711401               0.000000000               0.000000000               0.000000000               0.000000000               0.000678688               0.002567422               0.000000000              -0.000066420               0.000877938               0.000811519               0.000000000               0.000000000               0.000000000               0.000000000               0.000672195               0.002898981              -0.000000000              -0.000110300               0.001003084               0.000892784               0.000000000               0.000000000               0.000000000               0.000000000               0.000655894               0.003189521              -0.000000000              -0.000152729               0.001114073               0.000961343               0.000000000               0.000000000               0.000000000               0.000000000               0.000641316               0.003436861              -0.000000000              -0.000189114               0.001208647               0.001019533               0.000000000               0.000000000               0.000000000               0.000000000               0.000632712               0.003646545               0.000000000              -0.000218551               0.001288353               0.001069803               0.000000000               0.000000000               0.000000000               0.000000000               0.000635911               0.003827055              -0.000000000              -0.000239915               0.001355644               0.001115729               0.000000000               0.000000000               0.000000000               0.000000000               0.000654152               0.003973559              -0.000000000              -0.000251387               0.001408302               0.001156915               0.000000000               0.000000000               0.000000000               0.000000000               0.000693470               0.004088474               0.000000000              -0.000251008               0.001446480               0.001195473               0.000000000               0.000000000               0.000000000               0.000000000               0.000768097               0.004178271               0.000000000              -0.000234247               0.001470825               0.001236579               0.000000000               0.000000000               0.000000000               0.000000000               0.000895523               0.004248065              -0.000000000              -0.000195187               0.001481070               0.001285883               0.000000000               0.000000000               0.000000000               0.000000000               0.001014090               0.004292354              -0.000000000              -0.000156260               0.001482857               0.001326597               0.000000000               0.000000000               0.000000000               0.000000000               0.001213513               0.013806089              -0.000000000              -0.001270690               0.005025547               0.003754857               0.000000000               0.000000000               0.000000000               0.000000000               0.001292169               0.011210694               0.000000000              -0.000916771               0.004042451               0.003125680               0.000000000               0.000000000               0.000000000               0.000000000               0.001778998               0.009105938              -0.000000000              -0.000471117               0.003192321               0.002721205               0.000000000               0.000000000               0.000000000               0.000000000               0.001824200               0.007925174              -0.000000000              -0.000306571               0.002743889               0.002437318               0.000000000               0.000000000               0.000000000               0.000000000               0.001710748               0.007210822               0.000000000              -0.000259821               0.002490190               0.002230369               0.000000000               0.000000000               0.000000000               0.000000000               0.001540349               0.006754167              -0.000000000              -0.000266639               0.002340246               0.002073607               0.000000000               0.000000000               0.000000000               0.000000000               0.001355303               0.006449739              -0.000000000              -0.000297978               0.002249218               0.001951240               0.000000000               0.000000000               0.000000000               0.000000000               0.001178759               0.006236126               0.000000000              -0.000337480               0.002191181               0.001853701               0.000000000               0.000000000               0.000000000               0.000000000               0.001014131               0.006077763               0.000000000              -0.000379420               0.002152374               0.001772954               0.000000000               0.000000000               0.000000000               0.000000000               0.000855638               0.005958794               0.000000000              -0.000423984               0.002127573               0.001703589               0.000000000               0.000000000               0.000000000               0.000000000               0.000701561               0.005872623               0.000000000              -0.000470991               0.002114519               0.001643527               0.000000000               0.000000000               0.000000000               0.000000000               0.000550814               0.005802936               0.000000000              -0.000518811               0.002107230               0.001588419               0.000000000               0.000000000               0.000000000               0.000000000               0.000408256               0.005735917               0.000000000              -0.000563892               0.002099917               0.001536025               0.000000000               0.000000000               0.000000000               0.000000000               0.000278738               0.005662839               0.000000000              -0.000603327               0.002088703               0.001485376               0.000000000               0.000000000               0.000000000               0.000000000               0.000167617               0.005574100              -0.000000000              -0.000633905               0.002069316               0.001435412               0.000000000               0.000000000               0.000000000               0.000000000               0.000076744               0.005457789               0.000000000              -0.000653443               0.002037059               0.001383616               0.000000000               0.000000000               0.000000000               0.000000000               0.000026697               0.005363125               0.000000000              -0.000660378               0.002007816               0.001347439               0.000000000               0.000000000               0.000000000               0.000000000               0.001281323               0.013558833              -0.001015454              -0.001214355               0.004924351               0.003709996               0.000000000               0.000000000               0.000000000               0.000000000               0.001301296               0.011035898              -0.000606408              -0.000891499               0.003975762               0.003084263               0.000000000               0.000000000               0.000000000               0.000000000               0.001723224               0.009012306              -0.000189505              -0.000480328               0.003164181               0.002683853               0.000000000               0.000000000               0.000000000               0.000000000               0.001739711               0.007880276              -0.000000622              -0.000332642               0.002737613               0.002404971               0.000000000               0.000000000               0.000000000               0.000000000               0.001618413               0.007195006               0.000087553              -0.000292470               0.002495802               0.002203331               0.000000000               0.000000000               0.000000000               0.000000000               0.001449511               0.006754706               0.000127746              -0.000300771               0.002351803               0.002051032               0.000000000               0.000000000               0.000000000               0.000000000               0.001268000               0.006456617               0.000142531              -0.000331576               0.002262710               0.001931133               0.000000000               0.000000000               0.000000000               0.000000000               0.001094327               0.006245002               0.000142722              -0.000370252               0.002205064               0.001834812               0.000000000               0.000000000               0.000000000               0.000000000               0.000934715               0.006088041               0.000138473              -0.000410486               0.002166155               0.001755669               0.000000000               0.000000000               0.000000000               0.000000000               0.000785112               0.005971587               0.000136576              -0.000452030               0.002141186               0.001689156               0.000000000               0.000000000               0.000000000               0.000000000               0.000639430               0.005880220               0.000133832              -0.000495240               0.002125134               0.001629894               0.000000000               0.000000000               0.000000000               0.000000000               0.000499039               0.005801190               0.000126311              -0.000538008               0.002113046               0.001575039               0.000000000               0.000000000               0.000000000               0.000000000               0.000370288               0.005727309               0.000115642              -0.000577054               0.002101435               0.001524381               0.000000000               0.000000000               0.000000000               0.000000000               0.000253503               0.005648624               0.000100774              -0.000611013               0.002086527               0.001475514               0.000000000               0.000000000               0.000000000               0.000000000               0.000150912               0.005556247               0.000077594              -0.000637937               0.002064710               0.001426772               0.000000000               0.000000000               0.000000000               0.000000000               0.000067851               0.005442988               0.000043215              -0.000654928               0.002032620               0.001377693               0.000000000               0.000000000               0.000000000               0.000000000               0.000022607               0.005354143               0.000025832              -0.000660789               0.002004959               0.001344171               0.000000000               0.000000000               0.000000000               0.000000000               0.001456109               0.012837438              -0.001898704              -0.001058637               0.004631982               0.003573345               0.000000000               0.000000000               0.000000000               0.000000000               0.001313068               0.010535321              -0.001129102              -0.000824513               0.003786576               0.002962063               0.000000000               0.000000000               0.000000000               0.000000000               0.001559518               0.008752033              -0.000351681              -0.000509184               0.003087043               0.002577859               0.000000000               0.000000000               0.000000000               0.000000000               0.001499578               0.007753410              -0.000009972              -0.000406833               0.002720055               0.002313222               0.000000000               0.000000000               0.000000000               0.000000000               0.001352172               0.007140190               0.000143983              -0.000385458               0.002508526               0.002123067               0.000000000               0.000000000               0.000000000               0.000000000               0.001185320               0.006737759               0.000211123              -0.000397724               0.002378472               0.001980748               0.000000000               0.000000000               0.000000000               0.000000000               0.001020972               0.006457093               0.000235442              -0.000424271               0.002293766               0.001869495               0.000000000               0.000000000               0.000000000               0.000000000               0.000869572               0.006252126               0.000238431              -0.000455425               0.002235830               0.001780404               0.000000000               0.000000000               0.000000000               0.000000000               0.000730101               0.006098670               0.000236185              -0.000488545               0.002195718               0.001707173               0.000000000               0.000000000               0.000000000               0.000000000               0.000600565               0.005979160               0.000234535              -0.000522182               0.002167094               0.001644912               0.000000000               0.000000000               0.000000000               0.000000000               0.000478017               0.005876805               0.000228360              -0.000555343               0.002144030               0.001588687               0.000000000               0.000000000               0.000000000               0.000000000               0.000367706               0.005784555               0.000216480              -0.000585178               0.002123225               0.001538047               0.000000000               0.000000000               0.000000000               0.000000000               0.000273554               0.005695762               0.000198886              -0.000609386               0.002101697               0.001492311               0.000000000               0.000000000               0.000000000               0.000000000               0.000187903               0.005603581               0.000172420              -0.000629983               0.002077836               0.001447853               0.000000000               0.000000000               0.000000000               0.000000000               0.000113013               0.005508058               0.000132983              -0.000646126               0.002051376               0.001405251               0.000000000               0.000000000               0.000000000               0.000000000               0.000052576               0.005409378               0.000074972              -0.000656454               0.002021926               0.001365472               0.000000000               0.000000000               0.000000000               0.000000000               0.000019223               0.005342941               0.000043857              -0.000660657               0.002001182               0.001340524               0.000000000               0.000000000               0.000000000               0.000000000               0.001673210               0.011717765              -0.002563316              -0.000837266               0.004184971               0.003347705               0.000000000               0.000000000               0.000000000               0.000000000               0.001297882               0.009776228              -0.001530792              -0.000735322               0.003503817               0.002768496               0.000000000               0.000000000               0.000000000               0.000000000               0.001297598               0.008365315              -0.000500274              -0.000559064               0.002974765               0.002415701               0.000000000               0.000000000               0.000000000               0.000000000               0.001146062               0.007550376              -0.000064994              -0.000514022               0.002688108               0.002174085               0.000000000               0.000000000               0.000000000               0.000000000               0.000975693               0.007033132               0.000126542              -0.000513255               0.002515439               0.002002184               0.000000000               0.000000000               0.000000000               0.000000000               0.000821498               0.006678421               0.000210834              -0.000526740               0.002401698               0.001874958               0.000000000               0.000000000               0.000000000               0.000000000               0.000687873               0.006416839               0.000244604              -0.000544151               0.002320308               0.001776157               0.000000000               0.000000000               0.000000000               0.000000000               0.000571441               0.006217566               0.000254992              -0.000562904               0.002260136               0.001697232               0.000000000               0.000000000               0.000000000               0.000000000               0.000461731               0.006062728               0.000257528              -0.000584690               0.002215786               0.001631096               0.000000000               0.000000000               0.000000000               0.000000000               0.000362457               0.005935776               0.000257434              -0.000606049               0.002180589               0.001574539               0.000000000               0.000000000               0.000000000               0.000000000               0.000277351               0.005825672               0.000251669              -0.000624201               0.002149938               0.001525737               0.000000000               0.000000000               0.000000000               0.000000000               0.000204862               0.005721029               0.000236751              -0.000638304               0.002119759               0.001481455               0.000000000               0.000000000               0.000000000               0.000000000               0.000147932               0.005617972               0.000212140              -0.000646771               0.002088229               0.001441458               0.000000000               0.000000000               0.000000000               0.000000000               0.000103392               0.005519466               0.000179600              -0.000651160               0.002056857               0.001405697               0.000000000               0.000000000               0.000000000               0.000000000               0.000066717               0.005430338               0.000134273              -0.000653772               0.002028018               0.001374247               0.000000000               0.000000000               0.000000000               0.000000000               0.000033515               0.005356300               0.000072150              -0.000656968               0.002004405               0.001347437               0.000000000               0.000000000               0.000000000               0.000000000               0.000015148               0.005319861               0.000038914              -0.000659300               0.001993036               0.001333736               0.000000000               0.000000000               0.000000000               0.000000000               0.001860168               0.010330016              -0.002970509              -0.000593690               0.003641200               0.003047510               0.000000000               0.000000000               0.000000000               0.000000000               0.001235021               0.008855858              -0.001802165              -0.000643849               0.003166539               0.002522690               0.000000000               0.000000000               0.000000000               0.000000000               0.000965843               0.007900311              -0.000647566              -0.000625346               0.002841859               0.002216513               0.000000000               0.000000000               0.000000000               0.000000000               0.000741093               0.007290031              -0.000175104              -0.000633343               0.002641100               0.002007758               0.000000000               0.000000000               0.000000000               0.000000000               0.000570069               0.006871687               0.000032876              -0.000645183               0.002505601               0.001860417               0.000000000               0.000000000               0.000000000               0.000000000               0.000443744               0.006560374               0.000125601              -0.000653641               0.002404650               0.001751009               0.000000000               0.000000000               0.000000000               0.000000000               0.000348398               0.006313224               0.000167648              -0.000658502               0.002323888               0.001665386               0.000000000               0.000000000               0.000000000               0.000000000               0.000271897               0.006118331               0.000188425              -0.000662828               0.002260366               0.001597538               0.000000000               0.000000000               0.000000000               0.000000000               0.000202385               0.005963878               0.000200717              -0.000669589               0.002211136               0.001541547               0.000000000               0.000000000               0.000000000               0.000000000               0.000142944               0.005834579               0.000207591              -0.000675717               0.002170079               0.001494362               0.000000000               0.000000000               0.000000000               0.000000000               0.000099239               0.005715240               0.000204130              -0.000677189               0.002130790               0.001453602               0.000000000               0.000000000               0.000000000               0.000000000               0.000064495               0.005597979               0.000188036              -0.000675560               0.002091161               0.001415601               0.000000000               0.000000000               0.000000000               0.000000000               0.000040659               0.005488661               0.000163730              -0.000670834               0.002053147               0.001382313               0.000000000               0.000000000               0.000000000               0.000000000               0.000029091               0.005394198               0.000134013              -0.000663364               0.002019169               0.001355805               0.000000000               0.000000000               0.000000000               0.000000000               0.000021993               0.005318607               0.000094657              -0.000656577               0.001991710               0.001335133               0.000000000               0.000000000               0.000000000               0.000000000               0.000014513               0.005266195               0.000047004              -0.000652830               0.001972991               0.001320161               0.000000000               0.000000000               0.000000000               0.000000000               0.000009488               0.005245759               0.000023218              -0.000652160               0.001965955               0.001313795               0.000000000               0.000000000               0.000000000               0.000000000               0.001955727               0.008820740              -0.003117531              -0.000369197               0.003063282               0.002694085               0.000000000               0.000000000               0.000000000               0.000000000               0.001117357               0.007872683              -0.001946625              -0.000565077               0.002812560               0.002247483               0.000000000               0.000000000               0.000000000               0.000000000               0.000610182               0.007396733              -0.000794454              -0.000695772               0.002697477               0.002001705               0.000000000               0.000000000               0.000000000               0.000000000               0.000347690               0.006985648              -0.000332418              -0.000742821               0.002576133               0.001833312               0.000000000               0.000000000               0.000000000               0.000000000               0.000200596               0.006650155              -0.000123047              -0.000756044               0.002468711               0.001712667               0.000000000               0.000000000               0.000000000               0.000000000               0.000115325               0.006374167              -0.000024635              -0.000753522               0.002375875               0.001622353               0.000000000               0.000000000               0.000000000               0.000000000               0.000064648               0.006146338               0.000028317              -0.000744048               0.002296775               0.001552727               0.000000000               0.000000000               0.000000000               0.000000000               0.000030578               0.005965226               0.000067252              -0.000734185               0.002233117               0.001498932               0.000000000               0.000000000               0.000000000               0.000000000               0.000005093               0.005820208               0.000095683              -0.000725615               0.002181921               0.001456307               0.000000000               0.000000000               0.000000000               0.000000000              -0.000013952               0.005686531               0.000111488              -0.000716047               0.002134174               0.001418127               0.000000000               0.000000000               0.000000000               0.000000000              -0.000025096               0.005556444               0.000113848              -0.000703965               0.002086784               0.001382820               0.000000000               0.000000000               0.000000000               0.000000000              -0.000027615               0.005435338               0.000105119              -0.000689771               0.002041685               0.001351914               0.000000000               0.000000000               0.000000000               0.000000000              -0.000021295               0.005330208               0.000090640              -0.000674260               0.002001472               0.001327212               0.000000000               0.000000000               0.000000000               0.000000000              -0.000011829               0.005243915               0.000073952              -0.000659924               0.001967929               0.001308005               0.000000000               0.000000000               0.000000000               0.000000000              -0.000003789               0.005177025               0.000051555              -0.000648547               0.001941840               0.001293293               0.000000000               0.000000000               0.000000000               0.000000000               0.000002390               0.005128258               0.000025021              -0.000640135               0.001922780               0.001282646               0.000000000               0.000000000               0.000000000               0.000000000               0.000000859               0.005101690               0.000014571              -0.000637388               0.001913009               0.001275621               0.000000000               0.000000000               0.000000000               0.000000000               0.001916221               0.007312453              -0.003033746              -0.000195477               0.002502618               0.002307141               0.000000000               0.000000000               0.000000000               0.000000000               0.000945101               0.006897861              -0.001986613              -0.000507820               0.002468537               0.001960717               0.000000000               0.000000000               0.000000000               0.000000000               0.000271018               0.006872027              -0.000946922              -0.000757370               0.002543109               0.001785739               0.000000000               0.000000000               0.000000000               0.000000000               0.000014005               0.006631085              -0.000524921              -0.000823632               0.002484883               0.001661252               0.000000000               0.000000000               0.000000000               0.000000000              -0.000090113               0.006370812              -0.000317402              -0.000830142               0.002400297               0.001570155               0.000000000               0.000000000               0.000000000               0.000000000              -0.000126459               0.006137057              -0.000204868              -0.000814552               0.002317183               0.001502630               0.000000000               0.000000000               0.000000000               0.000000000              -0.000128601               0.005942128              -0.000131871              -0.000790989               0.002244353               0.001453363               0.000000000               0.000000000               0.000000000               0.000000000              -0.000121556               0.005783527              -0.000070237              -0.000768522               0.002183997               0.001415475               0.000000000               0.000000000               0.000000000               0.000000000              -0.000115318               0.005642807              -0.000025081              -0.000748593               0.002130448               0.001381855               0.000000000               0.000000000               0.000000000               0.000000000              -0.000103772               0.005505440               0.000002085              -0.000727093               0.002077493               0.001350400               0.000000000               0.000000000               0.000000000               0.000000000              -0.000085391               0.005372897               0.000018132              -0.000703632               0.002025492               0.001321860               0.000000000               0.000000000               0.000000000               0.000000000              -0.000064341               0.005252129               0.000026275              -0.000680642               0.001977573               0.001296931               0.000000000               0.000000000               0.000000000               0.000000000              -0.000043502               0.005149826               0.000030010              -0.000660040               0.001936605               0.001276565               0.000000000               0.000000000               0.000000000               0.000000000              -0.000025338               0.005065514               0.000031154              -0.000642689               0.001902718               0.001260028               0.000000000               0.000000000               0.000000000               0.000000000              -0.000012200               0.004995067               0.000026684              -0.000628957               0.001874658               0.001245701               0.000000000               0.000000000               0.000000000               0.000000000              -0.000003650               0.004935909               0.000014289              -0.000618356               0.001851405               0.001233049               0.000000000               0.000000000               0.000000000               0.000000000              -0.000006534               0.004897641               0.000010599              -0.000614654               0.001837415               0.001222762               0.000000000               0.000000000               0.000000000               0.000000000               0.001737027               0.005891891              -0.002769547              -0.000085104               0.001992311               0.001907207               0.000000000               0.000000000               0.000000000               0.000000000               0.000727939               0.005988369              -0.001952094              -0.000475570               0.002154626               0.001679056               0.000000000               0.000000000               0.000000000               0.000000000              -0.000017598               0.006342763              -0.001107201              -0.000799443               0.002380714               0.001581271               0.000000000               0.000000000               0.000000000               0.000000000              -0.000230330               0.006242898              -0.000726609              -0.000866734               0.002369857               0.001503122               0.000000000               0.000000000               0.000000000               0.000000000              -0.000280550               0.006061987              -0.000511447              -0.000862953               0.002308293               0.001445340               0.000000000               0.000000000               0.000000000               0.000000000              -0.000269482               0.005879583              -0.000376095              -0.000836002               0.002238509               0.001402507               0.000000000               0.000000000               0.000000000               0.000000000              -0.000235674               0.005721329              -0.000279158              -0.000803542               0.002174938               0.001371396               0.000000000               0.000000000               0.000000000               0.000000000              -0.000202940               0.005581809              -0.000198061              -0.000773827               0.002118526               0.001344700               0.000000000               0.000000000               0.000000000               0.000000000              -0.000170737               0.005444159              -0.000134692              -0.000744544               0.002062883               0.001318339               0.000000000               0.000000000               0.000000000               0.000000000              -0.000132435               0.005305584              -0.000090408              -0.000712859               0.002006130               0.001293271               0.000000000               0.000000000               0.000000000               0.000000000              -0.000098151               0.005169896              -0.000056070              -0.000683042               0.001950962               0.001267920               0.000000000               0.000000000               0.000000000               0.000000000              -0.000067632               0.005048619              -0.000027655              -0.000656438               0.001901669               0.001245231               0.000000000               0.000000000               0.000000000               0.000000000              -0.000044936               0.004942955              -0.000004580              -0.000634719               0.001859208               0.001224489               0.000000000               0.000000000               0.000000000               0.000000000              -0.000031075               0.004849921               0.000011105              -0.000617892               0.001822588               0.001204696               0.000000000               0.000000000               0.000000000               0.000000000              -0.000023892               0.004766222               0.000017437              -0.000604736               0.001790303               0.001185568               0.000000000               0.000000000               0.000000000               0.000000000              -0.000014624               0.004694576               0.000012284              -0.000592305               0.001762278               0.001169973               0.000000000               0.000000000               0.000000000               0.000000000              -0.000010959               0.004652278               0.000010210              -0.000585643               0.001745958               0.001160315               0.000000000               0.000000000               0.000000000               0.000000000               0.001474110               0.004665904              -0.002392733              -0.000030450               0.001565435               0.001534985               0.000000000               0.000000000               0.000000000               0.000000000               0.000522896               0.005179912              -0.001887365              -0.000451404               0.001877087               0.001425684               0.000000000               0.000000000               0.000000000               0.000000000              -0.000214845               0.005846189              -0.001293782              -0.000811339               0.002219156               0.001407817               0.000000000               0.000000000               0.000000000               0.000000000              -0.000371652               0.005893601              -0.000940421              -0.000876068               0.002256537               0.001380469               0.000000000               0.000000000               0.000000000               0.000000000              -0.000379294               0.005799534              -0.000709657              -0.000867175               0.002222217               0.001355042               0.000000000               0.000000000               0.000000000               0.000000000              -0.000335774               0.005672741              -0.000547731              -0.000835006               0.002169230               0.001334224               0.000000000               0.000000000               0.000000000               0.000000000              -0.000281259               0.005550962              -0.000425339              -0.000799340               0.002116749               0.001317408               0.000000000               0.000000000               0.000000000               0.000000000              -0.000230711               0.005433939              -0.000327184              -0.000765757               0.002066547               0.001300790               0.000000000               0.000000000               0.000000000               0.000000000              -0.000179796               0.005304549              -0.000248913              -0.000730490               0.002011662               0.001281172               0.000000000               0.000000000               0.000000000               0.000000000              -0.000122249               0.005163270              -0.000185555              -0.000691250               0.001951490               0.001260239               0.000000000               0.000000000               0.000000000               0.000000000              -0.000076172               0.005024415              -0.000128641              -0.000656615               0.001893660               0.001237045               0.000000000               0.000000000               0.000000000               0.000000000              -0.000047207               0.004898482              -0.000078634              -0.000630011               0.001842815               0.001212803               0.000000000               0.000000000               0.000000000               0.000000000              -0.000037452               0.004782724              -0.000038545              -0.000611884               0.001798187               0.001186303               0.000000000               0.000000000               0.000000000               0.000000000              -0.000042710               0.004675015              -0.000011581              -0.000600392               0.001758453               0.001158062               0.000000000               0.000000000               0.000000000               0.000000000              -0.000051414               0.004575441               0.000002772              -0.000591209               0.001722201               0.001130993               0.000000000               0.000000000               0.000000000               0.000000000              -0.000056209               0.004486409               0.000006373              -0.000581878               0.001689414               0.001107536               0.000000000               0.000000000               0.000000000               0.000000000              -0.000053080               0.004441083               0.000006035              -0.000575039               0.001672026               0.001096987               0.000000000               0.000000000               0.000000000               0.000000000               0.001116901               0.003502760              -0.001968544              -0.000019010               0.001173911               0.001154901               0.000000000               0.000000000               0.000000000               0.000000000               0.000374264               0.004254886              -0.001809348              -0.000391512               0.001548784               0.001157272               0.000000000               0.000000000               0.000000000               0.000000000              -0.000282650               0.005148432              -0.001506526              -0.000749547               0.001965975               0.001216428               0.000000000               0.000000000               0.000000000               0.000000000              -0.000409552               0.005387937              -0.001191192              -0.000827073               0.002071652               0.001244579               0.000000000               0.000000000               0.000000000               0.000000000              -0.000402535               0.005422244              -0.000947202              -0.000828729               0.002083640               0.001254910               0.000000000               0.000000000               0.000000000               0.000000000              -0.000354070               0.005386042              -0.000757061              -0.000806030               0.002064006               0.001257976               0.000000000               0.000000000               0.000000000               0.000000000              -0.000299361               0.005321291              -0.000607710              -0.000777420               0.002032886               0.001255466               0.000000000               0.000000000               0.000000000               0.000000000              -0.000247722               0.005246133              -0.000492508              -0.000748660               0.001998247               0.001249586               0.000000000               0.000000000               0.000000000               0.000000000              -0.000193716               0.005158279              -0.000400880              -0.000717427               0.001958551               0.001241125               0.000000000               0.000000000               0.000000000               0.000000000              -0.000136777               0.005046558              -0.000317525              -0.000682109               0.001909539               0.001227429               0.000000000               0.000000000               0.000000000               0.000000000              -0.000086792               0.004924092              -0.000237327              -0.000648057               0.001857367               0.001209310               0.000000000               0.000000000               0.000000000               0.000000000              -0.000054100               0.004806650              -0.000163477              -0.000621117               0.001809240               0.001188123               0.000000000               0.000000000               0.000000000               0.000000000              -0.000044504               0.004694442              -0.000099089              -0.000603493               0.001765963               0.001162470               0.000000000               0.000000000               0.000000000               0.000000000              -0.000057666               0.004587843              -0.000050901              -0.000595104               0.001727634               0.001132530               0.000000000               0.000000000               0.000000000               0.000000000              -0.000084694               0.004486319              -0.000018167              -0.000592549               0.001692941               0.001100392               0.000000000               0.000000000               0.000000000               0.000000000              -0.000113885               0.004393009              -0.000000904              -0.000591832               0.001661599               0.001069767               0.000000000               0.000000000               0.000000000               0.000000000              -0.000125780               0.004347812               0.000003458              -0.000590642               0.001646137               0.001055495               0.000000000               0.000000000               0.000000000               0.000000000               0.000606011               0.002428028              -0.001515473              -0.000076251               0.000834751               0.000758500               0.000000000               0.000000000               0.000000000               0.000000000               0.000210043               0.003331525              -0.001678615              -0.000337675               0.001223055               0.000885379               0.000000000               0.000000000               0.000000000               0.000000000              -0.000273110               0.004367168              -0.001672446              -0.000648312               0.001671811               0.001023499               0.000000000               0.000000000               0.000000000               0.000000000              -0.000372628               0.004790203              -0.001436317              -0.000738510               0.001842888               0.001104378               0.000000000               0.000000000               0.000000000               0.000000000              -0.000366291               0.004971222              -0.001196520              -0.000758761               0.001909977               0.001151217               0.000000000               0.000000000               0.000000000               0.000000000              -0.000325952               0.005039907              -0.000989407              -0.000752219               0.001930692               0.001178473               0.000000000               0.000000000               0.000000000               0.000000000              -0.000275990               0.005048828              -0.000820352              -0.000734598               0.001927792               0.001193194               0.000000000               0.000000000               0.000000000               0.000000000              -0.000228637               0.005032911              -0.000688874              -0.000714851               0.001915904               0.001201053               0.000000000               0.000000000               0.000000000               0.000000000              -0.000180643               0.005000611              -0.000584921              -0.000692816               0.001897792               0.001204976               0.000000000               0.000000000               0.000000000               0.000000000              -0.000131362               0.004937693              -0.000488944              -0.000666471               0.001868038               0.001201567               0.000000000               0.000000000               0.000000000               0.000000000              -0.000082861               0.004851020              -0.000393226              -0.000637449               0.001829474               0.001192025               0.000000000               0.000000000               0.000000000               0.000000000              -0.000048140               0.004752295              -0.000298937              -0.000612088               0.001788112               0.001176024               0.000000000               0.000000000               0.000000000               0.000000000              -0.000033142               0.004652655              -0.000209476              -0.000594009               0.001748872               0.001154863               0.000000000               0.000000000               0.000000000               0.000000000              -0.000044756               0.004555280              -0.000131297              -0.000586192               0.001713809               0.001127617               0.000000000               0.000000000               0.000000000               0.000000000              -0.000084388               0.004461420              -0.000067577              -0.000589321               0.001683566               0.001094244               0.000000000               0.000000000               0.000000000               0.000000000              -0.000141721               0.004378344              -0.000023702              -0.000600437               0.001659579               0.001059142               0.000000000               0.000000000               0.000000000               0.000000000              -0.000183135               0.004331697              -0.000003557              -0.000610136               0.001647264               0.001037127               0.000000000               0.000000000               0.000000000               0.000000000              -0.000018260               0.001513767              -0.001053775              -0.000196069               0.000569939               0.000373871               0.000000000               0.000000000               0.000000000               0.000000000              -0.000013012               0.002455644              -0.001466834              -0.000311836               0.000922484               0.000610649               0.000000000               0.000000000               0.000000000               0.000000000              -0.000227898               0.003510187              -0.001713340              -0.000524235               0.001344795               0.000820560               0.000000000               0.000000000               0.000000000               0.000000000              -0.000267437               0.004069788              -0.001583267              -0.000609012               0.001559586               0.000950574               0.000000000               0.000000000               0.000000000               0.000000000              -0.000256497               0.004383094              -0.001379212              -0.000644072               0.001675707               0.001031635               0.000000000               0.000000000               0.000000000               0.000000000              -0.000225767               0.004562124              -0.001178947              -0.000654927               0.001739001               0.001084074               0.000000000               0.000000000               0.000000000               0.000000000              -0.000186965               0.004662671              -0.001005012              -0.000652944               0.001771856               0.001118912               0.000000000               0.000000000               0.000000000               0.000000000              -0.000147030               0.004720367              -0.000865570              -0.000645181               0.001788500               0.001143319               0.000000000               0.000000000               0.000000000               0.000000000              -0.000110490               0.004755409              -0.000752619              -0.000635858               0.001797073               0.001161215               0.000000000               0.000000000               0.000000000               0.000000000              -0.000073754               0.004759207              -0.000650301              -0.000622557               0.001793905               0.001171348               0.000000000               0.000000000               0.000000000               0.000000000              -0.000036473               0.004724207              -0.000547172              -0.000604202               0.001776120               0.001171919               0.000000000               0.000000000               0.000000000               0.000000000              -0.000006133               0.004661842              -0.000443434              -0.000585029               0.001748941               0.001163913               0.000000000               0.000000000               0.000000000               0.000000000               0.000013143               0.004587320              -0.000341648              -0.000568485               0.001718586               0.001150101               0.000000000               0.000000000               0.000000000               0.000000000               0.000010347               0.004507596              -0.000241642              -0.000559568               0.001689039               0.001129472               0.000000000               0.000000000               0.000000000               0.000000000              -0.000022888               0.004429462              -0.000147651              -0.000562264               0.001663894               0.001101630               0.000000000               0.000000000               0.000000000               0.000000000              -0.000090339               0.004361989              -0.000066055              -0.000579124               0.001647023               0.001067899               0.000000000               0.000000000               0.000000000               0.000000000              -0.000153958               0.004318236              -0.000022058              -0.000597512               0.001638568               0.001041056               0.000000000               0.000000000               0.000000000               0.000000000              -0.000708025               0.000812445              -0.000636510              -0.000367065               0.000393166               0.000026102               0.000000000               0.000000000               0.000000000               0.000000000              -0.000281853               0.001679333              -0.001191580              -0.000315612               0.000664975               0.000349363               0.000000000               0.000000000               0.000000000               0.000000000              -0.000173391               0.002648971              -0.001607603              -0.000396144               0.001015028               0.000618885               0.000000000               0.000000000               0.000000000               0.000000000              -0.000112762               0.003279710              -0.001584306              -0.000452250               0.001243975               0.000791725               0.000000000               0.000000000               0.000000000               0.000000000              -0.000077169               0.003693840              -0.001439653              -0.000490668               0.001394823               0.000904155               0.000000000               0.000000000               0.000000000               0.000000000              -0.000051556               0.003974604              -0.001269921              -0.000516159               0.001496907               0.000980749               0.000000000               0.000000000               0.000000000               0.000000000              -0.000024742               0.004169137              -0.001110995              -0.000530420               0.001566505               0.001036085               0.000000000               0.000000000               0.000000000               0.000000000               0.000001255               0.004306728              -0.000975427              -0.000537870               0.001614851               0.001076982               0.000000000               0.000000000               0.000000000               0.000000000               0.000023998               0.004415719              -0.000860527              -0.000542965               0.001652880               0.001109915               0.000000000               0.000000000               0.000000000               0.000000000               0.000045531               0.004494286              -0.000758264              -0.000544711               0.001679650               0.001134940               0.000000000               0.000000000               0.000000000               0.000000000               0.000069536               0.004525393              -0.000656900              -0.000539597               0.001688315               0.001148718               0.000000000               0.000000000               0.000000000               0.000000000               0.000094971               0.004518292              -0.000555370              -0.000529171               0.001682473               0.001153301               0.000000000               0.000000000               0.000000000               0.000000000               0.000116451               0.004486980              -0.000453446              -0.000517202               0.001668046               0.001150843               0.000000000               0.000000000               0.000000000               0.000000000               0.000125192               0.004440202              -0.000346832              -0.000508077               0.001649411               0.001141334               0.000000000               0.000000000               0.000000000               0.000000000               0.000110196               0.004388618              -0.000235009              -0.000507252               0.001631942               0.001124690               0.000000000               0.000000000               0.000000000               0.000000000               0.000059984               0.004343605              -0.000118542              -0.000520455               0.001621339               0.001100884               0.000000000               0.000000000               0.000000000               0.000000000              -0.000000259               0.004309924              -0.000051949              -0.000538836               0.001616239               0.001077403               0.000000000               0.000000000               0.000000000               0.000000000              -0.001400014               0.000326521              -0.000317736              -0.000565820               0.000297445              -0.000268375               0.000000000               0.000000000               0.000000000               0.000000000              -0.000576032               0.001049395              -0.000886404              -0.000347186               0.000465523               0.000118337               0.000000000               0.000000000               0.000000000               0.000000000              -0.000126093               0.001862394              -0.001355923              -0.000280085               0.000714153               0.000434068               0.000000000               0.000000000               0.000000000               0.000000000               0.000064703               0.002501722              -0.001410030              -0.000288452               0.000930049               0.000641597               0.000000000               0.000000000               0.000000000               0.000000000               0.000145632               0.002977613              -0.001326552              -0.000317590               0.001098391               0.000780801               0.000000000               0.000000000               0.000000000               0.000000000               0.000179128               0.003334730              -0.001203865              -0.000349668               0.001228121               0.000878453               0.000000000               0.000000000               0.000000000               0.000000000               0.000198331               0.003611515              -0.001078212              -0.000377065               0.001329514               0.000952449               0.000000000               0.000000000               0.000000000               0.000000000               0.000208668               0.003827217              -0.000962321              -0.000400151               0.001409110               0.001008958               0.000000000               0.000000000               0.000000000               0.000000000               0.000215512               0.004005096              -0.000860122              -0.000419819               0.001474958               0.001055139               0.000000000               0.000000000               0.000000000               0.000000000               0.000221668               0.004153024              -0.000768303              -0.000436002               0.001529661               0.001093659               0.000000000               0.000000000               0.000000000               0.000000000               0.000230016               0.004256780              -0.000678378              -0.000445841               0.001567526               0.001121685               0.000000000               0.000000000               0.000000000               0.000000000               0.000245306               0.004322236              -0.000587652              -0.000448289               0.001590161               0.001141872               0.000000000               0.000000000               0.000000000               0.000000000               0.000266050               0.004355821              -0.000496097              -0.000444708               0.001600162               0.001155454               0.000000000               0.000000000               0.000000000               0.000000000               0.000289780               0.004360593              -0.000397632              -0.000436406               0.001598985               0.001162579               0.000000000               0.000000000               0.000000000               0.000000000               0.000308024               0.004346476              -0.000286228              -0.000427799               0.001591411               0.001163611               0.000000000               0.000000000               0.000000000               0.000000000               0.000309196               0.004325811              -0.000153918              -0.000424777               0.001583515               0.001158738               0.000000000               0.000000000               0.000000000               0.000000000               0.000293449               0.004308879              -0.000077995              -0.000428565               0.001579134               0.001150568               0.000000000               0.000000000               0.000000000               0.000000000              -0.002002465               0.000025871              -0.000119402              -0.000754158               0.000260008              -0.000494150               0.000000000               0.000000000               0.000000000               0.000000000              -0.000847811               0.000585798              -0.000581135              -0.000391154               0.000325648              -0.000065506               0.000000000               0.000000000               0.000000000               0.000000000              -0.000088930               0.001223238              -0.000981572              -0.000186254               0.000469826               0.000283572               0.000000000               0.000000000               0.000000000               0.000000000               0.000230511               0.001834698              -0.001060148              -0.000142896               0.000659192               0.000516295               0.000000000               0.000000000               0.000000000               0.000000000               0.000365830               0.002338404              -0.001022804              -0.000155115               0.000831165               0.000676050               0.000000000               0.000000000               0.000000000               0.000000000               0.000416998               0.002746620              -0.000948593              -0.000186954               0.000977848               0.000790895               0.000000000               0.000000000               0.000000000               0.000000000               0.000433189               0.003085606              -0.000865337              -0.000223255               0.001102943               0.000879688               0.000000000               0.000000000               0.000000000               0.000000000               0.000433379               0.003364588              -0.000783104              -0.000258056               0.001207537               0.000949480               0.000000000               0.000000000               0.000000000               0.000000000               0.000427854               0.003598532              -0.000707988              -0.000289371               0.001295956               0.001006585               0.000000000               0.000000000               0.000000000               0.000000000               0.000420021               0.003801436              -0.000639553              -0.000317671               0.001373023               0.001055352               0.000000000               0.000000000               0.000000000               0.000000000               0.000414217               0.003970932              -0.000571136              -0.000341035               0.001437309               0.001096274               0.000000000               0.000000000               0.000000000               0.000000000               0.000419014               0.004102963              -0.000500764              -0.000355740               0.001486221               0.001130481               0.000000000               0.000000000               0.000000000               0.000000000               0.000438289               0.004197977              -0.000430285              -0.000360388               0.001519441               0.001159053               0.000000000               0.000000000               0.000000000               0.000000000               0.000474845               0.004256827              -0.000353624              -0.000354036               0.001536940               0.001182904               0.000000000               0.000000000               0.000000000               0.000000000               0.000529117               0.004286906              -0.000261778              -0.000337443               0.001541436               0.001203992               0.000000000               0.000000000               0.000000000               0.000000000               0.000599798               0.004301019              -0.000144548              -0.000312702               0.001537893               0.001225191               0.000000000               0.000000000               0.000000000               0.000000000               0.000655853               0.004310655              -0.000079682              -0.000292886               0.001534499               0.001241613               0.000000000               0.000000000               0.000000000               0.000000000              -0.002413876              -0.000134140              -0.000027933              -0.000888435               0.000251430              -0.000637005               0.000000000               0.000000000               0.000000000               0.000000000              -0.001036283               0.000300055              -0.000286172              -0.000426112               0.000242054              -0.000184058               0.000000000               0.000000000               0.000000000               0.000000000              -0.000062979               0.000801509              -0.000515975              -0.000123806               0.000308435               0.000184629               0.000000000               0.000000000               0.000000000               0.000000000               0.000348682               0.001379798              -0.000569819              -0.000041720               0.000473834               0.000432115               0.000000000               0.000000000               0.000000000               0.000000000               0.000525454               0.001895945              -0.000556966              -0.000039949               0.000645292               0.000605343               0.000000000               0.000000000               0.000000000               0.000000000               0.000593880               0.002333435              -0.000523584              -0.000068975               0.000800796               0.000731821               0.000000000               0.000000000               0.000000000               0.000000000               0.000611369               0.002706047              -0.000483489              -0.000108993               0.000938337               0.000829345               0.000000000               0.000000000               0.000000000               0.000000000               0.000606200               0.003023523              -0.000442265              -0.000150615               0.001058036               0.000907421               0.000000000               0.000000000               0.000000000               0.000000000               0.000594284               0.003298837              -0.000403171              -0.000189498               0.001162767               0.000973269               0.000000000               0.000000000               0.000000000               0.000000000               0.000580501               0.003536165              -0.000365860              -0.000224332               0.001253487               0.001029155               0.000000000               0.000000000               0.000000000               0.000000000               0.000569988               0.003738457              -0.000328690              -0.000253561               0.001330660               0.001077099               0.000000000               0.000000000               0.000000000               0.000000000               0.000572496               0.003909355              -0.000289804              -0.000273983               0.001394433               0.001120450               0.000000000               0.000000000               0.000000000               0.000000000               0.000591489               0.004043233              -0.000250372              -0.000283595               0.001442263               0.001158668               0.000000000               0.000000000               0.000000000               0.000000000               0.000631791               0.004142313              -0.000206863              -0.000280867               0.001474379               0.001193513               0.000000000               0.000000000               0.000000000               0.000000000               0.000703667               0.004213899              -0.000153119              -0.000262862               0.001492240               0.001229378               0.000000000               0.000000000               0.000000000               0.000000000               0.000819212               0.004265389              -0.000084598              -0.000225969               0.001497105               0.001271136               0.000000000               0.000000000               0.000000000               0.000000000               0.000925010               0.004299618              -0.000048601              -0.000190573               0.001496716               0.001306143               0.000000000               0.000000000               0.000000000               0.000000000               0.000000000               0.000000000               0.000000000               0.000000000               0.000000000               0.000000000               0.000000000               0.000000000               0.000000000               0.000000000               0.000000000               0.000000000               0.000000000               0.000000000               0.000000000               0.000000000               0.000000000               0.000000000               0.000000000               0.000000000               0.000000000               0.000000000               0.000000000               0.000000000               0.000000000               0.000000000               0.000000000               0.000000000               0.000000000               0.000000000               0.000000000               0.000000000               0.000000000               0.000000000               0.000000000               0.000000000               0.000000000               0.000000000               0.000000000               0.000000000               0.000000000               0.000000000               0.000000000               0.000000000               0.000000000               0.000000000               0.000000000               0.000000000               0.000000000               0.000000000               0.000000000               0.000000000               0.000000000               0.000000000               0.000000000               0.000000000               0.000000000               0.000000000               0.000000000               0.000000000               0.000000000               0.000000000               0.000000000               0.000000000               0.000000000               0.000000000               0.000000000               0.000000000               0.000000000               0.000000000               0.000000000               0.000000000               0.000000000               0.000000000               0.000000000               0.000000000               0.000000000               0.000000000               0.000000000               0.000000000               0.000000000               0.000000000               0.000000000               0.000000000               0.000000000               0.000000000               0.000000000               0.000000000               0.000000000               0.000000000               0.000000000               0.000000000               0.000000000               0.000000000               0.000000000               0.000000000               0.000000000               0.000000000               0.000000000               0.000000000               0.000000000               0.000000000               0.000000000               0.000000000               0.000000000               0.000000000               0.000000000               0.000000000               0.000000000               0.000000000               0.000000000               0.000000000               0.000000000               0.000000000               0.000000000               0.000000000               0.000000000               0.000000000               0.000000000               0.000000000               0.000000000               0.000000000               0.000000000               0.000000000               0.000000000               0.000000000               0.000000000               0.000000000               0.000000000               0.000000000               0.000000000               0.000000000               0.000000000               0.000000000               0.000000000               0.000000000               0.000000000               0.000000000               0.000000000               0.000000000               0.000000000               0.000000000               0.000000000               0.000000000               0.000000000               0.000000000               0.000000000               0.000000000               0.000000000               0.000000000               0.000000000               0.000000000               0.000000000               0.000000000               0.000000000               0.000000000               0.000000000               0.000000000               0.000000000               0.000000000               0.000000000               0.000000000               0.000000000               0.000000000               0.000000000               0.000000000               0.000000000               0.000000000               0.000000000               0.000000000               0.000000000               0.000000000               0.000000000               0.000000000               0.000000000               0.000000000               0.000000000               0.000000000               0.000000000               0.000000000               0.000000000               0.000000000               0.000000000               0.000000000               0.000000000               0.000000000               0.000000000               0.000000000               0.000000000               0.000000000               0.000000000               0.000000000               0.000000000               0.000000000               0.000000000               0.000000000               0.000000000               0.000000000               0.000000000               0.000000000               0.000000000               0.000000000               0.000000000               0.000000000               0.000000000               0.000000000               0.000000000               0.000000000               0.000000000               0.000000000               0.000000000               0.000000000               0.000000000               0.000000000               0.000000000               0.000000000               0.000000000               0.000000000               0.000000000               0.000000000               0.000000000               0.000000000               0.000000000               0.000000000               0.000000000               0.000000000               0.000000000               0.000000000               0.000000000               0.000000000               0.000000000               0.000000000               0.000000000               0.000000000               0.000000000               0.000000000               0.000000000               0.000000000               0.000000000               0.000000000               0.000000000               0.000000000               0.000000000               0.000000000               0.000000000               0.000000000               0.000000000               0.000000000               0.000000000               0.000000000               0.000000000               0.000000000               0.000000000               0.000000000               0.000000000               0.000000000               0.000000000               0.000000000               0.000000000               0.000000000               0.000000000               0.000000000               0.000000000               0.000000000               0.000000000               0.000000000               0.000000000               0.000000000               0.000000000               0.000000000               0.000000000               0.000000000               0.000000000               0.000000000               0.000000000               0.000000000               0.000000000               0.000000000               0.000000000               0.000000000               0.000000000               0.000000000               0.000000000               0.000000000               0.000000000               0.000000000               0.000000000               0.000000000               0.000000000               0.000000000               0.000000000               0.000000000               0.000000000               0.000000000               0.000000000               0.000000000               0.000000000               0.000000000               0.000000000               0.000000000               0.000000000               0.000000000               0.000000000               0.000000000               0.000000000               0.000000000               0.000000000               0.000000000               0.000000000               0.000000000               0.000000000               0.000000000               0.000000000               0.000000000               0.000000000               0.000000000               0.000000000               0.000000000               0.000000000               0.000000000               0.000000000               0.000000000               0.000000000               0.000000000               0.000000000               0.000000000               0.000000000               0.000000000               0.000000000               0.000000000               0.000000000               0.000000000               0.000000000               0.000000000               0.000000000               0.000000000               0.000000000               0.000000000               0.000000000               0.000000000               0.001281323               0.013558833               0.001015454              -0.001214355               0.004924351               0.003709996               0.000000000               0.000000000               0.000000000               0.000000000               0.001301296               0.011035898               0.000606408              -0.000891499               0.003975762               0.003084263               0.000000000               0.000000000               0.000000000               0.000000000               0.001723224               0.009012306               0.000189505              -0.000480328               0.003164181               0.002683853               0.000000000               0.000000000               0.000000000               0.000000000               0.001739711               0.007880276               0.000000622              -0.000332642               0.002737613               0.002404971               0.000000000               0.000000000               0.000000000               0.000000000               0.001618413               0.007195006              -0.000087553              -0.000292470               0.002495802               0.002203331               0.000000000               0.000000000               0.000000000               0.000000000               0.001449511               0.006754706              -0.000127746              -0.000300771               0.002351803               0.002051032               0.000000000               0.000000000               0.000000000               0.000000000               0.001268000               0.006456617              -0.000142531              -0.000331576               0.002262710               0.001931133               0.000000000               0.000000000               0.000000000               0.000000000               0.001094327               0.006245002              -0.000142722              -0.000370252               0.002205064               0.001834812               0.000000000               0.000000000               0.000000000               0.000000000               0.000934715               0.006088041              -0.000138473              -0.000410486               0.002166155               0.001755669               0.000000000               0.000000000               0.000000000               0.000000000               0.000785112               0.005971587              -0.000136576              -0.000452030               0.002141186               0.001689156               0.000000000               0.000000000               0.000000000               0.000000000               0.000639430               0.005880220              -0.000133832              -0.000495240               0.002125134               0.001629894               0.000000000               0.000000000               0.000000000               0.000000000               0.000499039               0.005801190              -0.000126311              -0.000538008               0.002113046               0.001575039               0.000000000               0.000000000               0.000000000               0.000000000               0.000370288               0.005727309              -0.000115642              -0.000577054               0.002101435               0.001524381               0.000000000               0.000000000               0.000000000               0.000000000               0.000253503               0.005648624              -0.000100774              -0.000611013               0.002086527               0.001475514               0.000000000               0.000000000               0.000000000               0.000000000               0.000150912               0.005556247              -0.000077594              -0.000637937               0.002064710               0.001426772               0.000000000               0.000000000               0.000000000               0.000000000               0.000067851               0.005442988              -0.000043215              -0.000654928               0.002032620               0.001377693               0.000000000               0.000000000               0.000000000               0.000000000               0.000022607               0.005354143              -0.000025832              -0.000660789               0.002004959               0.001344171               0.000000000               0.000000000               0.000000000               0.000000000               0.001456109               0.012837438               0.001898704              -0.001058637               0.004631982               0.003573345               0.000000000               0.000000000               0.000000000               0.000000000               0.001313068               0.010535321               0.001129102              -0.000824513               0.003786576               0.002962063               0.000000000               0.000000000               0.000000000               0.000000000               0.001559518               0.008752033               0.000351681              -0.000509184               0.003087043               0.002577859               0.000000000               0.000000000               0.000000000               0.000000000               0.001499578               0.007753410               0.000009972              -0.000406833               0.002720055               0.002313222               0.000000000               0.000000000               0.000000000               0.000000000               0.001352172               0.007140190              -0.000143983              -0.000385458               0.002508526               0.002123067               0.000000000               0.000000000               0.000000000               0.000000000               0.001185320               0.006737759              -0.000211123              -0.000397724               0.002378472               0.001980748               0.000000000               0.000000000               0.000000000               0.000000000               0.001020972               0.006457093              -0.000235442              -0.000424271               0.002293766               0.001869495               0.000000000               0.000000000               0.000000000               0.000000000               0.000869572               0.006252126              -0.000238431              -0.000455425               0.002235830               0.001780404               0.000000000               0.000000000               0.000000000               0.000000000               0.000730101               0.006098670              -0.000236185              -0.000488545               0.002195718               0.001707173               0.000000000               0.000000000               0.000000000               0.000000000               0.000600565               0.005979160              -0.000234535              -0.000522182               0.002167094               0.001644912               0.000000000               0.000000000               0.000000000               0.000000000               0.000478017               0.005876805              -0.000228360              -0.000555343               0.002144030               0.001588687               0.000000000               0.000000000               0.000000000               0.000000000               0.000367706               0.005784555              -0.000216480              -0.000585178               0.002123225               0.001538047               0.000000000               0.000000000               0.000000000               0.000000000               0.000273554               0.005695762              -0.000198886              -0.000609386               0.002101697               0.001492311               0.000000000               0.000000000               0.000000000               0.000000000               0.000187903               0.005603581              -0.000172420              -0.000629983               0.002077836               0.001447853               0.000000000               0.000000000               0.000000000               0.000000000               0.000113013               0.005508058              -0.000132983              -0.000646126               0.002051376               0.001405251               0.000000000               0.000000000               0.000000000               0.000000000               0.000052576               0.005409378              -0.000074972              -0.000656454               0.002021926               0.001365472               0.000000000               0.000000000               0.000000000               0.000000000               0.000019223               0.005342941              -0.000043857              -0.000660657               0.002001182               0.001340524               0.000000000               0.000000000               0.000000000               0.000000000               0.001673210               0.011717765               0.002563316              -0.000837266               0.004184971               0.003347705               0.000000000               0.000000000               0.000000000               0.000000000               0.001297882               0.009776228               0.001530792              -0.000735322               0.003503817               0.002768496               0.000000000               0.000000000               0.000000000               0.000000000               0.001297598               0.008365315               0.000500274              -0.000559064               0.002974765               0.002415701               0.000000000               0.000000000               0.000000000               0.000000000               0.001146062               0.007550376               0.000064994              -0.000514022               0.002688108               0.002174085               0.000000000               0.000000000               0.000000000               0.000000000               0.000975693               0.007033132              -0.000126542              -0.000513255               0.002515439               0.002002184               0.000000000               0.000000000               0.000000000               0.000000000               0.000821498               0.006678421              -0.000210834              -0.000526740               0.002401698               0.001874958               0.000000000               0.000000000               0.000000000               0.000000000               0.000687873               0.006416839              -0.000244604              -0.000544151               0.002320308               0.001776157               0.000000000               0.000000000               0.000000000               0.000000000               0.000571441               0.006217566              -0.000254992              -0.000562904               0.002260136               0.001697232               0.000000000               0.000000000               0.000000000               0.000000000               0.000461731               0.006062728              -0.000257528              -0.000584690               0.002215786               0.001631096               0.000000000               0.000000000               0.000000000               0.000000000               0.000362457               0.005935776              -0.000257434              -0.000606049               0.002180589               0.001574539               0.000000000               0.000000000               0.000000000               0.000000000               0.000277351               0.005825672              -0.000251669              -0.000624201               0.002149938               0.001525737               0.000000000               0.000000000               0.000000000               0.000000000               0.000204862               0.005721029              -0.000236751              -0.000638304               0.002119759               0.001481455               0.000000000               0.000000000               0.000000000               0.000000000               0.000147932               0.005617972              -0.000212140              -0.000646771               0.002088229               0.001441458               0.000000000               0.000000000               0.000000000               0.000000000               0.000103392               0.005519466              -0.000179600              -0.000651160               0.002056857               0.001405697               0.000000000               0.000000000               0.000000000               0.000000000               0.000066717               0.005430338              -0.000134273              -0.000653772               0.002028018               0.001374247               0.000000000               0.000000000               0.000000000               0.000000000               0.000033515               0.005356300              -0.000072150              -0.000656968               0.002004405               0.001347437               0.000000000               0.000000000               0.000000000               0.000000000               0.000015148               0.005319861              -0.000038914              -0.000659300               0.001993036               0.001333736               0.000000000               0.000000000               0.000000000               0.000000000               0.001860168               0.010330016               0.002970509              -0.000593690               0.003641200               0.003047510               0.000000000               0.000000000               0.000000000               0.000000000               0.001235021               0.008855858               0.001802165              -0.000643849               0.003166539               0.002522690               0.000000000               0.000000000               0.000000000               0.000000000               0.000965843               0.007900311               0.000647566              -0.000625346               0.002841859               0.002216513               0.000000000               0.000000000               0.000000000               0.000000000               0.000741093               0.007290031               0.000175104              -0.000633343               0.002641100               0.002007758               0.000000000               0.000000000               0.000000000               0.000000000               0.000570069               0.006871687              -0.000032876              -0.000645183               0.002505601               0.001860417               0.000000000               0.000000000               0.000000000               0.000000000               0.000443744               0.006560374              -0.000125601              -0.000653641               0.002404650               0.001751009               0.000000000               0.000000000               0.000000000               0.000000000               0.000348398               0.006313224              -0.000167648              -0.000658502               0.002323888               0.001665386               0.000000000               0.000000000               0.000000000               0.000000000               0.000271897               0.006118331              -0.000188425              -0.000662828               0.002260366               0.001597538               0.000000000               0.000000000               0.000000000               0.000000000               0.000202385               0.005963878              -0.000200717              -0.000669589               0.002211136               0.001541547               0.000000000               0.000000000               0.000000000               0.000000000               0.000142944               0.005834579              -0.000207591              -0.000675717               0.002170079               0.001494362               0.000000000               0.000000000               0.000000000               0.000000000               0.000099239               0.005715240              -0.000204130              -0.000677189               0.002130790               0.001453602               0.000000000               0.000000000               0.000000000               0.000000000               0.000064495               0.005597979              -0.000188036              -0.000675560               0.002091161               0.001415601               0.000000000               0.000000000               0.000000000               0.000000000               0.000040659               0.005488661              -0.000163730              -0.000670834               0.002053147               0.001382313               0.000000000               0.000000000               0.000000000               0.000000000               0.000029091               0.005394198              -0.000134013              -0.000663364               0.002019169               0.001355805               0.000000000               0.000000000               0.000000000               0.000000000               0.000021993               0.005318607              -0.000094657              -0.000656577               0.001991710               0.001335133               0.000000000               0.000000000               0.000000000               0.000000000               0.000014513               0.005266195              -0.000047004              -0.000652830               0.001972991               0.001320161               0.000000000               0.000000000               0.000000000               0.000000000               0.000009488               0.005245759              -0.000023218              -0.000652160               0.001965955               0.001313795               0.000000000               0.000000000               0.000000000               0.000000000               0.001955727               0.008820740               0.003117531              -0.000369197               0.003063282               0.002694085               0.000000000               0.000000000               0.000000000               0.000000000               0.001117357               0.007872683               0.001946625              -0.000565077               0.002812560               0.002247483               0.000000000               0.000000000               0.000000000               0.000000000               0.000610182               0.007396733               0.000794454              -0.000695772               0.002697477               0.002001705               0.000000000               0.000000000               0.000000000               0.000000000               0.000347690               0.006985648               0.000332418              -0.000742821               0.002576133               0.001833312               0.000000000               0.000000000               0.000000000               0.000000000               0.000200596               0.006650155               0.000123047              -0.000756044               0.002468711               0.001712667               0.000000000               0.000000000               0.000000000               0.000000000               0.000115325               0.006374167               0.000024635              -0.000753522               0.002375875               0.001622353               0.000000000               0.000000000               0.000000000               0.000000000               0.000064648               0.006146338              -0.000028317              -0.000744048               0.002296775               0.001552727               0.000000000               0.000000000               0.000000000               0.000000000               0.000030578               0.005965226              -0.000067252              -0.000734185               0.002233117               0.001498932               0.000000000               0.000000000               0.000000000               0.000000000               0.000005093               0.005820208              -0.000095683              -0.000725615               0.002181921               0.001456307               0.000000000               0.000000000               0.000000000               0.000000000              -0.000013952               0.005686531              -0.000111488              -0.000716047               0.002134174               0.001418127               0.000000000               0.000000000               0.000000000               0.000000000              -0.000025096               0.005556444              -0.000113848              -0.000703965               0.002086784               0.001382820               0.000000000               0.000000000               0.000000000               0.000000000              -0.000027615               0.005435338              -0.000105119              -0.000689771               0.002041685               0.001351914               0.000000000               0.000000000               0.000000000               0.000000000              -0.000021295               0.005330208              -0.000090640              -0.000674260               0.002001472               0.001327212               0.000000000               0.000000000               0.000000000               0.000000000              -0.000011829               0.005243915              -0.000073952              -0.000659924               0.001967929               0.001308005               0.000000000               0.000000000               0.000000000               0.000000000              -0.000003789               0.005177025              -0.000051555              -0.000648547               0.001941840               0.001293293               0.000000000               0.000000000               0.000000000               0.000000000               0.000002390               0.005128258              -0.000025021              -0.000640135               0.001922780               0.001282646               0.000000000               0.000000000               0.000000000               0.000000000               0.000000859               0.005101690              -0.000014571              -0.000637388               0.001913009               0.001275621               0.000000000               0.000000000               0.000000000               0.000000000               0.001916221               0.007312453               0.003033746              -0.000195477               0.002502618               0.002307141               0.000000000               0.000000000               0.000000000               0.000000000               0.000945101               0.006897861               0.001986613              -0.000507820               0.002468537               0.001960717               0.000000000               0.000000000               0.000000000               0.000000000               0.000271018               0.006872027               0.000946922              -0.000757370               0.002543109               0.001785739               0.000000000               0.000000000               0.000000000               0.000000000               0.000014005               0.006631085               0.000524921              -0.000823632               0.002484883               0.001661252               0.000000000               0.000000000               0.000000000               0.000000000              -0.000090113               0.006370812               0.000317402              -0.000830142               0.002400297               0.001570155               0.000000000               0.000000000               0.000000000               0.000000000              -0.000126459               0.006137057               0.000204868              -0.000814552               0.002317183               0.001502630               0.000000000               0.000000000               0.000000000               0.000000000              -0.000128601               0.005942128               0.000131871              -0.000790989               0.002244353               0.001453363               0.000000000               0.000000000               0.000000000               0.000000000              -0.000121556               0.005783527               0.000070237              -0.000768522               0.002183997               0.001415475               0.000000000               0.000000000               0.000000000               0.000000000              -0.000115318               0.005642807               0.000025081              -0.000748593               0.002130448               0.001381855               0.000000000               0.000000000               0.000000000               0.000000000              -0.000103772               0.005505440              -0.000002085              -0.000727093               0.002077493               0.001350400               0.000000000               0.000000000               0.000000000               0.000000000              -0.000085391               0.005372897              -0.000018132              -0.000703632               0.002025492               0.001321860               0.000000000               0.000000000               0.000000000               0.000000000              -0.000064341               0.005252129              -0.000026275              -0.000680642               0.001977573               0.001296931               0.000000000               0.000000000               0.000000000               0.000000000              -0.000043502               0.005149826              -0.000030010              -0.000660040               0.001936605               0.001276565               0.000000000               0.000000000               0.000000000               0.000000000              -0.000025338               0.005065514              -0.000031154              -0.000642689               0.001902718               0.001260028               0.000000000               0.000000000               0.000000000               0.000000000              -0.000012200               0.004995067              -0.000026684              -0.000628957               0.001874658               0.001245701               0.000000000               0.000000000               0.000000000               0.000000000              -0.000003650               0.004935909              -0.000014289              -0.000618356               0.001851405               0.001233049               0.000000000               0.000000000               0.000000000               0.000000000              -0.000006534               0.004897641              -0.000010599              -0.000614654               0.001837415               0.001222762               0.000000000               0.000000000               0.000000000               0.000000000               0.001737027               0.005891891               0.002769547              -0.000085104               0.001992311               0.001907207               0.000000000               0.000000000               0.000000000               0.000000000               0.000727939               0.005988369               0.001952094              -0.000475570               0.002154626               0.001679056               0.000000000               0.000000000               0.000000000               0.000000000              -0.000017598               0.006342763               0.001107201              -0.000799443               0.002380714               0.001581271               0.000000000               0.000000000               0.000000000               0.000000000              -0.000230330               0.006242898               0.000726609              -0.000866734               0.002369857               0.001503122               0.000000000               0.000000000               0.000000000               0.000000000              -0.000280550               0.006061987               0.000511447              -0.000862953               0.002308293               0.001445340               0.000000000               0.000000000               0.000000000               0.000000000              -0.000269482               0.005879583               0.000376095              -0.000836002               0.002238509               0.001402507               0.000000000               0.000000000               0.000000000               0.000000000              -0.000235674               0.005721329               0.000279158              -0.000803542               0.002174938               0.001371396               0.000000000               0.000000000               0.000000000               0.000000000              -0.000202940               0.005581809               0.000198061              -0.000773827               0.002118526               0.001344700               0.000000000               0.000000000               0.000000000               0.000000000              -0.000170737               0.005444159               0.000134692              -0.000744544               0.002062883               0.001318339               0.000000000               0.000000000               0.000000000               0.000000000              -0.000132435               0.005305584               0.000090408              -0.000712859               0.002006130               0.001293271               0.000000000               0.000000000               0.000000000               0.000000000              -0.000098151               0.005169896               0.000056070              -0.000683042               0.001950962               0.001267920               0.000000000               0.000000000               0.000000000               0.000000000              -0.000067632               0.005048619               0.000027655              -0.000656438               0.001901669               0.001245231               0.000000000               0.000000000               0.000000000               0.000000000              -0.000044936               0.004942955               0.000004580              -0.000634719               0.001859208               0.001224489               0.000000000               0.000000000               0.000000000               0.000000000              -0.000031075               0.004849921              -0.000011105              -0.000617892               0.001822588               0.001204696               0.000000000               0.000000000               0.000000000               0.000000000              -0.000023892               0.004766222              -0.000017437              -0.000604736               0.001790303               0.001185568               0.000000000               0.000000000               0.000000000               0.000000000              -0.000014624               0.004694576              -0.000012284              -0.000592305               0.001762278               0.001169973               0.000000000               0.000000000               0.000000000               0.000000000              -0.000010959               0.004652278              -0.000010210              -0.000585643               0.001745958               0.001160315               0.000000000               0.000000000               0.000000000               0.000000000               0.001474110               0.004665904               0.002392733              -0.000030450               0.001565435               0.001534985               0.000000000               0.000000000               0.000000000               0.000000000               0.000522896               0.005179912               0.001887365              -0.000451404               0.001877087               0.001425684               0.000000000               0.000000000               0.000000000               0.000000000              -0.000214845               0.005846189               0.001293782              -0.000811339               0.002219156               0.001407817               0.000000000               0.000000000               0.000000000               0.000000000              -0.000371652               0.005893601               0.000940421              -0.000876068               0.002256537               0.001380469               0.000000000               0.000000000               0.000000000               0.000000000              -0.000379294               0.005799534               0.000709657              -0.000867175               0.002222217               0.001355042               0.000000000               0.000000000               0.000000000               0.000000000              -0.000335774               0.005672741               0.000547731              -0.000835006               0.002169230               0.001334224               0.000000000               0.000000000               0.000000000               0.000000000              -0.000281259               0.005550962               0.000425339              -0.000799340               0.002116749               0.001317408               0.000000000               0.000000000               0.000000000               0.000000000              -0.000230711               0.005433939               0.000327184              -0.000765757               0.002066547               0.001300790               0.000000000               0.000000000               0.000000000               0.000000000              -0.000179796               0.005304549               0.000248913              -0.000730490               0.002011662               0.001281172               0.000000000               0.000000000               0.000000000               0.000000000              -0.000122249               0.005163270               0.000185555              -0.000691250               0.001951490               0.001260239               0.000000000               0.000000000               0.000000000               0.000000000              -0.000076172               0.005024415               0.000128641              -0.000656615               0.001893660               0.001237045               0.000000000               0.000000000               0.000000000               0.000000000              -0.000047207               0.004898482               0.000078634              -0.000630011               0.001842815               0.001212803               0.000000000               0.000000000               0.000000000               0.000000000              -0.000037452               0.004782724               0.000038545              -0.000611884               0.001798187               0.001186303               0.000000000               0.000000000               0.000000000               0.000000000              -0.000042710               0.004675015               0.000011581              -0.000600392               0.001758453               0.001158062               0.000000000               0.000000000               0.000000000               0.000000000              -0.000051414               0.004575441              -0.000002772              -0.000591209               0.001722201               0.001130993               0.000000000               0.000000000               0.000000000               0.000000000              -0.000056209               0.004486409              -0.000006373              -0.000581878               0.001689414               0.001107536               0.000000000               0.000000000               0.000000000               0.000000000              -0.000053080               0.004441083              -0.000006035              -0.000575039               0.001672026               0.001096987               0.000000000               0.000000000               0.000000000               0.000000000               0.001116901               0.003502760               0.001968544              -0.000019010               0.001173911               0.001154901               0.000000000               0.000000000               0.000000000               0.000000000               0.000374264               0.004254886               0.001809348              -0.000391512               0.001548784               0.001157272               0.000000000               0.000000000               0.000000000               0.000000000              -0.000282650               0.005148432               0.001506526              -0.000749547               0.001965975               0.001216428               0.000000000               0.000000000               0.000000000               0.000000000              -0.000409552               0.005387937               0.001191192              -0.000827073               0.002071652               0.001244579               0.000000000               0.000000000               0.000000000               0.000000000              -0.000402535               0.005422244               0.000947202              -0.000828729               0.002083640               0.001254910               0.000000000               0.000000000               0.000000000               0.000000000              -0.000354070               0.005386042               0.000757061              -0.000806030               0.002064006               0.001257976               0.000000000               0.000000000               0.000000000               0.000000000              -0.000299361               0.005321291               0.000607710              -0.000777420               0.002032886               0.001255466               0.000000000               0.000000000               0.000000000               0.000000000              -0.000247722               0.005246133               0.000492508              -0.000748660               0.001998247               0.001249586               0.000000000               0.000000000               0.000000000               0.000000000              -0.000193716               0.005158279               0.000400880              -0.000717427               0.001958551               0.001241125               0.000000000               0.000000000               0.000000000               0.000000000              -0.000136777               0.005046558               0.000317525              -0.000682109               0.001909539               0.001227429               0.000000000               0.000000000               0.000000000               0.000000000              -0.000086792               0.004924092               0.000237327              -0.000648057               0.001857367               0.001209310               0.000000000               0.000000000               0.000000000               0.000000000              -0.000054100               0.004806650               0.000163477              -0.000621117               0.001809240               0.001188123               0.000000000               0.000000000               0.000000000               0.000000000              -0.000044504               0.004694442               0.000099089              -0.000603493               0.001765963               0.001162470               0.000000000               0.000000000               0.000000000               0.000000000              -0.000057666               0.004587843               0.000050901              -0.000595104               0.001727634               0.001132530               0.000000000               0.000000000               0.000000000               0.000000000              -0.000084694               0.004486319               0.000018167              -0.000592549               0.001692941               0.001100392               0.000000000               0.000000000               0.000000000               0.000000000              -0.000113885               0.004393009               0.000000904              -0.000591832               0.001661599               0.001069767               0.000000000               0.000000000               0.000000000               0.000000000              -0.000125780               0.004347812              -0.000003458              -0.000590642               0.001646137               0.001055495               0.000000000               0.000000000               0.000000000               0.000000000               0.000606011               0.002428028               0.001515473              -0.000076251               0.000834751               0.000758500               0.000000000               0.000000000               0.000000000               0.000000000               0.000210043               0.003331525               0.001678615              -0.000337675               0.001223055               0.000885379               0.000000000               0.000000000               0.000000000               0.000000000              -0.000273110               0.004367168               0.001672446              -0.000648312               0.001671811               0.001023499               0.000000000               0.000000000               0.000000000               0.000000000              -0.000372628               0.004790203               0.001436317              -0.000738510               0.001842888               0.001104378               0.000000000               0.000000000               0.000000000               0.000000000              -0.000366291               0.004971222               0.001196520              -0.000758761               0.001909977               0.001151217               0.000000000               0.000000000               0.000000000               0.000000000              -0.000325952               0.005039907               0.000989407              -0.000752219               0.001930692               0.001178473               0.000000000               0.000000000               0.000000000               0.000000000              -0.000275990               0.005048828               0.000820352              -0.000734598               0.001927792               0.001193194               0.000000000               0.000000000               0.000000000               0.000000000              -0.000228637               0.005032911               0.000688874              -0.000714851               0.001915904               0.001201053               0.000000000               0.000000000               0.000000000               0.000000000              -0.000180643               0.005000611               0.000584921              -0.000692816               0.001897792               0.001204976               0.000000000               0.000000000               0.000000000               0.000000000              -0.000131362               0.004937693               0.000488944              -0.000666471               0.001868038               0.001201567               0.000000000               0.000000000               0.000000000               0.000000000              -0.000082861               0.004851020               0.000393226              -0.000637449               0.001829474               0.001192025               0.000000000               0.000000000               0.000000000               0.000000000              -0.000048140               0.004752295               0.000298937              -0.000612088               0.001788112               0.001176024               0.000000000               0.000000000               0.000000000               0.000000000              -0.000033142               0.004652655               0.000209476              -0.000594009               0.001748872               0.001154863               0.000000000               0.000000000               0.000000000               0.000000000              -0.000044756               0.004555280               0.000131297              -0.000586192               0.001713809               0.001127617               0.000000000               0.000000000               0.000000000               0.000000000              -0.000084388               0.004461420               0.000067577              -0.000589321               0.001683566               0.001094244               0.000000000               0.000000000               0.000000000               0.000000000              -0.000141721               0.004378344               0.000023702              -0.000600437               0.001659579               0.001059142               0.000000000               0.000000000               0.000000000               0.000000000              -0.000183135               0.004331697               0.000003557              -0.000610136               0.001647264               0.001037127               0.000000000               0.000000000               0.000000000               0.000000000              -0.000018260               0.001513767               0.001053775              -0.000196069               0.000569939               0.000373871               0.000000000               0.000000000               0.000000000               0.000000000              -0.000013012               0.002455644               0.001466834              -0.000311836               0.000922484               0.000610649               0.000000000               0.000000000               0.000000000               0.000000000              -0.000227898               0.003510187               0.001713340              -0.000524235               0.001344795               0.000820560               0.000000000               0.000000000               0.000000000               0.000000000              -0.000267437               0.004069788               0.001583267              -0.000609012               0.001559586               0.000950574               0.000000000               0.000000000               0.000000000               0.000000000              -0.000256497               0.004383094               0.001379212              -0.000644072               0.001675707               0.001031635               0.000000000               0.000000000               0.000000000               0.000000000              -0.000225767               0.004562124               0.001178947              -0.000654927               0.001739001               0.001084074               0.000000000               0.000000000               0.000000000               0.000000000              -0.000186965               0.004662671               0.001005012              -0.000652944               0.001771856               0.001118912               0.000000000               0.000000000               0.000000000               0.000000000              -0.000147030               0.004720367               0.000865570              -0.000645181               0.001788500               0.001143319               0.000000000               0.000000000               0.000000000               0.000000000              -0.000110490               0.004755409               0.000752619              -0.000635858               0.001797073               0.001161215               0.000000000               0.000000000               0.000000000               0.000000000              -0.000073754               0.004759207               0.000650301              -0.000622557               0.001793905               0.001171348               0.000000000               0.000000000               0.000000000               0.000000000              -0.000036473               0.004724207               0.000547172              -0.000604202               0.001776120               0.001171919               0.000000000               0.000000000               0.000000000               0.000000000              -0.000006133               0.004661842               0.000443434              -0.000585029               0.001748941               0.001163913               0.000000000               0.000000000               0.000000000               0.000000000               0.000013143               0.004587320               0.000341648              -0.000568485               0.001718586               0.001150101               0.000000000               0.000000000               0.000000000               0.000000000               0.000010347               0.004507596               0.000241642              -0.000559568               0.001689039               0.001129472               0.000000000               0.000000000               0.000000000               0.000000000              -0.000022888               0.004429462               0.000147651              -0.000562264               0.001663894               0.001101630               0.000000000               0.000000000               0.000000000               0.000000000              -0.000090339               0.004361989               0.000066055              -0.000579124               0.001647023               0.001067899               0.000000000               0.000000000               0.000000000               0.000000000              -0.000153958               0.004318236               0.000022058              -0.000597512               0.001638568               0.001041056               0.000000000               0.000000000               0.000000000               0.000000000              -0.000708025               0.000812445               0.000636510              -0.000367065               0.000393166               0.000026102               0.000000000               0.000000000               0.000000000               0.000000000              -0.000281853               0.001679333               0.001191580              -0.000315612               0.000664975               0.000349363               0.000000000               0.000000000               0.000000000               0.000000000              -0.000173391               0.002648971               0.001607603              -0.000396144               0.001015028               0.000618885               0.000000000               0.000000000               0.000000000               0.000000000              -0.000112762               0.003279710               0.001584306              -0.000452250               0.001243975               0.000791725               0.000000000               0.000000000               0.000000000               0.000000000              -0.000077169               0.003693840               0.001439653              -0.000490668               0.001394823               0.000904155               0.000000000               0.000000000               0.000000000               0.000000000              -0.000051556               0.003974604               0.001269921              -0.000516159               0.001496907               0.000980749               0.000000000               0.000000000               0.000000000               0.000000000              -0.000024742               0.004169137               0.001110995              -0.000530420               0.001566505               0.001036085               0.000000000               0.000000000               0.000000000               0.000000000               0.000001255               0.004306728               0.000975427              -0.000537870               0.001614851               0.001076982               0.000000000               0.000000000               0.000000000               0.000000000               0.000023998               0.004415719               0.000860527              -0.000542965               0.001652880               0.001109915               0.000000000               0.000000000               0.000000000               0.000000000               0.000045531               0.004494286               0.000758264              -0.000544711               0.001679650               0.001134940               0.000000000               0.000000000               0.000000000               0.000000000               0.000069536               0.004525393               0.000656900              -0.000539597               0.001688315               0.001148718               0.000000000               0.000000000               0.000000000               0.000000000               0.000094971               0.004518292               0.000555370              -0.000529171               0.001682473               0.001153301               0.000000000               0.000000000               0.000000000               0.000000000               0.000116451               0.004486980               0.000453446              -0.000517202               0.001668046               0.001150843               0.000000000               0.000000000               0.000000000               0.000000000               0.000125192               0.004440202               0.000346832              -0.000508077               0.001649411               0.001141334               0.000000000               0.000000000               0.000000000               0.000000000               0.000110196               0.004388618               0.000235009              -0.000507252               0.001631942               0.001124690               0.000000000               0.000000000               0.000000000               0.000000000               0.000059984               0.004343605               0.000118542              -0.000520455               0.001621339               0.001100884               0.000000000               0.000000000               0.000000000               0.000000000              -0.000000259               0.004309924               0.000051949              -0.000538836               0.001616239               0.001077403               0.000000000               0.000000000               0.000000000               0.000000000              -0.001400014               0.000326521               0.000317736              -0.000565820               0.000297445              -0.000268375               0.000000000               0.000000000               0.000000000               0.000000000              -0.000576032               0.001049395               0.000886404              -0.000347186               0.000465523               0.000118337               0.000000000               0.000000000               0.000000000               0.000000000              -0.000126093               0.001862394               0.001355923              -0.000280085               0.000714153               0.000434068               0.000000000               0.000000000               0.000000000               0.000000000               0.000064703               0.002501722               0.001410030              -0.000288452               0.000930049               0.000641597               0.000000000               0.000000000               0.000000000               0.000000000               0.000145632               0.002977613               0.001326552              -0.000317590               0.001098391               0.000780801               0.000000000               0.000000000               0.000000000               0.000000000               0.000179128               0.003334730               0.001203865              -0.000349668               0.001228121               0.000878453               0.000000000               0.000000000               0.000000000               0.000000000               0.000198331               0.003611515               0.001078212              -0.000377065               0.001329514               0.000952449               0.000000000               0.000000000               0.000000000               0.000000000               0.000208668               0.003827217               0.000962321              -0.000400151               0.001409110               0.001008958               0.000000000               0.000000000               0.000000000               0.000000000               0.000215512               0.004005096               0.000860122              -0.000419819               0.001474958               0.001055139               0.000000000               0.000000000               0.000000000               0.000000000               0.000221668               0.004153024               0.000768303              -0.000436002               0.001529661               0.001093659               0.000000000               0.000000000               0.000000000               0.000000000               0.000230016               0.004256780               0.000678378              -0.000445841               0.001567526               0.001121685               0.000000000               0.000000000               0.000000000               0.000000000               0.000245306               0.004322236               0.000587652              -0.000448289               0.001590161               0.001141872               0.000000000               0.000000000               0.000000000               0.000000000               0.000266050               0.004355821               0.000496097              -0.000444708               0.001600162               0.001155454               0.000000000               0.000000000               0.000000000               0.000000000               0.000289780               0.004360593               0.000397632              -0.000436406               0.001598985               0.001162579               0.000000000               0.000000000               0.000000000               0.000000000               0.000308024               0.004346476               0.000286228              -0.000427799               0.001591411               0.001163611               0.000000000               0.000000000               0.000000000               0.000000000               0.000309196               0.004325811               0.000153918              -0.000424777               0.001583515               0.001158738               0.000000000               0.000000000               0.000000000               0.000000000               0.000293449               0.004308879               0.000077995              -0.000428565               0.001579134               0.001150568               0.000000000               0.000000000               0.000000000               0.000000000              -0.002002465               0.000025871               0.000119402              -0.000754158               0.000260008              -0.000494150               0.000000000               0.000000000               0.000000000               0.000000000              -0.000847811               0.000585798               0.000581135              -0.000391154               0.000325648              -0.000065506               0.000000000               0.000000000               0.000000000               0.000000000              -0.000088930               0.001223238               0.000981572              -0.000186254               0.000469826               0.000283572               0.000000000               0.000000000               0.000000000               0.000000000               0.000230511               0.001834698               0.001060148              -0.000142896               0.000659192               0.000516295               0.000000000               0.000000000               0.000000000               0.000000000               0.000365830               0.002338404               0.001022804              -0.000155115               0.000831165               0.000676050               0.000000000               0.000000000               0.000000000               0.000000000               0.000416998               0.002746620               0.000948593              -0.000186954               0.000977848               0.000790895               0.000000000               0.000000000               0.000000000               0.000000000               0.000433189               0.003085606               0.000865337              -0.000223255               0.001102943               0.000879688               0.000000000               0.000000000               0.000000000               0.000000000               0.000433379               0.003364588               0.000783104              -0.000258056               0.001207537               0.000949480               0.000000000               0.000000000               0.000000000               0.000000000               0.000427854               0.003598532               0.000707988              -0.000289371               0.001295956               0.001006585               0.000000000               0.000000000               0.000000000               0.000000000               0.000420021               0.003801436               0.000639553              -0.000317671               0.001373023               0.001055352               0.000000000               0.000000000               0.000000000               0.000000000               0.000414217               0.003970932               0.000571136              -0.000341035               0.001437309               0.001096274               0.000000000               0.000000000               0.000000000               0.000000000               0.000419014               0.004102963               0.000500764              -0.000355740               0.001486221               0.001130481               0.000000000               0.000000000               0.000000000               0.000000000               0.000438289               0.004197977               0.000430285              -0.000360388               0.001519441               0.001159053               0.000000000               0.000000000               0.000000000               0.000000000               0.000474845               0.004256827               0.000353624              -0.000354036               0.001536940               0.001182904               0.000000000               0.000000000               0.000000000               0.000000000               0.000529117               0.004286906               0.000261778              -0.000337443               0.001541436               0.001203992               0.000000000               0.000000000               0.000000000               0.000000000               0.000599798               0.004301019               0.000144548              -0.000312702               0.001537893               0.001225191               0.000000000               0.000000000               0.000000000               0.000000000               0.000655853               0.004310655               0.000079682              -0.000292886               0.001534499               0.001241613               0.000000000               0.000000000               0.000000000               0.000000000              -0.002413876              -0.000134140               0.000027933              -0.000888435               0.000251430              -0.000637005               0.000000000               0.000000000               0.000000000               0.000000000              -0.001036283               0.000300055               0.000286172              -0.000426112               0.000242054              -0.000184058               0.000000000               0.000000000               0.000000000               0.000000000              -0.000062979               0.000801509               0.000515975              -0.000123806               0.000308435               0.000184629               0.000000000               0.000000000               0.000000000               0.000000000               0.000348682               0.001379798               0.000569819              -0.000041720               0.000473834               0.000432115               0.000000000               0.000000000               0.000000000               0.000000000               0.000525454               0.001895945               0.000556966              -0.000039949               0.000645292               0.000605343               0.000000000               0.000000000               0.000000000               0.000000000               0.000593880               0.002333435               0.000523584              -0.000068975               0.000800796               0.000731821               0.000000000               0.000000000               0.000000000               0.000000000               0.000611369               0.002706047               0.000483489              -0.000108993               0.000938337               0.000829345               0.000000000               0.000000000               0.000000000               0.000000000               0.000606200               0.003023523               0.000442265              -0.000150615               0.001058036               0.000907421               0.000000000               0.000000000               0.000000000               0.000000000               0.000594284               0.003298837               0.000403171              -0.000189498               0.001162767               0.000973269               0.000000000               0.000000000               0.000000000               0.000000000               0.000580501               0.003536165               0.000365860              -0.000224332               0.001253487               0.001029155               0.000000000               0.000000000               0.000000000               0.000000000               0.000569988               0.003738457               0.000328690              -0.000253561               0.001330660               0.001077099               0.000000000               0.000000000               0.000000000               0.000000000               0.000572496               0.003909355               0.000289804              -0.000273983               0.001394433               0.001120450               0.000000000               0.000000000               0.000000000               0.000000000               0.000591489               0.004043233               0.000250372              -0.000283595               0.001442263               0.001158668               0.000000000               0.000000000               0.000000000               0.000000000               0.000631791               0.004142313               0.000206863              -0.000280867               0.001474379               0.001193513               0.000000000               0.000000000               0.000000000               0.000000000               0.000703667               0.004213899               0.000153119              -0.000262862               0.001492240               0.001229378               0.000000000               0.000000000               0.000000000               0.000000000               0.000819212               0.004265389               0.000084598              -0.000225969               0.001497105               0.001271136               0.000000000               0.000000000               0.000000000               0.000000000               0.000925010               0.004299618               0.000048601              -0.000190573               0.001496716               0.001306143               0.000000000               0.000000000               0.000000000               0.000000000               0.000000000               0.000000000               0.000000000               0.000000000               0.000000000               0.000000000               0.000000000               0.000000000               0.000000000               0.000000000               0.000000000               0.000000000               0.000000000               0.000000000               0.000000000               0.000000000               0.000000000               0.000000000               0.000000000               0.000000000               0.000000000               0.000000000               0.000000000               0.000000000               0.000000000               0.000000000               0.000000000               0.000000000               0.000000000               0.000000000               0.000000000               0.000000000               0.000000000               0.000000000               0.000000000               0.000000000               0.000000000               0.000000000               0.000000000               0.000000000               0.000000000               0.000000000               0.000000000               0.000000000               0.000000000               0.000000000               0.000000000               0.000000000               0.000000000               0.000000000               0.000000000               0.000000000               0.000000000               0.000000000               0.000000000               0.000000000               0.000000000               0.000000000               0.000000000               0.000000000               0.000000000               0.000000000               0.000000000               0.000000000               0.000000000               0.000000000               0.000000000               0.000000000               0.000000000               0.000000000               0.000000000               0.000000000               0.000000000               0.000000000               0.000000000               0.000000000               0.000000000               0.000000000               0.000000000               0.000000000               0.000000000               0.000000000               0.000000000               0.000000000               0.000000000               0.000000000               0.000000000               0.000000000               0.000000000               0.000000000               0.000000000               0.000000000               0.000000000               0.000000000               0.000000000               0.000000000               0.000000000               0.000000000               0.000000000               0.000000000               0.000000000               0.000000000               0.000000000               0.000000000               0.000000000               0.000000000               0.000000000               0.000000000               0.000000000               0.000000000               0.000000000               0.000000000               0.000000000               0.000000000               0.000000000               0.000000000               0.000000000               0.000000000               0.000000000               0.000000000               0.000000000               0.000000000               0.000000000               0.000000000               0.000000000               0.000000000               0.000000000               0.000000000               0.000000000               0.000000000               0.000000000               0.000000000               0.000000000               0.000000000               0.000000000               0.000000000               0.000000000               0.000000000               0.000000000               0.000000000               0.000000000               0.000000000               0.000000000               0.000000000               0.000000000               0.000000000               0.000000000               0.000000000               0.000000000               0.000000000               0.000000000               0.000000000               0.000000000               0.000000000               0.000000000               0.000000000               0.000000000               0.000000000               0.000000000               0.000000000               0.000000000               0.000000000               0.000000000               0.000000000               0.000000000               0.000000000               0.000000000               0.000000000               0.000000000               0.000000000 </DataArray>
</PointData>
</Piece>
</UnstructuredGrid> </VTKFile>
