<?xml version="1.0"?>
<VTKFile type="UnstructuredGrid" version="0.1">
<UnstructuredGrid>
<Piece NumberOfPoints="      1156" NumberOfCells="      1024">
<Points>
<DataArray type="Float64"                                    Name="coordinates"                                                      NumberOfComponents=" 3" format="ascii">
              0.133000000               0.000000000               0.000000000               0.155937500               0.000000000               0.000000000               0.178875000               0.000000000               0.000000000               0.201812500               0.000000000               0.000000000               0.224750000               0.000000000               0.000000000               0.247687500               0.000000000               0.000000000               0.270625000               0.000000000               0.000000000               0.293562500               0.000000000               0.000000000               0.316500000               0.000000000               0.000000000               0.339437500               0.000000000               0.000000000               0.362375000               0.000000000               0.000000000               0.385312500               0.000000000               0.000000000               0.408250000               0.000000000               0.000000000               0.431187500               0.000000000               0.000000000               0.454125000               0.000000000               0.000000000               0.477062500               0.000000000               0.000000000               0.500000000               0.000000000               0.000000000               0.132359569               0.013036280               0.000000000               0.155337096               0.016127762               0.000000000               0.178314623               0.019219245               0.000000000               0.201292150               0.022310727               0.000000000               0.224269676               0.025402210               0.000000000               0.247247203               0.028493692               0.000000000               0.270224730               0.031585175               0.000000000               0.293202257               0.034676657               0.000000000               0.316179784               0.037768140               0.000000000               0.339157311               0.040859622               0.000000000               0.362134838               0.043951105               0.000000000               0.385112365               0.047042587               0.000000000               0.408089892               0.050134070               0.000000000               0.431067419               0.053225552               0.000000000               0.454044946               0.056317035               0.000000000               0.477022473               0.059408517               0.000000000               0.500000000               0.062500000               0.000000000               0.130444442               0.025947013               0.000000000               0.153541665               0.032137825               0.000000000               0.176638887               0.038328636               0.000000000               0.199736109               0.044519448               0.000000000               0.222833332               0.050710260               0.000000000               0.245930554               0.056901071               0.000000000               0.269027776               0.063091883               0.000000000               0.292124999               0.069282695               0.000000000               0.315222221               0.075473506               0.000000000               0.338319444               0.081664318               0.000000000               0.361416666               0.087855130               0.000000000               0.384513888               0.094045942               0.000000000               0.407611111               0.100236753               0.000000000               0.430708333               0.106427565               0.000000000               0.453805555               0.112618377               0.000000000               0.476902778               0.118809188               0.000000000               0.500000000               0.125000000               0.000000000               0.127273065               0.038607862               0.000000000               0.150568498               0.047913621               0.000000000               0.173863932               0.057219379               0.000000000               0.197159365               0.066525138               0.000000000               0.220454798               0.075830897               0.000000000               0.243750232               0.085136655               0.000000000               0.267045665               0.094442414               0.000000000               0.290341099               0.103748172               0.000000000               0.313636532               0.113053931               0.000000000               0.336931966               0.122359690               0.000000000               0.360227399               0.131665448               0.000000000               0.383522833               0.140971207               0.000000000               0.406818266               0.150276966               0.000000000               0.430113700               0.159582724               0.000000000               0.453409133               0.168888483               0.000000000               0.476704567               0.178194241               0.000000000               0.500000000               0.187500000               0.000000000               0.122875978               0.050896897               0.000000000               0.146446229               0.063340840               0.000000000               0.170016481               0.075784784               0.000000000               0.193586732               0.088228728               0.000000000               0.217156983               0.100672672               0.000000000               0.240727235               0.113116616               0.000000000               0.264297486               0.125560560               0.000000000               0.287867738               0.138004504               0.000000000               0.311437989               0.150448448               0.000000000               0.335008240               0.162892392               0.000000000               0.358578492               0.175336336               0.000000000               0.382148743               0.187780280               0.000000000               0.405718994               0.200224224               0.000000000               0.429289246               0.212668168               0.000000000               0.452859497               0.225112112               0.000000000               0.476429749               0.237556056               0.000000000               0.500000000               0.250000000               0.000000000               0.117295528               0.062695766               0.000000000               0.141214558               0.078308531               0.000000000               0.165133587               0.093921295               0.000000000               0.189052617               0.109534060               0.000000000               0.212971646               0.125146824               0.000000000               0.236890676               0.140759589               0.000000000               0.260809705               0.156372354               0.000000000               0.284728735               0.171985118               0.000000000               0.308647764               0.187597883               0.000000000               0.332566794               0.203210648               0.000000000               0.356485823               0.218823412               0.000000000               0.380404853               0.234436177               0.000000000               0.404323882               0.250048941               0.000000000               0.428242912               0.265661706               0.000000000               0.452161941               0.281274471               0.000000000               0.476080971               0.296887235               0.000000000               0.500000000               0.312500000               0.000000000               0.110585458               0.073890841               0.000000000               0.134923867               0.092710163               0.000000000               0.159262276               0.111529486               0.000000000               0.183600685               0.130348808               0.000000000               0.207939094               0.149168131               0.000000000               0.232277503               0.167987453               0.000000000               0.256615912               0.186806776               0.000000000               0.280954320               0.205626098               0.000000000               0.305292729               0.224445420               0.000000000               0.329631138               0.243264743               0.000000000               0.353969547               0.262084065               0.000000000               0.378307956               0.280903388               0.000000000               0.402646365               0.299722710               0.000000000               0.426984773               0.318542033               0.000000000               0.451323182               0.337361355               0.000000000               0.475661591               0.356180678               0.000000000               0.500000000               0.375000000               0.000000000               0.102810390               0.084374307               0.000000000               0.127634741               0.106444663               0.000000000               0.152459092               0.128515018               0.000000000               0.177283442               0.150585374               0.000000000               0.202107793               0.172655730               0.000000000               0.226932143               0.194726086               0.000000000               0.251756494               0.216796442               0.000000000               0.276580845               0.238866798               0.000000000               0.301405195               0.260937153               0.000000000               0.326229546               0.283007509               0.000000000               0.351053896               0.305077865               0.000000000               0.375878247               0.327148221               0.000000000               0.400702598               0.349218577               0.000000000               0.425526948               0.371288933               0.000000000               0.450351299               0.393359288               0.000000000               0.475175649               0.415429644               0.000000000               0.500000000               0.437500000               0.000000000               0.094045202               0.094045202               0.000000000               0.119417377               0.119417377               0.000000000               0.144789552               0.144789552               0.000000000               0.170161727               0.170161727               0.000000000               0.195533901               0.195533901               0.000000000               0.220906076               0.220906076               0.000000000               0.246278251               0.246278251               0.000000000               0.271650426               0.271650426               0.000000000               0.297022601               0.297022601               0.000000000               0.322394776               0.322394776               0.000000000               0.347766951               0.347766951               0.000000000               0.373139126               0.373139126               0.000000000               0.398511300               0.398511300               0.000000000               0.423883475               0.423883475               0.000000000               0.449255650               0.449255650               0.000000000               0.474627825               0.474627825               0.000000000               0.500000000               0.500000000               0.000000000               0.084374307               0.102810390               0.000000000               0.106444663               0.127634741               0.000000000               0.128515018               0.152459092               0.000000000               0.150585374               0.177283442               0.000000000               0.172655730               0.202107793               0.000000000               0.194726086               0.226932143               0.000000000               0.216796442               0.251756494               0.000000000               0.238866798               0.276580845               0.000000000               0.260937153               0.301405195               0.000000000               0.283007509               0.326229546               0.000000000               0.305077865               0.351053896               0.000000000               0.327148221               0.375878247               0.000000000               0.349218577               0.400702598               0.000000000               0.371288933               0.425526948               0.000000000               0.393359288               0.450351299               0.000000000               0.415429644               0.475175649               0.000000000               0.437500000               0.500000000               0.000000000               0.073890841               0.110585458               0.000000000               0.092710163               0.134923867               0.000000000               0.111529486               0.159262276               0.000000000               0.130348808               0.183600685               0.000000000               0.149168131               0.207939094               0.000000000               0.167987453               0.232277503               0.000000000               0.186806776               0.256615912               0.000000000               0.205626098               0.280954320               0.000000000               0.224445420               0.305292729               0.000000000               0.243264743               0.329631138               0.000000000               0.262084065               0.353969547               0.000000000               0.280903388               0.378307956               0.000000000               0.299722710               0.402646365               0.000000000               0.318542033               0.426984773               0.000000000               0.337361355               0.451323182               0.000000000               0.356180678               0.475661591               0.000000000               0.375000000               0.500000000               0.000000000               0.062695766               0.117295528               0.000000000               0.078308531               0.141214558               0.000000000               0.093921295               0.165133587               0.000000000               0.109534060               0.189052617               0.000000000               0.125146824               0.212971646               0.000000000               0.140759589               0.236890676               0.000000000               0.156372354               0.260809705               0.000000000               0.171985118               0.284728735               0.000000000               0.187597883               0.308647764               0.000000000               0.203210648               0.332566794               0.000000000               0.218823412               0.356485823               0.000000000               0.234436177               0.380404853               0.000000000               0.250048941               0.404323882               0.000000000               0.265661706               0.428242912               0.000000000               0.281274471               0.452161941               0.000000000               0.296887235               0.476080971               0.000000000               0.312500000               0.500000000               0.000000000               0.050896897               0.122875978               0.000000000               0.063340840               0.146446229               0.000000000               0.075784784               0.170016481               0.000000000               0.088228728               0.193586732               0.000000000               0.100672672               0.217156983               0.000000000               0.113116616               0.240727235               0.000000000               0.125560560               0.264297486               0.000000000               0.138004504               0.287867738               0.000000000               0.150448448               0.311437989               0.000000000               0.162892392               0.335008240               0.000000000               0.175336336               0.358578492               0.000000000               0.187780280               0.382148743               0.000000000               0.200224224               0.405718994               0.000000000               0.212668168               0.429289246               0.000000000               0.225112112               0.452859497               0.000000000               0.237556056               0.476429749               0.000000000               0.250000000               0.500000000               0.000000000               0.038607862               0.127273065               0.000000000               0.047913621               0.150568498               0.000000000               0.057219379               0.173863932               0.000000000               0.066525138               0.197159365               0.000000000               0.075830897               0.220454798               0.000000000               0.085136655               0.243750232               0.000000000               0.094442414               0.267045665               0.000000000               0.103748172               0.290341099               0.000000000               0.113053931               0.313636532               0.000000000               0.122359690               0.336931966               0.000000000               0.131665448               0.360227399               0.000000000               0.140971207               0.383522833               0.000000000               0.150276966               0.406818266               0.000000000               0.159582724               0.430113700               0.000000000               0.168888483               0.453409133               0.000000000               0.178194241               0.476704567               0.000000000               0.187500000               0.500000000               0.000000000               0.025947013               0.130444442               0.000000000               0.032137825               0.153541665               0.000000000               0.038328636               0.176638887               0.000000000               0.044519448               0.199736109               0.000000000               0.050710260               0.222833332               0.000000000               0.056901071               0.245930554               0.000000000               0.063091883               0.269027776               0.000000000               0.069282695               0.292124999               0.000000000               0.075473506               0.315222221               0.000000000               0.081664318               0.338319444               0.000000000               0.087855130               0.361416666               0.000000000               0.094045942               0.384513888               0.000000000               0.100236753               0.407611111               0.000000000               0.106427565               0.430708333               0.000000000               0.112618377               0.453805555               0.000000000               0.118809188               0.476902778               0.000000000               0.125000000               0.500000000               0.000000000               0.013036280               0.132359569               0.000000000               0.016127762               0.155337096               0.000000000               0.019219245               0.178314623               0.000000000               0.022310727               0.201292150               0.000000000               0.025402210               0.224269676               0.000000000               0.028493692               0.247247203               0.000000000               0.031585175               0.270224730               0.000000000               0.034676657               0.293202257               0.000000000               0.037768140               0.316179784               0.000000000               0.040859622               0.339157311               0.000000000               0.043951105               0.362134838               0.000000000               0.047042587               0.385112365               0.000000000               0.050134070               0.408089892               0.000000000               0.053225552               0.431067419               0.000000000               0.056317035               0.454044946               0.000000000               0.059408517               0.477022473               0.000000000               0.062500000               0.500000000               0.000000000               0.000000000               0.133000000               0.000000000               0.000000000               0.155937500               0.000000000               0.000000000               0.178875000               0.000000000               0.000000000               0.201812500               0.000000000               0.000000000               0.224750000               0.000000000               0.000000000               0.247687500               0.000000000               0.000000000               0.270625000               0.000000000               0.000000000               0.293562500               0.000000000               0.000000000               0.316500000               0.000000000               0.000000000               0.339437500               0.000000000               0.000000000               0.362375000               0.000000000               0.000000000               0.385312500               0.000000000               0.000000000               0.408250000               0.000000000               0.000000000               0.431187500               0.000000000               0.000000000               0.454125000               0.000000000               0.000000000               0.477062500               0.000000000               0.000000000               0.500000000               0.000000000               0.133000000               0.000000000               0.000000000               0.155937500               0.000000000               0.000000000               0.178875000               0.000000000               0.000000000               0.201812500               0.000000000               0.000000000               0.224750000               0.000000000               0.000000000               0.247687500               0.000000000               0.000000000               0.270625000               0.000000000               0.000000000               0.293562500               0.000000000               0.000000000               0.316500000               0.000000000               0.000000000               0.339437500               0.000000000               0.000000000               0.362375000               0.000000000               0.000000000               0.385312500               0.000000000               0.000000000               0.408250000               0.000000000               0.000000000               0.431187500               0.000000000               0.000000000               0.454125000               0.000000000               0.000000000               0.477062500               0.000000000               0.000000000               0.500000000               0.000000000               0.000000000               0.132359569              -0.013036280               0.000000000               0.155337096              -0.016127762               0.000000000               0.178314623              -0.019219245               0.000000000               0.201292150              -0.022310727               0.000000000               0.224269676              -0.025402210               0.000000000               0.247247203              -0.028493692               0.000000000               0.270224730              -0.031585175               0.000000000               0.293202257              -0.034676657               0.000000000               0.316179784              -0.037768140               0.000000000               0.339157311              -0.040859622               0.000000000               0.362134838              -0.043951105               0.000000000               0.385112365              -0.047042587               0.000000000               0.408089892              -0.050134070               0.000000000               0.431067419              -0.053225552               0.000000000               0.454044946              -0.056317035               0.000000000               0.477022473              -0.059408517               0.000000000               0.500000000              -0.062500000               0.000000000               0.130444442              -0.025947013               0.000000000               0.153541665              -0.032137825               0.000000000               0.176638887              -0.038328636               0.000000000               0.199736109              -0.044519448               0.000000000               0.222833332              -0.050710260               0.000000000               0.245930554              -0.056901071               0.000000000               0.269027776              -0.063091883               0.000000000               0.292124999              -0.069282695               0.000000000               0.315222221              -0.075473506               0.000000000               0.338319444              -0.081664318               0.000000000               0.361416666              -0.087855130               0.000000000               0.384513888              -0.094045942               0.000000000               0.407611111              -0.100236753               0.000000000               0.430708333              -0.106427565               0.000000000               0.453805555              -0.112618377               0.000000000               0.476902778              -0.118809188               0.000000000               0.500000000              -0.125000000               0.000000000               0.127273065              -0.038607862               0.000000000               0.150568498              -0.047913621               0.000000000               0.173863932              -0.057219379               0.000000000               0.197159365              -0.066525138               0.000000000               0.220454798              -0.075830897               0.000000000               0.243750232              -0.085136655               0.000000000               0.267045665              -0.094442414               0.000000000               0.290341099              -0.103748172               0.000000000               0.313636532              -0.113053931               0.000000000               0.336931966              -0.122359690               0.000000000               0.360227399              -0.131665448               0.000000000               0.383522833              -0.140971207               0.000000000               0.406818266              -0.150276966               0.000000000               0.430113700              -0.159582724               0.000000000               0.453409133              -0.168888483               0.000000000               0.476704567              -0.178194241               0.000000000               0.500000000              -0.187500000               0.000000000               0.122875978              -0.050896897               0.000000000               0.146446229              -0.063340840               0.000000000               0.170016481              -0.075784784               0.000000000               0.193586732              -0.088228728               0.000000000               0.217156983              -0.100672672               0.000000000               0.240727235              -0.113116616               0.000000000               0.264297486              -0.125560560               0.000000000               0.287867738              -0.138004504               0.000000000               0.311437989              -0.150448448               0.000000000               0.335008240              -0.162892392               0.000000000               0.358578492              -0.175336336               0.000000000               0.382148743              -0.187780280               0.000000000               0.405718994              -0.200224224               0.000000000               0.429289246              -0.212668168               0.000000000               0.452859497              -0.225112112               0.000000000               0.476429749              -0.237556056               0.000000000               0.500000000              -0.250000000               0.000000000               0.117295528              -0.062695766               0.000000000               0.141214558              -0.078308531               0.000000000               0.165133587              -0.093921295               0.000000000               0.189052617              -0.109534060               0.000000000               0.212971646              -0.125146824               0.000000000               0.236890676              -0.140759589               0.000000000               0.260809705              -0.156372354               0.000000000               0.284728735              -0.171985118               0.000000000               0.308647764              -0.187597883               0.000000000               0.332566794              -0.203210648               0.000000000               0.356485823              -0.218823412               0.000000000               0.380404853              -0.234436177               0.000000000               0.404323882              -0.250048941               0.000000000               0.428242912              -0.265661706               0.000000000               0.452161941              -0.281274471               0.000000000               0.476080971              -0.296887235               0.000000000               0.500000000              -0.312500000               0.000000000               0.110585458              -0.073890841               0.000000000               0.134923867              -0.092710163               0.000000000               0.159262276              -0.111529486               0.000000000               0.183600685              -0.130348808               0.000000000               0.207939094              -0.149168131               0.000000000               0.232277503              -0.167987453               0.000000000               0.256615912              -0.186806776               0.000000000               0.280954320              -0.205626098               0.000000000               0.305292729              -0.224445420               0.000000000               0.329631138              -0.243264743               0.000000000               0.353969547              -0.262084065               0.000000000               0.378307956              -0.280903388               0.000000000               0.402646365              -0.299722710               0.000000000               0.426984773              -0.318542033               0.000000000               0.451323182              -0.337361355               0.000000000               0.475661591              -0.356180678               0.000000000               0.500000000              -0.375000000               0.000000000               0.102810390              -0.084374307               0.000000000               0.127634741              -0.106444663               0.000000000               0.152459092              -0.128515018               0.000000000               0.177283442              -0.150585374               0.000000000               0.202107793              -0.172655730               0.000000000               0.226932143              -0.194726086               0.000000000               0.251756494              -0.216796442               0.000000000               0.276580845              -0.238866798               0.000000000               0.301405195              -0.260937153               0.000000000               0.326229546              -0.283007509               0.000000000               0.351053896              -0.305077865               0.000000000               0.375878247              -0.327148221               0.000000000               0.400702598              -0.349218577               0.000000000               0.425526948              -0.371288933               0.000000000               0.450351299              -0.393359288               0.000000000               0.475175649              -0.415429644               0.000000000               0.500000000              -0.437500000               0.000000000               0.094045202              -0.094045202               0.000000000               0.119417377              -0.119417377               0.000000000               0.144789552              -0.144789552               0.000000000               0.170161727              -0.170161727               0.000000000               0.195533901              -0.195533901               0.000000000               0.220906076              -0.220906076               0.000000000               0.246278251              -0.246278251               0.000000000               0.271650426              -0.271650426               0.000000000               0.297022601              -0.297022601               0.000000000               0.322394776              -0.322394776               0.000000000               0.347766951              -0.347766951               0.000000000               0.373139126              -0.373139126               0.000000000               0.398511300              -0.398511300               0.000000000               0.423883475              -0.423883475               0.000000000               0.449255650              -0.449255650               0.000000000               0.474627825              -0.474627825               0.000000000               0.500000000              -0.500000000               0.000000000               0.084374307              -0.102810390               0.000000000               0.106444663              -0.127634741               0.000000000               0.128515018              -0.152459092               0.000000000               0.150585374              -0.177283442               0.000000000               0.172655730              -0.202107793               0.000000000               0.194726086              -0.226932143               0.000000000               0.216796442              -0.251756494               0.000000000               0.238866798              -0.276580845               0.000000000               0.260937153              -0.301405195               0.000000000               0.283007509              -0.326229546               0.000000000               0.305077865              -0.351053896               0.000000000               0.327148221              -0.375878247               0.000000000               0.349218577              -0.400702598               0.000000000               0.371288933              -0.425526948               0.000000000               0.393359288              -0.450351299               0.000000000               0.415429644              -0.475175649               0.000000000               0.437500000              -0.500000000               0.000000000               0.073890841              -0.110585458               0.000000000               0.092710163              -0.134923867               0.000000000               0.111529486              -0.159262276               0.000000000               0.130348808              -0.183600685               0.000000000               0.149168131              -0.207939094               0.000000000               0.167987453              -0.232277503               0.000000000               0.186806776              -0.256615912               0.000000000               0.205626098              -0.280954320               0.000000000               0.224445420              -0.305292729               0.000000000               0.243264743              -0.329631138               0.000000000               0.262084065              -0.353969547               0.000000000               0.280903388              -0.378307956               0.000000000               0.299722710              -0.402646365               0.000000000               0.318542033              -0.426984773               0.000000000               0.337361355              -0.451323182               0.000000000               0.356180678              -0.475661591               0.000000000               0.375000000              -0.500000000               0.000000000               0.062695766              -0.117295528               0.000000000               0.078308531              -0.141214558               0.000000000               0.093921295              -0.165133587               0.000000000               0.109534060              -0.189052617               0.000000000               0.125146824              -0.212971646               0.000000000               0.140759589              -0.236890676               0.000000000               0.156372354              -0.260809705               0.000000000               0.171985118              -0.284728735               0.000000000               0.187597883              -0.308647764               0.000000000               0.203210648              -0.332566794               0.000000000               0.218823412              -0.356485823               0.000000000               0.234436177              -0.380404853               0.000000000               0.250048941              -0.404323882               0.000000000               0.265661706              -0.428242912               0.000000000               0.281274471              -0.452161941               0.000000000               0.296887235              -0.476080971               0.000000000               0.312500000              -0.500000000               0.000000000               0.050896897              -0.122875978               0.000000000               0.063340840              -0.146446229               0.000000000               0.075784784              -0.170016481               0.000000000               0.088228728              -0.193586732               0.000000000               0.100672672              -0.217156983               0.000000000               0.113116616              -0.240727235               0.000000000               0.125560560              -0.264297486               0.000000000               0.138004504              -0.287867738               0.000000000               0.150448448              -0.311437989               0.000000000               0.162892392              -0.335008240               0.000000000               0.175336336              -0.358578492               0.000000000               0.187780280              -0.382148743               0.000000000               0.200224224              -0.405718994               0.000000000               0.212668168              -0.429289246               0.000000000               0.225112112              -0.452859497               0.000000000               0.237556056              -0.476429749               0.000000000               0.250000000              -0.500000000               0.000000000               0.038607862              -0.127273065               0.000000000               0.047913621              -0.150568498               0.000000000               0.057219379              -0.173863932               0.000000000               0.066525138              -0.197159365               0.000000000               0.075830897              -0.220454798               0.000000000               0.085136655              -0.243750232               0.000000000               0.094442414              -0.267045665               0.000000000               0.103748172              -0.290341099               0.000000000               0.113053931              -0.313636532               0.000000000               0.122359690              -0.336931966               0.000000000               0.131665448              -0.360227399               0.000000000               0.140971207              -0.383522833               0.000000000               0.150276966              -0.406818266               0.000000000               0.159582724              -0.430113700               0.000000000               0.168888483              -0.453409133               0.000000000               0.178194241              -0.476704567               0.000000000               0.187500000              -0.500000000               0.000000000               0.025947013              -0.130444442               0.000000000               0.032137825              -0.153541665               0.000000000               0.038328636              -0.176638887               0.000000000               0.044519448              -0.199736109               0.000000000               0.050710260              -0.222833332               0.000000000               0.056901071              -0.245930554               0.000000000               0.063091883              -0.269027776               0.000000000               0.069282695              -0.292124999               0.000000000               0.075473506              -0.315222221               0.000000000               0.081664318              -0.338319444               0.000000000               0.087855130              -0.361416666               0.000000000               0.094045942              -0.384513888               0.000000000               0.100236753              -0.407611111               0.000000000               0.106427565              -0.430708333               0.000000000               0.112618377              -0.453805555               0.000000000               0.118809188              -0.476902778               0.000000000               0.125000000              -0.500000000               0.000000000               0.013036280              -0.132359569               0.000000000               0.016127762              -0.155337096               0.000000000               0.019219245              -0.178314623               0.000000000               0.022310727              -0.201292150               0.000000000               0.025402210              -0.224269676               0.000000000               0.028493692              -0.247247203               0.000000000               0.031585175              -0.270224730               0.000000000               0.034676657              -0.293202257               0.000000000               0.037768140              -0.316179784               0.000000000               0.040859622              -0.339157311               0.000000000               0.043951105              -0.362134838               0.000000000               0.047042587              -0.385112365               0.000000000               0.050134070              -0.408089892               0.000000000               0.053225552              -0.431067419               0.000000000               0.056317035              -0.454044946               0.000000000               0.059408517              -0.477022473               0.000000000               0.062500000              -0.500000000               0.000000000               0.000000000              -0.133000000               0.000000000               0.000000000              -0.155937500               0.000000000               0.000000000              -0.178875000               0.000000000               0.000000000              -0.201812500               0.000000000               0.000000000              -0.224750000               0.000000000               0.000000000              -0.247687500               0.000000000               0.000000000              -0.270625000               0.000000000               0.000000000              -0.293562500               0.000000000               0.000000000              -0.316500000               0.000000000               0.000000000              -0.339437500               0.000000000               0.000000000              -0.362375000               0.000000000               0.000000000              -0.385312500               0.000000000               0.000000000              -0.408250000               0.000000000               0.000000000              -0.431187500               0.000000000               0.000000000              -0.454125000               0.000000000               0.000000000              -0.477062500               0.000000000               0.000000000              -0.500000000               0.000000000              -0.133000000               0.000000000               0.000000000              -0.155937500               0.000000000               0.000000000              -0.178875000               0.000000000               0.000000000              -0.201812500               0.000000000               0.000000000              -0.224750000               0.000000000               0.000000000              -0.247687500               0.000000000               0.000000000              -0.270625000               0.000000000               0.000000000              -0.293562500               0.000000000               0.000000000              -0.316500000               0.000000000               0.000000000              -0.339437500               0.000000000               0.000000000              -0.362375000               0.000000000               0.000000000              -0.385312500               0.000000000               0.000000000              -0.408250000               0.000000000               0.000000000              -0.431187500               0.000000000               0.000000000              -0.454125000               0.000000000               0.000000000              -0.477062500               0.000000000               0.000000000              -0.500000000               0.000000000               0.000000000              -0.132359569              -0.013036280               0.000000000              -0.155337096              -0.016127762               0.000000000              -0.178314623              -0.019219245               0.000000000              -0.201292150              -0.022310727               0.000000000              -0.224269676              -0.025402210               0.000000000              -0.247247203              -0.028493692               0.000000000              -0.270224730              -0.031585175               0.000000000              -0.293202257              -0.034676657               0.000000000              -0.316179784              -0.037768140               0.000000000              -0.339157311              -0.040859622               0.000000000              -0.362134838              -0.043951105               0.000000000              -0.385112365              -0.047042587               0.000000000              -0.408089892              -0.050134070               0.000000000              -0.431067419              -0.053225552               0.000000000              -0.454044946              -0.056317035               0.000000000              -0.477022473              -0.059408517               0.000000000              -0.500000000              -0.062500000               0.000000000              -0.130444442              -0.025947013               0.000000000              -0.153541665              -0.032137825               0.000000000              -0.176638887              -0.038328636               0.000000000              -0.199736109              -0.044519448               0.000000000              -0.222833332              -0.050710260               0.000000000              -0.245930554              -0.056901071               0.000000000              -0.269027776              -0.063091883               0.000000000              -0.292124999              -0.069282695               0.000000000              -0.315222221              -0.075473506               0.000000000              -0.338319444              -0.081664318               0.000000000              -0.361416666              -0.087855130               0.000000000              -0.384513888              -0.094045942               0.000000000              -0.407611111              -0.100236753               0.000000000              -0.430708333              -0.106427565               0.000000000              -0.453805555              -0.112618377               0.000000000              -0.476902778              -0.118809188               0.000000000              -0.500000000              -0.125000000               0.000000000              -0.127273065              -0.038607862               0.000000000              -0.150568498              -0.047913621               0.000000000              -0.173863932              -0.057219379               0.000000000              -0.197159365              -0.066525138               0.000000000              -0.220454798              -0.075830897               0.000000000              -0.243750232              -0.085136655               0.000000000              -0.267045665              -0.094442414               0.000000000              -0.290341099              -0.103748172               0.000000000              -0.313636532              -0.113053931               0.000000000              -0.336931966              -0.122359690               0.000000000              -0.360227399              -0.131665448               0.000000000              -0.383522833              -0.140971207               0.000000000              -0.406818266              -0.150276966               0.000000000              -0.430113700              -0.159582724               0.000000000              -0.453409133              -0.168888483               0.000000000              -0.476704567              -0.178194241               0.000000000              -0.500000000              -0.187500000               0.000000000              -0.122875978              -0.050896897               0.000000000              -0.146446229              -0.063340840               0.000000000              -0.170016481              -0.075784784               0.000000000              -0.193586732              -0.088228728               0.000000000              -0.217156983              -0.100672672               0.000000000              -0.240727235              -0.113116616               0.000000000              -0.264297486              -0.125560560               0.000000000              -0.287867738              -0.138004504               0.000000000              -0.311437989              -0.150448448               0.000000000              -0.335008240              -0.162892392               0.000000000              -0.358578492              -0.175336336               0.000000000              -0.382148743              -0.187780280               0.000000000              -0.405718994              -0.200224224               0.000000000              -0.429289246              -0.212668168               0.000000000              -0.452859497              -0.225112112               0.000000000              -0.476429749              -0.237556056               0.000000000              -0.500000000              -0.250000000               0.000000000              -0.117295528              -0.062695766               0.000000000              -0.141214558              -0.078308531               0.000000000              -0.165133587              -0.093921295               0.000000000              -0.189052617              -0.109534060               0.000000000              -0.212971646              -0.125146824               0.000000000              -0.236890676              -0.140759589               0.000000000              -0.260809705              -0.156372354               0.000000000              -0.284728735              -0.171985118               0.000000000              -0.308647764              -0.187597883               0.000000000              -0.332566794              -0.203210648               0.000000000              -0.356485823              -0.218823412               0.000000000              -0.380404853              -0.234436177               0.000000000              -0.404323882              -0.250048941               0.000000000              -0.428242912              -0.265661706               0.000000000              -0.452161941              -0.281274471               0.000000000              -0.476080971              -0.296887235               0.000000000              -0.500000000              -0.312500000               0.000000000              -0.110585458              -0.073890841               0.000000000              -0.134923867              -0.092710163               0.000000000              -0.159262276              -0.111529486               0.000000000              -0.183600685              -0.130348808               0.000000000              -0.207939094              -0.149168131               0.000000000              -0.232277503              -0.167987453               0.000000000              -0.256615912              -0.186806776               0.000000000              -0.280954320              -0.205626098               0.000000000              -0.305292729              -0.224445420               0.000000000              -0.329631138              -0.243264743               0.000000000              -0.353969547              -0.262084065               0.000000000              -0.378307956              -0.280903388               0.000000000              -0.402646365              -0.299722710               0.000000000              -0.426984773              -0.318542033               0.000000000              -0.451323182              -0.337361355               0.000000000              -0.475661591              -0.356180678               0.000000000              -0.500000000              -0.375000000               0.000000000              -0.102810390              -0.084374307               0.000000000              -0.127634741              -0.106444663               0.000000000              -0.152459092              -0.128515018               0.000000000              -0.177283442              -0.150585374               0.000000000              -0.202107793              -0.172655730               0.000000000              -0.226932143              -0.194726086               0.000000000              -0.251756494              -0.216796442               0.000000000              -0.276580845              -0.238866798               0.000000000              -0.301405195              -0.260937153               0.000000000              -0.326229546              -0.283007509               0.000000000              -0.351053896              -0.305077865               0.000000000              -0.375878247              -0.327148221               0.000000000              -0.400702598              -0.349218577               0.000000000              -0.425526948              -0.371288933               0.000000000              -0.450351299              -0.393359288               0.000000000              -0.475175649              -0.415429644               0.000000000              -0.500000000              -0.437500000               0.000000000              -0.094045202              -0.094045202               0.000000000              -0.119417377              -0.119417377               0.000000000              -0.144789552              -0.144789552               0.000000000              -0.170161727              -0.170161727               0.000000000              -0.195533901              -0.195533901               0.000000000              -0.220906076              -0.220906076               0.000000000              -0.246278251              -0.246278251               0.000000000              -0.271650426              -0.271650426               0.000000000              -0.297022601              -0.297022601               0.000000000              -0.322394776              -0.322394776               0.000000000              -0.347766951              -0.347766951               0.000000000              -0.373139126              -0.373139126               0.000000000              -0.398511300              -0.398511300               0.000000000              -0.423883475              -0.423883475               0.000000000              -0.449255650              -0.449255650               0.000000000              -0.474627825              -0.474627825               0.000000000              -0.500000000              -0.500000000               0.000000000              -0.084374307              -0.102810390               0.000000000              -0.106444663              -0.127634741               0.000000000              -0.128515018              -0.152459092               0.000000000              -0.150585374              -0.177283442               0.000000000              -0.172655730              -0.202107793               0.000000000              -0.194726086              -0.226932143               0.000000000              -0.216796442              -0.251756494               0.000000000              -0.238866798              -0.276580845               0.000000000              -0.260937153              -0.301405195               0.000000000              -0.283007509              -0.326229546               0.000000000              -0.305077865              -0.351053896               0.000000000              -0.327148221              -0.375878247               0.000000000              -0.349218577              -0.400702598               0.000000000              -0.371288933              -0.425526948               0.000000000              -0.393359288              -0.450351299               0.000000000              -0.415429644              -0.475175649               0.000000000              -0.437500000              -0.500000000               0.000000000              -0.073890841              -0.110585458               0.000000000              -0.092710163              -0.134923867               0.000000000              -0.111529486              -0.159262276               0.000000000              -0.130348808              -0.183600685               0.000000000              -0.149168131              -0.207939094               0.000000000              -0.167987453              -0.232277503               0.000000000              -0.186806776              -0.256615912               0.000000000              -0.205626098              -0.280954320               0.000000000              -0.224445420              -0.305292729               0.000000000              -0.243264743              -0.329631138               0.000000000              -0.262084065              -0.353969547               0.000000000              -0.280903388              -0.378307956               0.000000000              -0.299722710              -0.402646365               0.000000000              -0.318542033              -0.426984773               0.000000000              -0.337361355              -0.451323182               0.000000000              -0.356180678              -0.475661591               0.000000000              -0.375000000              -0.500000000               0.000000000              -0.062695766              -0.117295528               0.000000000              -0.078308531              -0.141214558               0.000000000              -0.093921295              -0.165133587               0.000000000              -0.109534060              -0.189052617               0.000000000              -0.125146824              -0.212971646               0.000000000              -0.140759589              -0.236890676               0.000000000              -0.156372354              -0.260809705               0.000000000              -0.171985118              -0.284728735               0.000000000              -0.187597883              -0.308647764               0.000000000              -0.203210648              -0.332566794               0.000000000              -0.218823412              -0.356485823               0.000000000              -0.234436177              -0.380404853               0.000000000              -0.250048941              -0.404323882               0.000000000              -0.265661706              -0.428242912               0.000000000              -0.281274471              -0.452161941               0.000000000              -0.296887235              -0.476080971               0.000000000              -0.312500000              -0.500000000               0.000000000              -0.050896897              -0.122875978               0.000000000              -0.063340840              -0.146446229               0.000000000              -0.075784784              -0.170016481               0.000000000              -0.088228728              -0.193586732               0.000000000              -0.100672672              -0.217156983               0.000000000              -0.113116616              -0.240727235               0.000000000              -0.125560560              -0.264297486               0.000000000              -0.138004504              -0.287867738               0.000000000              -0.150448448              -0.311437989               0.000000000              -0.162892392              -0.335008240               0.000000000              -0.175336336              -0.358578492               0.000000000              -0.187780280              -0.382148743               0.000000000              -0.200224224              -0.405718994               0.000000000              -0.212668168              -0.429289246               0.000000000              -0.225112112              -0.452859497               0.000000000              -0.237556056              -0.476429749               0.000000000              -0.250000000              -0.500000000               0.000000000              -0.038607862              -0.127273065               0.000000000              -0.047913621              -0.150568498               0.000000000              -0.057219379              -0.173863932               0.000000000              -0.066525138              -0.197159365               0.000000000              -0.075830897              -0.220454798               0.000000000              -0.085136655              -0.243750232               0.000000000              -0.094442414              -0.267045665               0.000000000              -0.103748172              -0.290341099               0.000000000              -0.113053931              -0.313636532               0.000000000              -0.122359690              -0.336931966               0.000000000              -0.131665448              -0.360227399               0.000000000              -0.140971207              -0.383522833               0.000000000              -0.150276966              -0.406818266               0.000000000              -0.159582724              -0.430113700               0.000000000              -0.168888483              -0.453409133               0.000000000              -0.178194241              -0.476704567               0.000000000              -0.187500000              -0.500000000               0.000000000              -0.025947013              -0.130444442               0.000000000              -0.032137825              -0.153541665               0.000000000              -0.038328636              -0.176638887               0.000000000              -0.044519448              -0.199736109               0.000000000              -0.050710260              -0.222833332               0.000000000              -0.056901071              -0.245930554               0.000000000              -0.063091883              -0.269027776               0.000000000              -0.069282695              -0.292124999               0.000000000              -0.075473506              -0.315222221               0.000000000              -0.081664318              -0.338319444               0.000000000              -0.087855130              -0.361416666               0.000000000              -0.094045942              -0.384513888               0.000000000              -0.100236753              -0.407611111               0.000000000              -0.106427565              -0.430708333               0.000000000              -0.112618377              -0.453805555               0.000000000              -0.118809188              -0.476902778               0.000000000              -0.125000000              -0.500000000               0.000000000              -0.013036280              -0.132359569               0.000000000              -0.016127762              -0.155337096               0.000000000              -0.019219245              -0.178314623               0.000000000              -0.022310727              -0.201292150               0.000000000              -0.025402210              -0.224269676               0.000000000              -0.028493692              -0.247247203               0.000000000              -0.031585175              -0.270224730               0.000000000              -0.034676657              -0.293202257               0.000000000              -0.037768140              -0.316179784               0.000000000              -0.040859622              -0.339157311               0.000000000              -0.043951105              -0.362134838               0.000000000              -0.047042587              -0.385112365               0.000000000              -0.050134070              -0.408089892               0.000000000              -0.053225552              -0.431067419               0.000000000              -0.056317035              -0.454044946               0.000000000              -0.059408517              -0.477022473               0.000000000              -0.062500000              -0.500000000               0.000000000               0.000000000              -0.133000000               0.000000000               0.000000000              -0.155937500               0.000000000               0.000000000              -0.178875000               0.000000000               0.000000000              -0.201812500               0.000000000               0.000000000              -0.224750000               0.000000000               0.000000000              -0.247687500               0.000000000               0.000000000              -0.270625000               0.000000000               0.000000000              -0.293562500               0.000000000               0.000000000              -0.316500000               0.000000000               0.000000000              -0.339437500               0.000000000               0.000000000              -0.362375000               0.000000000               0.000000000              -0.385312500               0.000000000               0.000000000              -0.408250000               0.000000000               0.000000000              -0.431187500               0.000000000               0.000000000              -0.454125000               0.000000000               0.000000000              -0.477062500               0.000000000               0.000000000              -0.500000000               0.000000000              -0.133000000               0.000000000               0.000000000              -0.155937500               0.000000000               0.000000000              -0.178875000               0.000000000               0.000000000              -0.201812500               0.000000000               0.000000000              -0.224750000               0.000000000               0.000000000              -0.247687500               0.000000000               0.000000000              -0.270625000               0.000000000               0.000000000              -0.293562500               0.000000000               0.000000000              -0.316500000               0.000000000               0.000000000              -0.339437500               0.000000000               0.000000000              -0.362375000               0.000000000               0.000000000              -0.385312500               0.000000000               0.000000000              -0.408250000               0.000000000               0.000000000              -0.431187500               0.000000000               0.000000000              -0.454125000               0.000000000               0.000000000              -0.477062500               0.000000000               0.000000000              -0.500000000               0.000000000               0.000000000              -0.132359569               0.013036280               0.000000000              -0.155337096               0.016127762               0.000000000              -0.178314623               0.019219245               0.000000000              -0.201292150               0.022310727               0.000000000              -0.224269676               0.025402210               0.000000000              -0.247247203               0.028493692               0.000000000              -0.270224730               0.031585175               0.000000000              -0.293202257               0.034676657               0.000000000              -0.316179784               0.037768140               0.000000000              -0.339157311               0.040859622               0.000000000              -0.362134838               0.043951105               0.000000000              -0.385112365               0.047042587               0.000000000              -0.408089892               0.050134070               0.000000000              -0.431067419               0.053225552               0.000000000              -0.454044946               0.056317035               0.000000000              -0.477022473               0.059408517               0.000000000              -0.500000000               0.062500000               0.000000000              -0.130444442               0.025947013               0.000000000              -0.153541665               0.032137825               0.000000000              -0.176638887               0.038328636               0.000000000              -0.199736109               0.044519448               0.000000000              -0.222833332               0.050710260               0.000000000              -0.245930554               0.056901071               0.000000000              -0.269027776               0.063091883               0.000000000              -0.292124999               0.069282695               0.000000000              -0.315222221               0.075473506               0.000000000              -0.338319444               0.081664318               0.000000000              -0.361416666               0.087855130               0.000000000              -0.384513888               0.094045942               0.000000000              -0.407611111               0.100236753               0.000000000              -0.430708333               0.106427565               0.000000000              -0.453805555               0.112618377               0.000000000              -0.476902778               0.118809188               0.000000000              -0.500000000               0.125000000               0.000000000              -0.127273065               0.038607862               0.000000000              -0.150568498               0.047913621               0.000000000              -0.173863932               0.057219379               0.000000000              -0.197159365               0.066525138               0.000000000              -0.220454798               0.075830897               0.000000000              -0.243750232               0.085136655               0.000000000              -0.267045665               0.094442414               0.000000000              -0.290341099               0.103748172               0.000000000              -0.313636532               0.113053931               0.000000000              -0.336931966               0.122359690               0.000000000              -0.360227399               0.131665448               0.000000000              -0.383522833               0.140971207               0.000000000              -0.406818266               0.150276966               0.000000000              -0.430113700               0.159582724               0.000000000              -0.453409133               0.168888483               0.000000000              -0.476704567               0.178194241               0.000000000              -0.500000000               0.187500000               0.000000000              -0.122875978               0.050896897               0.000000000              -0.146446229               0.063340840               0.000000000              -0.170016481               0.075784784               0.000000000              -0.193586732               0.088228728               0.000000000              -0.217156983               0.100672672               0.000000000              -0.240727235               0.113116616               0.000000000              -0.264297486               0.125560560               0.000000000              -0.287867738               0.138004504               0.000000000              -0.311437989               0.150448448               0.000000000              -0.335008240               0.162892392               0.000000000              -0.358578492               0.175336336               0.000000000              -0.382148743               0.187780280               0.000000000              -0.405718994               0.200224224               0.000000000              -0.429289246               0.212668168               0.000000000              -0.452859497               0.225112112               0.000000000              -0.476429749               0.237556056               0.000000000              -0.500000000               0.250000000               0.000000000              -0.117295528               0.062695766               0.000000000              -0.141214558               0.078308531               0.000000000              -0.165133587               0.093921295               0.000000000              -0.189052617               0.109534060               0.000000000              -0.212971646               0.125146824               0.000000000              -0.236890676               0.140759589               0.000000000              -0.260809705               0.156372354               0.000000000              -0.284728735               0.171985118               0.000000000              -0.308647764               0.187597883               0.000000000              -0.332566794               0.203210648               0.000000000              -0.356485823               0.218823412               0.000000000              -0.380404853               0.234436177               0.000000000              -0.404323882               0.250048941               0.000000000              -0.428242912               0.265661706               0.000000000              -0.452161941               0.281274471               0.000000000              -0.476080971               0.296887235               0.000000000              -0.500000000               0.312500000               0.000000000              -0.110585458               0.073890841               0.000000000              -0.134923867               0.092710163               0.000000000              -0.159262276               0.111529486               0.000000000              -0.183600685               0.130348808               0.000000000              -0.207939094               0.149168131               0.000000000              -0.232277503               0.167987453               0.000000000              -0.256615912               0.186806776               0.000000000              -0.280954320               0.205626098               0.000000000              -0.305292729               0.224445420               0.000000000              -0.329631138               0.243264743               0.000000000              -0.353969547               0.262084065               0.000000000              -0.378307956               0.280903388               0.000000000              -0.402646365               0.299722710               0.000000000              -0.426984773               0.318542033               0.000000000              -0.451323182               0.337361355               0.000000000              -0.475661591               0.356180678               0.000000000              -0.500000000               0.375000000               0.000000000              -0.102810390               0.084374307               0.000000000              -0.127634741               0.106444663               0.000000000              -0.152459092               0.128515018               0.000000000              -0.177283442               0.150585374               0.000000000              -0.202107793               0.172655730               0.000000000              -0.226932143               0.194726086               0.000000000              -0.251756494               0.216796442               0.000000000              -0.276580845               0.238866798               0.000000000              -0.301405195               0.260937153               0.000000000              -0.326229546               0.283007509               0.000000000              -0.351053896               0.305077865               0.000000000              -0.375878247               0.327148221               0.000000000              -0.400702598               0.349218577               0.000000000              -0.425526948               0.371288933               0.000000000              -0.450351299               0.393359288               0.000000000              -0.475175649               0.415429644               0.000000000              -0.500000000               0.437500000               0.000000000              -0.094045202               0.094045202               0.000000000              -0.119417377               0.119417377               0.000000000              -0.144789552               0.144789552               0.000000000              -0.170161727               0.170161727               0.000000000              -0.195533901               0.195533901               0.000000000              -0.220906076               0.220906076               0.000000000              -0.246278251               0.246278251               0.000000000              -0.271650426               0.271650426               0.000000000              -0.297022601               0.297022601               0.000000000              -0.322394776               0.322394776               0.000000000              -0.347766951               0.347766951               0.000000000              -0.373139126               0.373139126               0.000000000              -0.398511300               0.398511300               0.000000000              -0.423883475               0.423883475               0.000000000              -0.449255650               0.449255650               0.000000000              -0.474627825               0.474627825               0.000000000              -0.500000000               0.500000000               0.000000000              -0.084374307               0.102810390               0.000000000              -0.106444663               0.127634741               0.000000000              -0.128515018               0.152459092               0.000000000              -0.150585374               0.177283442               0.000000000              -0.172655730               0.202107793               0.000000000              -0.194726086               0.226932143               0.000000000              -0.216796442               0.251756494               0.000000000              -0.238866798               0.276580845               0.000000000              -0.260937153               0.301405195               0.000000000              -0.283007509               0.326229546               0.000000000              -0.305077865               0.351053896               0.000000000              -0.327148221               0.375878247               0.000000000              -0.349218577               0.400702598               0.000000000              -0.371288933               0.425526948               0.000000000              -0.393359288               0.450351299               0.000000000              -0.415429644               0.475175649               0.000000000              -0.437500000               0.500000000               0.000000000              -0.073890841               0.110585458               0.000000000              -0.092710163               0.134923867               0.000000000              -0.111529486               0.159262276               0.000000000              -0.130348808               0.183600685               0.000000000              -0.149168131               0.207939094               0.000000000              -0.167987453               0.232277503               0.000000000              -0.186806776               0.256615912               0.000000000              -0.205626098               0.280954320               0.000000000              -0.224445420               0.305292729               0.000000000              -0.243264743               0.329631138               0.000000000              -0.262084065               0.353969547               0.000000000              -0.280903388               0.378307956               0.000000000              -0.299722710               0.402646365               0.000000000              -0.318542033               0.426984773               0.000000000              -0.337361355               0.451323182               0.000000000              -0.356180678               0.475661591               0.000000000              -0.375000000               0.500000000               0.000000000              -0.062695766               0.117295528               0.000000000              -0.078308531               0.141214558               0.000000000              -0.093921295               0.165133587               0.000000000              -0.109534060               0.189052617               0.000000000              -0.125146824               0.212971646               0.000000000              -0.140759589               0.236890676               0.000000000              -0.156372354               0.260809705               0.000000000              -0.171985118               0.284728735               0.000000000              -0.187597883               0.308647764               0.000000000              -0.203210648               0.332566794               0.000000000              -0.218823412               0.356485823               0.000000000              -0.234436177               0.380404853               0.000000000              -0.250048941               0.404323882               0.000000000              -0.265661706               0.428242912               0.000000000              -0.281274471               0.452161941               0.000000000              -0.296887235               0.476080971               0.000000000              -0.312500000               0.500000000               0.000000000              -0.050896897               0.122875978               0.000000000              -0.063340840               0.146446229               0.000000000              -0.075784784               0.170016481               0.000000000              -0.088228728               0.193586732               0.000000000              -0.100672672               0.217156983               0.000000000              -0.113116616               0.240727235               0.000000000              -0.125560560               0.264297486               0.000000000              -0.138004504               0.287867738               0.000000000              -0.150448448               0.311437989               0.000000000              -0.162892392               0.335008240               0.000000000              -0.175336336               0.358578492               0.000000000              -0.187780280               0.382148743               0.000000000              -0.200224224               0.405718994               0.000000000              -0.212668168               0.429289246               0.000000000              -0.225112112               0.452859497               0.000000000              -0.237556056               0.476429749               0.000000000              -0.250000000               0.500000000               0.000000000              -0.038607862               0.127273065               0.000000000              -0.047913621               0.150568498               0.000000000              -0.057219379               0.173863932               0.000000000              -0.066525138               0.197159365               0.000000000              -0.075830897               0.220454798               0.000000000              -0.085136655               0.243750232               0.000000000              -0.094442414               0.267045665               0.000000000              -0.103748172               0.290341099               0.000000000              -0.113053931               0.313636532               0.000000000              -0.122359690               0.336931966               0.000000000              -0.131665448               0.360227399               0.000000000              -0.140971207               0.383522833               0.000000000              -0.150276966               0.406818266               0.000000000              -0.159582724               0.430113700               0.000000000              -0.168888483               0.453409133               0.000000000              -0.178194241               0.476704567               0.000000000              -0.187500000               0.500000000               0.000000000              -0.025947013               0.130444442               0.000000000              -0.032137825               0.153541665               0.000000000              -0.038328636               0.176638887               0.000000000              -0.044519448               0.199736109               0.000000000              -0.050710260               0.222833332               0.000000000              -0.056901071               0.245930554               0.000000000              -0.063091883               0.269027776               0.000000000              -0.069282695               0.292124999               0.000000000              -0.075473506               0.315222221               0.000000000              -0.081664318               0.338319444               0.000000000              -0.087855130               0.361416666               0.000000000              -0.094045942               0.384513888               0.000000000              -0.100236753               0.407611111               0.000000000              -0.106427565               0.430708333               0.000000000              -0.112618377               0.453805555               0.000000000              -0.118809188               0.476902778               0.000000000              -0.125000000               0.500000000               0.000000000              -0.013036280               0.132359569               0.000000000              -0.016127762               0.155337096               0.000000000              -0.019219245               0.178314623               0.000000000              -0.022310727               0.201292150               0.000000000              -0.025402210               0.224269676               0.000000000              -0.028493692               0.247247203               0.000000000              -0.031585175               0.270224730               0.000000000              -0.034676657               0.293202257               0.000000000              -0.037768140               0.316179784               0.000000000              -0.040859622               0.339157311               0.000000000              -0.043951105               0.362134838               0.000000000              -0.047042587               0.385112365               0.000000000              -0.050134070               0.408089892               0.000000000              -0.053225552               0.431067419               0.000000000              -0.056317035               0.454044946               0.000000000              -0.059408517               0.477022473               0.000000000              -0.062500000               0.500000000               0.000000000               0.000000000               0.133000000               0.000000000               0.000000000               0.155937500               0.000000000               0.000000000               0.178875000               0.000000000               0.000000000               0.201812500               0.000000000               0.000000000               0.224750000               0.000000000               0.000000000               0.247687500               0.000000000               0.000000000               0.270625000               0.000000000               0.000000000               0.293562500               0.000000000               0.000000000               0.316500000               0.000000000               0.000000000               0.339437500               0.000000000               0.000000000               0.362375000               0.000000000               0.000000000               0.385312500               0.000000000               0.000000000               0.408250000               0.000000000               0.000000000               0.431187500               0.000000000               0.000000000               0.454125000               0.000000000               0.000000000               0.477062500               0.000000000               0.000000000               0.500000000               0.000000000 </DataArray>
</Points>
<Cells>
<DataArray type="Int32"                                    Name="connectivity"                                                      NumberOfComponents=" 1" format="ascii">
         0          1         18         17          1          2         19         18          2          3         20         19          3          4         21         20          4          5         22         21          5          6         23         22          6          7         24         23          7          8         25         24          8          9         26         25          9         10         27         26         10         11         28         27         11         12         29         28         12         13         30         29         13         14         31         30         14         15         32         31         15         16         33         32         17         18         35         34         18         19         36         35         19         20         37         36         20         21         38         37         21         22         39         38         22         23         40         39         23         24         41         40         24         25         42         41         25         26         43         42         26         27         44         43         27         28         45         44         28         29         46         45         29         30         47         46         30         31         48         47         31         32         49         48         32         33         50         49         34         35         52         51         35         36         53         52         36         37         54         53         37         38         55         54         38         39         56         55         39         40         57         56         40         41         58         57         41         42         59         58         42         43         60         59         43         44         61         60         44         45         62         61         45         46         63         62         46         47         64         63         47         48         65         64         48         49         66         65         49         50         67         66         51         52         69         68         52         53         70         69         53         54         71         70         54         55         72         71         55         56         73         72         56         57         74         73         57         58         75         74         58         59         76         75         59         60         77         76         60         61         78         77         61         62         79         78         62         63         80         79         63         64         81         80         64         65         82         81         65         66         83         82         66         67         84         83         68         69         86         85         69         70         87         86         70         71         88         87         71         72         89         88         72         73         90         89         73         74         91         90         74         75         92         91         75         76         93         92         76         77         94         93         77         78         95         94         78         79         96         95         79         80         97         96         80         81         98         97         81         82         99         98         82         83        100         99         83         84        101        100         85         86        103        102         86         87        104        103         87         88        105        104         88         89        106        105         89         90        107        106         90         91        108        107         91         92        109        108         92         93        110        109         93         94        111        110         94         95        112        111         95         96        113        112         96         97        114        113         97         98        115        114         98         99        116        115         99        100        117        116        100        101        118        117        102        103        120        119        103        104        121        120        104        105        122        121        105        106        123        122        106        107        124        123        107        108        125        124        108        109        126        125        109        110        127        126        110        111        128        127        111        112        129        128        112        113        130        129        113        114        131        130        114        115        132        131        115        116        133        132        116        117        134        133        117        118        135        134        119        120        137        136        120        121        138        137        121        122        139        138        122        123        140        139        123        124        141        140        124        125        142        141        125        126        143        142        126        127        144        143        127        128        145        144        128        129        146        145        129        130        147        146        130        131        148        147        131        132        149        148        132        133        150        149        133        134        151        150        134        135        152        151        136        137        154        153        137        138        155        154        138        139        156        155        139        140        157        156        140        141        158        157        141        142        159        158        142        143        160        159        143        144        161        160        144        145        162        161        145        146        163        162        146        147        164        163        147        148        165        164        148        149        166        165        149        150        167        166        150        151        168        167        151        152        169        168        153        154        171        170        154        155        172        171        155        156        173        172        156        157        174        173        157        158        175        174        158        159        176        175        159        160        177        176        160        161        178        177        161        162        179        178        162        163        180        179        163        164        181        180        164        165        182        181        165        166        183        182        166        167        184        183        167        168        185        184        168        169        186        185        170        171        188        187        171        172        189        188        172        173        190        189        173        174        191        190        174        175        192        191        175        176        193        192        176        177        194        193        177        178        195        194        178        179        196        195        179        180        197        196        180        181        198        197        181        182        199        198        182        183        200        199        183        184        201        200        184        185        202        201        185        186        203        202        187        188        205        204        188        189        206        205        189        190        207        206        190        191        208        207        191        192        209        208        192        193        210        209        193        194        211        210        194        195        212        211        195        196        213        212        196        197        214        213        197        198        215        214        198        199        216        215        199        200        217        216        200        201        218        217        201        202        219        218        202        203        220        219        204        205        222        221        205        206        223        222        206        207        224        223        207        208        225        224        208        209        226        225        209        210        227        226        210        211        228        227        211        212        229        228        212        213        230        229        213        214        231        230        214        215        232        231        215        216        233        232        216        217        234        233        217        218        235        234        218        219        236        235        219        220        237        236        221        222        239        238        222        223        240        239        223        224        241        240        224        225        242        241        225        226        243        242        226        227        244        243        227        228        245        244        228        229        246        245        229        230        247        246        230        231        248        247        231        232        249        248        232        233        250        249        233        234        251        250        234        235        252        251        235        236        253        252        236        237        254        253        238        239        256        255        239        240        257        256        240        241        258        257        241        242        259        258        242        243        260        259        243        244        261        260        244        245        262        261        245        246        263        262        246        247        264        263        247        248        265        264        248        249        266        265        249        250        267        266        250        251        268        267        251        252        269        268        252        253        270        269        253        254        271        270        255        256        273        272        256        257        274        273        257        258        275        274        258        259        276        275        259        260        277        276        260        261        278        277        261        262        279        278        262        263        280        279        263        264        281        280        264        265        282        281        265        266        283        282        266        267        284        283        267        268        285        284        268        269        286        285        269        270        287        286        270        271        288        287        306        307          1          0        307        308          2          1        308        309          3          2        309        310          4          3        310        311          5          4        311        312          6          5        312        313          7          6        313        314          8          7        314        315          9          8        315        316         10          9        316        317         11         10        317        318         12         11        318        319         13         12        319        320         14         13        320        321         15         14        321        322         16         15        323        324        307        306        324        325        308        307        325        326        309        308        326        327        310        309        327        328        311        310        328        329        312        311        329        330        313        312        330        331        314        313        331        332        315        314        332        333        316        315        333        334        317        316        334        335        318        317        335        336        319        318        336        337        320        319        337        338        321        320        338        339        322        321        340        341        324        323        341        342        325        324        342        343        326        325        343        344        327        326        344        345        328        327        345        346        329        328        346        347        330        329        347        348        331        330        348        349        332        331        349        350        333        332        350        351        334        333        351        352        335        334        352        353        336        335        353        354        337        336        354        355        338        337        355        356        339        338        357        358        341        340        358        359        342        341        359        360        343        342        360        361        344        343        361        362        345        344        362        363        346        345        363        364        347        346        364        365        348        347        365        366        349        348        366        367        350        349        367        368        351        350        368        369        352        351        369        370        353        352        370        371        354        353        371        372        355        354        372        373        356        355        374        375        358        357        375        376        359        358        376        377        360        359        377        378        361        360        378        379        362        361        379        380        363        362        380        381        364        363        381        382        365        364        382        383        366        365        383        384        367        366        384        385        368        367        385        386        369        368        386        387        370        369        387        388        371        370        388        389        372        371        389        390        373        372        391        392        375        374        392        393        376        375        393        394        377        376        394        395        378        377        395        396        379        378        396        397        380        379        397        398        381        380        398        399        382        381        399        400        383        382        400        401        384        383        401        402        385        384        402        403        386        385        403        404        387        386        404        405        388        387        405        406        389        388        406        407        390        389        408        409        392        391        409        410        393        392        410        411        394        393        411        412        395        394        412        413        396        395        413        414        397        396        414        415        398        397        415        416        399        398        416        417        400        399        417        418        401        400        418        419        402        401        419        420        403        402        420        421        404        403        421        422        405        404        422        423        406        405        423        424        407        406        425        426        409        408        426        427        410        409        427        428        411        410        428        429        412        411        429        430        413        412        430        431        414        413        431        432        415        414        432        433        416        415        433        434        417        416        434        435        418        417        435        436        419        418        436        437        420        419        437        438        421        420        438        439        422        421        439        440        423        422        440        441        424        423        442        443        426        425        443        444        427        426        444        445        428        427        445        446        429        428        446        447        430        429        447        448        431        430        448        449        432        431        449        450        433        432        450        451        434        433        451        452        435        434        452        453        436        435        453        454        437        436        454        455        438        437        455        456        439        438        456        457        440        439        457        458        441        440        459        460        443        442        460        461        444        443        461        462        445        444        462        463        446        445        463        464        447        446        464        465        448        447        465        466        449        448        466        467        450        449        467        468        451        450        468        469        452        451        469        470        453        452        470        471        454        453        471        472        455        454        472        473        456        455        473        474        457        456        474        475        458        457        476        477        460        459        477        478        461        460        478        479        462        461        479        480        463        462        480        481        464        463        481        482        465        464        482        483        466        465        483        484        467        466        484        485        468        467        485        486        469        468        486        487        470        469        487        488        471        470        488        489        472        471        489        490        473        472        490        491        474        473        491        492        475        474        493        494        477        476        494        495        478        477        495        496        479        478        496        497        480        479        497        498        481        480        498        499        482        481        499        500        483        482        500        501        484        483        501        502        485        484        502        503        486        485        503        504        487        486        504        505        488        487        505        506        489        488        506        507        490        489        507        508        491        490        508        509        492        491        510        511        494        493        511        512        495        494        512        513        496        495        513        514        497        496        514        515        498        497        515        516        499        498        516        517        500        499        517        518        501        500        518        519        502        501        519        520        503        502        520        521        504        503        521        522        505        504        522        523        506        505        523        524        507        506        524        525        508        507        525        526        509        508        527        528        511        510        528        529        512        511        529        530        513        512        530        531        514        513        531        532        515        514        532        533        516        515        533        534        517        516        534        535        518        517        535        536        519        518        536        537        520        519        537        538        521        520        538        539        522        521        539        540        523        522        540        541        524        523        541        542        525        524        542        543        526        525        544        545        528        527        545        546        529        528        546        547        530        529        547        548        531        530        548        549        532        531        549        550        533        532        550        551        534        533        551        552        535        534        552        553        536        535        553        554        537        536        554        555        538        537        555        556        539        538        556        557        540        539        557        558        541        540        558        559        542        541        559        560        543        542        561        562        545        544        562        563        546        545        563        564        547        546        564        565        548        547        565        566        549        548        566        567        550        549        567        568        551        550        568        569        552        551        569        570        553        552        570        571        554        553        571        572        555        554        572        573        556        555        573        574        557        556        574        575        558        557        575        576        559        558        576        577        560        559        578        579        596        595        579        580        597        596        580        581        598        597        581        582        599        598        582        583        600        599        583        584        601        600        584        585        602        601        585        586        603        602        586        587        604        603        587        588        605        604        588        589        606        605        589        590        607        606        590        591        608        607        591        592        609        608        592        593        610        609        593        594        611        610        595        596        613        612        596        597        614        613        597        598        615        614        598        599        616        615        599        600        617        616        600        601        618        617        601        602        619        618        602        603        620        619        603        604        621        620        604        605        622        621        605        606        623        622        606        607        624        623        607        608        625        624        608        609        626        625        609        610        627        626        610        611        628        627        612        613        630        629        613        614        631        630        614        615        632        631        615        616        633        632        616        617        634        633        617        618        635        634        618        619        636        635        619        620        637        636        620        621        638        637        621        622        639        638        622        623        640        639        623        624        641        640        624        625        642        641        625        626        643        642        626        627        644        643        627        628        645        644        629        630        647        646        630        631        648        647        631        632        649        648        632        633        650        649        633        634        651        650        634        635        652        651        635        636        653        652        636        637        654        653        637        638        655        654        638        639        656        655        639        640        657        656        640        641        658        657        641        642        659        658        642        643        660        659        643        644        661        660        644        645        662        661        646        647        664        663        647        648        665        664        648        649        666        665        649        650        667        666        650        651        668        667        651        652        669        668        652        653        670        669        653        654        671        670        654        655        672        671        655        656        673        672        656        657        674        673        657        658        675        674        658        659        676        675        659        660        677        676        660        661        678        677        661        662        679        678        663        664        681        680        664        665        682        681        665        666        683        682        666        667        684        683        667        668        685        684        668        669        686        685        669        670        687        686        670        671        688        687        671        672        689        688        672        673        690        689        673        674        691        690        674        675        692        691        675        676        693        692        676        677        694        693        677        678        695        694        678        679        696        695        680        681        698        697        681        682        699        698        682        683        700        699        683        684        701        700        684        685        702        701        685        686        703        702        686        687        704        703        687        688        705        704        688        689        706        705        689        690        707        706        690        691        708        707        691        692        709        708        692        693        710        709        693        694        711        710        694        695        712        711        695        696        713        712        697        698        715        714        698        699        716        715        699        700        717        716        700        701        718        717        701        702        719        718        702        703        720        719        703        704        721        720        704        705        722        721        705        706        723        722        706        707        724        723        707        708        725        724        708        709        726        725        709        710        727        726        710        711        728        727        711        712        729        728        712        713        730        729        714        715        732        731        715        716        733        732        716        717        734        733        717        718        735        734        718        719        736        735        719        720        737        736        720        721        738        737        721        722        739        738        722        723        740        739        723        724        741        740        724        725        742        741        725        726        743        742        726        727        744        743        727        728        745        744        728        729        746        745        729        730        747        746        731        732        749        748        732        733        750        749        733        734        751        750        734        735        752        751        735        736        753        752        736        737        754        753        737        738        755        754        738        739        756        755        739        740        757        756        740        741        758        757        741        742        759        758        742        743        760        759        743        744        761        760        744        745        762        761        745        746        763        762        746        747        764        763        748        749        766        765        749        750        767        766        750        751        768        767        751        752        769        768        752        753        770        769        753        754        771        770        754        755        772        771        755        756        773        772        756        757        774        773        757        758        775        774        758        759        776        775        759        760        777        776        760        761        778        777        761        762        779        778        762        763        780        779        763        764        781        780        765        766        783        782        766        767        784        783        767        768        785        784        768        769        786        785        769        770        787        786        770        771        788        787        771        772        789        788        772        773        790        789        773        774        791        790        774        775        792        791        775        776        793        792        776        777        794        793        777        778        795        794        778        779        796        795        779        780        797        796        780        781        798        797        782        783        800        799        783        784        801        800        784        785        802        801        785        786        803        802        786        787        804        803        787        788        805        804        788        789        806        805        789        790        807        806        790        791        808        807        791        792        809        808        792        793        810        809        793        794        811        810        794        795        812        811        795        796        813        812        796        797        814        813        797        798        815        814        799        800        817        816        800        801        818        817        801        802        819        818        802        803        820        819        803        804        821        820        804        805        822        821        805        806        823        822        806        807        824        823        807        808        825        824        808        809        826        825        809        810        827        826        810        811        828        827        811        812        829        828        812        813        830        829        813        814        831        830        814        815        832        831        816        817        834        833        817        818        835        834        818        819        836        835        819        820        837        836        820        821        838        837        821        822        839        838        822        823        840        839        823        824        841        840        824        825        842        841        825        826        843        842        826        827        844        843        827        828        845        844        828        829        846        845        829        830        847        846        830        831        848        847        831        832        849        848        833        834        562        561        834        835        563        562        835        836        564        563        836        837        565        564        837        838        566        565        838        839        567        566        839        840        568        567        840        841        569        568        841        842        570        569        842        843        571        570        843        844        572        571        844        845        573        572        845        846        574        573        846        847        575        574        847        848        576        575        848        849        577        576        884        885        579        578        885        886        580        579        886        887        581        580        887        888        582        581        888        889        583        582        889        890        584        583        890        891        585        584        891        892        586        585        892        893        587        586        893        894        588        587        894        895        589        588        895        896        590        589        896        897        591        590        897        898        592        591        898        899        593        592        899        900        594        593        901        902        885        884        902        903        886        885        903        904        887        886        904        905        888        887        905        906        889        888        906        907        890        889        907        908        891        890        908        909        892        891        909        910        893        892        910        911        894        893        911        912        895        894        912        913        896        895        913        914        897        896        914        915        898        897        915        916        899        898        916        917        900        899        918        919        902        901        919        920        903        902        920        921        904        903        921        922        905        904        922        923        906        905        923        924        907        906        924        925        908        907        925        926        909        908        926        927        910        909        927        928        911        910        928        929        912        911        929        930        913        912        930        931        914        913        931        932        915        914        932        933        916        915        933        934        917        916        935        936        919        918        936        937        920        919        937        938        921        920        938        939        922        921        939        940        923        922        940        941        924        923        941        942        925        924        942        943        926        925        943        944        927        926        944        945        928        927        945        946        929        928        946        947        930        929        947        948        931        930        948        949        932        931        949        950        933        932        950        951        934        933        952        953        936        935        953        954        937        936        954        955        938        937        955        956        939        938        956        957        940        939        957        958        941        940        958        959        942        941        959        960        943        942        960        961        944        943        961        962        945        944        962        963        946        945        963        964        947        946        964        965        948        947        965        966        949        948        966        967        950        949        967        968        951        950        969        970        953        952        970        971        954        953        971        972        955        954        972        973        956        955        973        974        957        956        974        975        958        957        975        976        959        958        976        977        960        959        977        978        961        960        978        979        962        961        979        980        963        962        980        981        964        963        981        982        965        964        982        983        966        965        983        984        967        966        984        985        968        967        986        987        970        969        987        988        971        970        988        989        972        971        989        990        973        972        990        991        974        973        991        992        975        974        992        993        976        975        993        994        977        976        994        995        978        977        995        996        979        978        996        997        980        979        997        998        981        980        998        999        982        981        999       1000        983        982       1000       1001        984        983       1001       1002        985        984       1003       1004        987        986       1004       1005        988        987       1005       1006        989        988       1006       1007        990        989       1007       1008        991        990       1008       1009        992        991       1009       1010        993        992       1010       1011        994        993       1011       1012        995        994       1012       1013        996        995       1013       1014        997        996       1014       1015        998        997       1015       1016        999        998       1016       1017       1000        999       1017       1018       1001       1000       1018       1019       1002       1001       1020       1021       1004       1003       1021       1022       1005       1004       1022       1023       1006       1005       1023       1024       1007       1006       1024       1025       1008       1007       1025       1026       1009       1008       1026       1027       1010       1009       1027       1028       1011       1010       1028       1029       1012       1011       1029       1030       1013       1012       1030       1031       1014       1013       1031       1032       1015       1014       1032       1033       1016       1015       1033       1034       1017       1016       1034       1035       1018       1017       1035       1036       1019       1018       1037       1038       1021       1020       1038       1039       1022       1021       1039       1040       1023       1022       1040       1041       1024       1023       1041       1042       1025       1024       1042       1043       1026       1025       1043       1044       1027       1026       1044       1045       1028       1027       1045       1046       1029       1028       1046       1047       1030       1029       1047       1048       1031       1030       1048       1049       1032       1031       1049       1050       1033       1032       1050       1051       1034       1033       1051       1052       1035       1034       1052       1053       1036       1035       1054       1055       1038       1037       1055       1056       1039       1038       1056       1057       1040       1039       1057       1058       1041       1040       1058       1059       1042       1041       1059       1060       1043       1042       1060       1061       1044       1043       1061       1062       1045       1044       1062       1063       1046       1045       1063       1064       1047       1046       1064       1065       1048       1047       1065       1066       1049       1048       1066       1067       1050       1049       1067       1068       1051       1050       1068       1069       1052       1051       1069       1070       1053       1052       1071       1072       1055       1054       1072       1073       1056       1055       1073       1074       1057       1056       1074       1075       1058       1057       1075       1076       1059       1058       1076       1077       1060       1059       1077       1078       1061       1060       1078       1079       1062       1061       1079       1080       1063       1062       1080       1081       1064       1063       1081       1082       1065       1064       1082       1083       1066       1065       1083       1084       1067       1066       1084       1085       1068       1067       1085       1086       1069       1068       1086       1087       1070       1069       1088       1089       1072       1071       1089       1090       1073       1072       1090       1091       1074       1073       1091       1092       1075       1074       1092       1093       1076       1075       1093       1094       1077       1076       1094       1095       1078       1077       1095       1096       1079       1078       1096       1097       1080       1079       1097       1098       1081       1080       1098       1099       1082       1081       1099       1100       1083       1082       1100       1101       1084       1083       1101       1102       1085       1084       1102       1103       1086       1085       1103       1104       1087       1086       1105       1106       1089       1088       1106       1107       1090       1089       1107       1108       1091       1090       1108       1109       1092       1091       1109       1110       1093       1092       1110       1111       1094       1093       1111       1112       1095       1094       1112       1113       1096       1095       1113       1114       1097       1096       1114       1115       1098       1097       1115       1116       1099       1098       1116       1117       1100       1099       1117       1118       1101       1100       1118       1119       1102       1101       1119       1120       1103       1102       1120       1121       1104       1103       1122       1123       1106       1105       1123       1124       1107       1106       1124       1125       1108       1107       1125       1126       1109       1108       1126       1127       1110       1109       1127       1128       1111       1110       1128       1129       1112       1111       1129       1130       1113       1112       1130       1131       1114       1113       1131       1132       1115       1114       1132       1133       1116       1115       1133       1134       1117       1116       1134       1135       1118       1117       1135       1136       1119       1118       1136       1137       1120       1119       1137       1138       1121       1120        272        273       1123       1122        273        274       1124       1123        274        275       1125       1124        275        276       1126       1125        276        277       1127       1126        277        278       1128       1127        278        279       1129       1128        279        280       1130       1129        280        281       1131       1130        281        282       1132       1131        282        283       1133       1132        283        284       1134       1133        284        285       1135       1134        285        286       1136       1135        286        287       1137       1136        287        288       1138       1137 </DataArray>
<DataArray type="Int32"                                    Name="offsets"                                                      NumberOfComponents=" 1" format="ascii">
         4          8         12         16         20         24         28         32         36         40         44         48         52         56         60         64         68         72         76         80         84         88         92         96        100        104        108        112        116        120        124        128        132        136        140        144        148        152        156        160        164        168        172        176        180        184        188        192        196        200        204        208        212        216        220        224        228        232        236        240        244        248        252        256        260        264        268        272        276        280        284        288        292        296        300        304        308        312        316        320        324        328        332        336        340        344        348        352        356        360        364        368        372        376        380        384        388        392        396        400        404        408        412        416        420        424        428        432        436        440        444        448        452        456        460        464        468        472        476        480        484        488        492        496        500        504        508        512        516        520        524        528        532        536        540        544        548        552        556        560        564        568        572        576        580        584        588        592        596        600        604        608        612        616        620        624        628        632        636        640        644        648        652        656        660        664        668        672        676        680        684        688        692        696        700        704        708        712        716        720        724        728        732        736        740        744        748        752        756        760        764        768        772        776        780        784        788        792        796        800        804        808        812        816        820        824        828        832        836        840        844        848        852        856        860        864        868        872        876        880        884        888        892        896        900        904        908        912        916        920        924        928        932        936        940        944        948        952        956        960        964        968        972        976        980        984        988        992        996       1000       1004       1008       1012       1016       1020       1024       1028       1032       1036       1040       1044       1048       1052       1056       1060       1064       1068       1072       1076       1080       1084       1088       1092       1096       1100       1104       1108       1112       1116       1120       1124       1128       1132       1136       1140       1144       1148       1152       1156       1160       1164       1168       1172       1176       1180       1184       1188       1192       1196       1200       1204       1208       1212       1216       1220       1224       1228       1232       1236       1240       1244       1248       1252       1256       1260       1264       1268       1272       1276       1280       1284       1288       1292       1296       1300       1304       1308       1312       1316       1320       1324       1328       1332       1336       1340       1344       1348       1352       1356       1360       1364       1368       1372       1376       1380       1384       1388       1392       1396       1400       1404       1408       1412       1416       1420       1424       1428       1432       1436       1440       1444       1448       1452       1456       1460       1464       1468       1472       1476       1480       1484       1488       1492       1496       1500       1504       1508       1512       1516       1520       1524       1528       1532       1536       1540       1544       1548       1552       1556       1560       1564       1568       1572       1576       1580       1584       1588       1592       1596       1600       1604       1608       1612       1616       1620       1624       1628       1632       1636       1640       1644       1648       1652       1656       1660       1664       1668       1672       1676       1680       1684       1688       1692       1696       1700       1704       1708       1712       1716       1720       1724       1728       1732       1736       1740       1744       1748       1752       1756       1760       1764       1768       1772       1776       1780       1784       1788       1792       1796       1800       1804       1808       1812       1816       1820       1824       1828       1832       1836       1840       1844       1848       1852       1856       1860       1864       1868       1872       1876       1880       1884       1888       1892       1896       1900       1904       1908       1912       1916       1920       1924       1928       1932       1936       1940       1944       1948       1952       1956       1960       1964       1968       1972       1976       1980       1984       1988       1992       1996       2000       2004       2008       2012       2016       2020       2024       2028       2032       2036       2040       2044       2048       2052       2056       2060       2064       2068       2072       2076       2080       2084       2088       2092       2096       2100       2104       2108       2112       2116       2120       2124       2128       2132       2136       2140       2144       2148       2152       2156       2160       2164       2168       2172       2176       2180       2184       2188       2192       2196       2200       2204       2208       2212       2216       2220       2224       2228       2232       2236       2240       2244       2248       2252       2256       2260       2264       2268       2272       2276       2280       2284       2288       2292       2296       2300       2304       2308       2312       2316       2320       2324       2328       2332       2336       2340       2344       2348       2352       2356       2360       2364       2368       2372       2376       2380       2384       2388       2392       2396       2400       2404       2408       2412       2416       2420       2424       2428       2432       2436       2440       2444       2448       2452       2456       2460       2464       2468       2472       2476       2480       2484       2488       2492       2496       2500       2504       2508       2512       2516       2520       2524       2528       2532       2536       2540       2544       2548       2552       2556       2560       2564       2568       2572       2576       2580       2584       2588       2592       2596       2600       2604       2608       2612       2616       2620       2624       2628       2632       2636       2640       2644       2648       2652       2656       2660       2664       2668       2672       2676       2680       2684       2688       2692       2696       2700       2704       2708       2712       2716       2720       2724       2728       2732       2736       2740       2744       2748       2752       2756       2760       2764       2768       2772       2776       2780       2784       2788       2792       2796       2800       2804       2808       2812       2816       2820       2824       2828       2832       2836       2840       2844       2848       2852       2856       2860       2864       2868       2872       2876       2880       2884       2888       2892       2896       2900       2904       2908       2912       2916       2920       2924       2928       2932       2936       2940       2944       2948       2952       2956       2960       2964       2968       2972       2976       2980       2984       2988       2992       2996       3000       3004       3008       3012       3016       3020       3024       3028       3032       3036       3040       3044       3048       3052       3056       3060       3064       3068       3072       3076       3080       3084       3088       3092       3096       3100       3104       3108       3112       3116       3120       3124       3128       3132       3136       3140       3144       3148       3152       3156       3160       3164       3168       3172       3176       3180       3184       3188       3192       3196       3200       3204       3208       3212       3216       3220       3224       3228       3232       3236       3240       3244       3248       3252       3256       3260       3264       3268       3272       3276       3280       3284       3288       3292       3296       3300       3304       3308       3312       3316       3320       3324       3328       3332       3336       3340       3344       3348       3352       3356       3360       3364       3368       3372       3376       3380       3384       3388       3392       3396       3400       3404       3408       3412       3416       3420       3424       3428       3432       3436       3440       3444       3448       3452       3456       3460       3464       3468       3472       3476       3480       3484       3488       3492       3496       3500       3504       3508       3512       3516       3520       3524       3528       3532       3536       3540       3544       3548       3552       3556       3560       3564       3568       3572       3576       3580       3584       3588       3592       3596       3600       3604       3608       3612       3616       3620       3624       3628       3632       3636       3640       3644       3648       3652       3656       3660       3664       3668       3672       3676       3680       3684       3688       3692       3696       3700       3704       3708       3712       3716       3720       3724       3728       3732       3736       3740       3744       3748       3752       3756       3760       3764       3768       3772       3776       3780       3784       3788       3792       3796       3800       3804       3808       3812       3816       3820       3824       3828       3832       3836       3840       3844       3848       3852       3856       3860       3864       3868       3872       3876       3880       3884       3888       3892       3896       3900       3904       3908       3912       3916       3920       3924       3928       3932       3936       3940       3944       3948       3952       3956       3960       3964       3968       3972       3976       3980       3984       3988       3992       3996       4000       4004       4008       4012       4016       4020       4024       4028       4032       4036       4040       4044       4048       4052       4056       4060       4064       4068       4072       4076       4080       4084       4088       4092       4096 </DataArray>
<DataArray type="UInt8"                                    Name="types"                                                      NumberOfComponents=" 1" format="ascii">
         9          9          9          9          9          9          9          9          9          9          9          9          9          9          9          9          9          9          9          9          9          9          9          9          9          9          9          9          9          9          9          9          9          9          9          9          9          9          9          9          9          9          9          9          9          9          9          9          9          9          9          9          9          9          9          9          9          9          9          9          9          9          9          9          9          9          9          9          9          9          9          9          9          9          9          9          9          9          9          9          9          9          9          9          9          9          9          9          9          9          9          9          9          9          9          9          9          9          9          9          9          9          9          9          9          9          9          9          9          9          9          9          9          9          9          9          9          9          9          9          9          9          9          9          9          9          9          9          9          9          9          9          9          9          9          9          9          9          9          9          9          9          9          9          9          9          9          9          9          9          9          9          9          9          9          9          9          9          9          9          9          9          9          9          9          9          9          9          9          9          9          9          9          9          9          9          9          9          9          9          9          9          9          9          9          9          9          9          9          9          9          9          9          9          9          9          9          9          9          9          9          9          9          9          9          9          9          9          9          9          9          9          9          9          9          9          9          9          9          9          9          9          9          9          9          9          9          9          9          9          9          9          9          9          9          9          9          9          9          9          9          9          9          9          9          9          9          9          9          9          9          9          9          9          9          9          9          9          9          9          9          9          9          9          9          9          9          9          9          9          9          9          9          9          9          9          9          9          9          9          9          9          9          9          9          9          9          9          9          9          9          9          9          9          9          9          9          9          9          9          9          9          9          9          9          9          9          9          9          9          9          9          9          9          9          9          9          9          9          9          9          9          9          9          9          9          9          9          9          9          9          9          9          9          9          9          9          9          9          9          9          9          9          9          9          9          9          9          9          9          9          9          9          9          9          9          9          9          9          9          9          9          9          9          9          9          9          9          9          9          9          9          9          9          9          9          9          9          9          9          9          9          9          9          9          9          9          9          9          9          9          9          9          9          9          9          9          9          9          9          9          9          9          9          9          9          9          9          9          9          9          9          9          9          9          9          9          9          9          9          9          9          9          9          9          9          9          9          9          9          9          9          9          9          9          9          9          9          9          9          9          9          9          9          9          9          9          9          9          9          9          9          9          9          9          9          9          9          9          9          9          9          9          9          9          9          9          9          9          9          9          9          9          9          9          9          9          9          9          9          9          9          9          9          9          9          9          9          9          9          9          9          9          9          9          9          9          9          9          9          9          9          9          9          9          9          9          9          9          9          9          9          9          9          9          9          9          9          9          9          9          9          9          9          9          9          9          9          9          9          9          9          9          9          9          9          9          9          9          9          9          9          9          9          9          9          9          9          9          9          9          9          9          9          9          9          9          9          9          9          9          9          9          9          9          9          9          9          9          9          9          9          9          9          9          9          9          9          9          9          9          9          9          9          9          9          9          9          9          9          9          9          9          9          9          9          9          9          9          9          9          9          9          9          9          9          9          9          9          9          9          9          9          9          9          9          9          9          9          9          9          9          9          9          9          9          9          9          9          9          9          9          9          9          9          9          9          9          9          9          9          9          9          9          9          9          9          9          9          9          9          9          9          9          9          9          9          9          9          9          9          9          9          9          9          9          9          9          9          9          9          9          9          9          9          9          9          9          9          9          9          9          9          9          9          9          9          9          9          9          9          9          9          9          9          9          9          9          9          9          9          9          9          9          9          9          9          9          9          9          9          9          9          9          9          9          9          9          9          9          9          9          9          9          9          9          9          9          9          9          9          9          9          9          9          9          9          9          9          9          9          9          9          9          9          9          9          9          9          9          9          9          9          9          9          9          9          9          9          9          9          9          9          9          9          9          9          9          9          9          9          9          9          9          9          9          9          9          9          9          9          9          9          9          9          9          9          9          9          9          9          9          9          9          9          9          9          9          9          9          9          9          9          9          9          9          9          9          9          9          9          9          9          9          9          9          9          9          9          9          9          9          9          9          9          9          9          9          9          9          9          9          9          9          9          9          9          9          9          9          9          9          9          9          9          9          9          9          9          9          9          9          9          9          9          9          9          9          9          9          9          9          9          9          9          9          9          9          9          9          9          9          9          9          9          9          9          9          9          9          9          9          9          9          9          9          9          9          9          9          9          9          9          9          9          9          9          9          9          9          9          9          9          9          9          9          9          9          9          9          9          9          9          9          9          9          9          9          9          9          9          9          9          9          9          9          9          9          9          9          9          9          9          9          9          9          9          9          9          9          9          9          9          9          9          9          9          9          9          9          9          9          9          9          9          9          9          9          9          9          9          9          9          9          9          9          9          9          9          9          9          9          9          9          9          9          9          9          9          9          9          9          9          9          9          9          9          9          9          9          9          9          9          9          9          9          9          9          9          9          9          9          9          9          9          9          9          9          9          9          9          9          9          9          9          9          9          9          9          9          9          9          9          9 </DataArray>
</Cells>
<CellData>
<DataArray type="Int32"                                    Name="material"                                                      NumberOfComponents=" 1" format="ascii">
         1          1          1          1          1          1          1          1          1          1          1          1          1          1          1          1          1          1          1          1          1          1          1          1          1          1          1          1          1          1          1          1          1          1          1          1          1          1          1          1          1          1          1          1          1          1          1          1          1          1          1          1          1          1          1          1          1          1          1          1          1          1          1          1          1          1          1          1          1          1          1          1          1          1          1          1          1          1          1          1          1          1          1          1          1          1          1          1          1          1          1          1          1          1          1          1          1          1          1          1          1          1          1          1          1          1          1          1          1          1          1          1          1          1          1          1          1          1          1          1          1          1          1          1          1          1          1          1          1          1          1          1          1          1          1          1          1          1          1          1          1          1          1          1          1          1          1          1          1          1          1          1          1          1          1          1          1          1          1          1          1          1          1          1          1          1          1          1          1          1          1          1          1          1          1          1          1          1          1          1          1          1          1          1          1          1          1          1          1          1          1          1          1          1          1          1          1          1          1          1          1          1          1          1          1          1          1          1          1          1          1          1          1          1          1          1          1          1          1          1          1          1          1          1          1          1          1          1          1          1          1          1          1          1          1          1          1          1          1          1          1          1          1          1          1          1          1          1          1          1          1          1          1          1          1          1          1          1          1          1          1          1          1          1          1          1          1          1          1          1          1          1          1          1          1          1          1          1          1          1          1          1          1          1          1          1          1          1          1          1          1          1          1          1          1          1          1          1          1          1          1          1          1          1          1          1          1          1          1          1          1          1          1          1          1          1          1          1          1          1          1          1          1          1          1          1          1          1          1          1          1          1          1          1          1          1          1          1          1          1          1          1          1          1          1          1          1          1          1          1          1          1          1          1          1          1          1          1          1          1          1          1          1          1          1          1          1          1          1          1          1          1          1          1          1          1          1          1          1          1          1          1          1          1          1          1          1          1          1          1          1          1          1          1          1          1          1          1          1          1          1          1          1          1          1          1          1          1          1          1          1          1          1          1          1          1          1          1          1          1          1          1          1          1          1          1          1          1          1          1          1          1          1          1          1          1          1          1          1          1          1          1          1          1          1          1          1          1          1          1          1          1          1          1          1          1          1          1          1          1          1          1          1          1          1          1          1          1          1          1          1          1          1          1          1          1          1          1          1          1          1          1          1          1          1          1          1          1          1          1          1          1          1          1          1          1          1          1          1          1          1          1          1          1          1          1          1          1          1          1          1          1          1          1          1          1          1          1          1          1          1          1          1          1          1          1          1          1          1          1          1          1          1          1          1          1          1          1          1          1          1          1          1          1          1          1          1          1          1          1          1          1          1          1          1          1          1          1          1          1          1          1          1          1          1          1          1          1          1          1          1          1          1          1          1          1          1          1          1          1          1          1          1          1          1          1          1          1          1          1          1          1          1          1          1          1          1          1          1          1          1          1          1          1          1          1          1          1          1          1          1          1          1          1          1          1          1          1          1          1          1          1          1          1          1          1          1          1          1          1          1          1          1          1          1          1          1          1          1          1          1          1          1          1          1          1          1          1          1          1          1          1          1          1          1          1          1          1          1          1          1          1          1          1          1          1          1          1          1          1          1          1          1          1          1          1          1          1          1          1          1          1          1          1          1          1          1          1          1          1          1          1          1          1          1          1          1          1          1          1          1          1          1          1          1          1          1          1          1          1          1          1          1          1          1          1          1          1          1          1          1          1          1          1          1          1          1          1          1          1          1          1          1          1          1          1          1          1          1          1          1          1          1          1          1          1          1          1          1          1          1          1          1          1          1          1          1          1          1          1          1          1          1          1          1          1          1          1          1          1          1          1          1          1          1          1          1          1          1          1          1          1          1          1          1          1          1          1          1          1          1          1          1          1          1          1          1          1          1          1          1          1          1          1          1          1          1          1          1          1          1          1          1          1          1          1          1          1          1          1          1          1          1          1          1          1          1          1          1          1          1          1          1          1          1          1          1          1          1          1          1          1          1          1          1          1          1          1          1          1          1          1          1          1          1          1          1          1          1          1          1          1          1          1          1          1          1          1          1          1          1          1          1          1          1          1          1          1          1          1          1          1          1          1          1          1          1          1          1          1          1          1          1          1          1          1          1          1          1          1          1          1          1          1          1          1          1          1          1          1          1          1          1          1          1          1          1          1          1          1          1          1          1          1          1          1          1          1          1          1          1          1          1          1          1          1          1          1          1          1          1          1          1          1          1          1          1          1          1          1          1          1          1          1          1          1          1          1          1          1          1          1          1          1          1          1          1          1          1          1          1          1          1          1          1          1          1          1          1          1          1          1          1          1          1          1          1          1          1          1          1          1          1          1          1          1          1          1          1          1          1          1          1          1          1          1          1          1          1          1          1          1          1          1          1          1          1          1          1          1          1          1          1          1 </DataArray>
</CellData>
<PointData>
<DataArray type="Float64"                                    Name="u"                                                      NumberOfComponents=" 3" format="ascii">
             -0.000870094              -0.000000000               0.999999985              -0.000920677               0.000000000               0.999999985              -0.000941911              -0.000000000               0.999999985              -0.000953776               0.000000000               0.999999985              -0.000963600               0.000000000               0.999999985              -0.000974019              -0.000000000               0.999999985              -0.000985865               0.000000000               0.999999985              -0.000998891               0.000000000               0.999999985              -0.001012854              -0.000000000               0.999999985              -0.001027353               0.000000000               0.999999985              -0.001041895               0.000000000               0.999999985              -0.001056044              -0.000000000               0.999999985              -0.001069375               0.000000000               0.999999985              -0.001081476              -0.000000000               0.999999985              -0.001091949              -0.000000000               0.999999985              -0.001100114              -0.000000000               0.999999985              -0.001105129               0.000000000               0.999999985              -0.000865172               0.000132365               0.999999985              -0.000911516               0.000105508               0.999999985              -0.000930154               0.000093319               0.999999985              -0.000940343               0.000088631               0.999999985              -0.000948946               0.000087617               0.999999985              -0.000958384               0.000088395               0.999999985              -0.000969161               0.000089606               0.999999985              -0.000981189               0.000090659               0.999999985              -0.000994056               0.000091007               0.999999985              -0.001007193               0.000090249               0.999999985              -0.001020171               0.000088196               0.999999985              -0.001032624               0.000084640               0.999999985              -0.001044056               0.000079091               0.999999985              -0.001054002               0.000071190               0.999999985              -0.001062141               0.000060519               0.999999985              -0.001067910               0.000045984               0.999999985              -0.001070714               0.000026130               0.999999985              -0.000850639               0.000263497               0.999999985              -0.000884741               0.000210562               0.999999985              -0.000895867               0.000187579               0.999999985              -0.000901388               0.000179201               0.999999985              -0.000906881               0.000178007               0.999999985              -0.000913807               0.000179975               0.999999985              -0.000922147               0.000182786               0.999999985              -0.000931531               0.000184991               0.999999985              -0.000941169               0.000185611               0.999999985              -0.000950558               0.000184241               0.999999985              -0.000959290               0.000180427               0.999999985              -0.000966961               0.000173806               0.999999985              -0.000973248               0.000163504               0.999999985              -0.000977739               0.000148917               0.999999985              -0.000980020               0.000129542               0.999999985              -0.000979742               0.000103910               0.999999985              -0.000976754               0.000070439               0.999999985              -0.000826832               0.000392229               0.999999985              -0.000841726               0.000314930               0.999999985              -0.000841964               0.000283447               0.999999985              -0.000841228               0.000273249               0.999999985              -0.000842713               0.000273097               0.999999985              -0.000846424               0.000277041               0.999999985              -0.000851621               0.000281654               0.999999985              -0.000857208               0.000285046               0.999999985              -0.000862449               0.000286024               0.999999985              -0.000866764               0.000284122               0.999999985              -0.000869786               0.000278898               0.999999985              -0.000871049               0.000269868               0.999999985              -0.000870174               0.000255980               0.999999985              -0.000866962               0.000236696               0.999999985              -0.000861164               0.000211558               0.999999985              -0.000852772               0.000179434               0.999999985              -0.000841965               0.000139678               0.999999985              -0.000794279               0.000517402               0.999999985              -0.000784599               0.000418603               0.999999985              -0.000772754               0.000381525               0.999999985              -0.000765882               0.000371491               0.999999985              -0.000763628               0.000373527               0.999999985              -0.000764345               0.000379851               0.999999985              -0.000766109               0.000386559               0.999999985              -0.000767673               0.000390999               0.999999985              -0.000767995               0.000392361               0.999999985              -0.000766538               0.000390088               0.999999985              -0.000762903               0.000383895               0.999999985              -0.000756705               0.000372992               0.999999985              -0.000747607               0.000356564               0.999999985              -0.000735508               0.000334236               0.999999985              -0.000720499               0.000305838               0.999999985              -0.000702751               0.000271155               0.999999985              -0.000682874               0.000230564               0.999999985              -0.000753438               0.000638013               0.999999985              -0.000716201               0.000521704               0.999999985              -0.000693188               0.000482051               0.999999985              -0.000681600               0.000473831               0.999999985              -0.000676909               0.000478662               0.999999985              -0.000675293               0.000487600               0.999999985              -0.000674053               0.000496000               0.999999985              -0.000671447               0.000501520               0.999999985              -0.000666464               0.000503112               0.999999985              -0.000658640               0.000500648               0.999999985              -0.000647554               0.000493572               0.999999985              -0.000632884               0.000481144               0.999999985              -0.000614450               0.000462853               0.999999985              -0.000592374               0.000438751               0.999999985              -0.000567241               0.000409035               0.999999985              -0.000539604               0.000374503               0.999999985              -0.000510335               0.000336261               0.999999985              -0.000705129               0.000752903               0.999999985              -0.000639907               0.000624315               0.999999985              -0.000608379               0.000584652               0.999999985              -0.000594575               0.000579093               0.999999985              -0.000589066               0.000586848               0.999999985              -0.000585932               0.000598086               0.999999985              -0.000581851               0.000607956               0.999999985              -0.000574900               0.000614076               0.999999985              -0.000564205               0.000615921               0.999999985              -0.000549249               0.000612930               0.999999985              -0.000529780               0.000604850               0.999999985              -0.000505654               0.000590853               0.999999985              -0.000477145               0.000570912               0.999999985              -0.000444769               0.000545746               0.999999985              -0.000409367               0.000516180               0.999999985              -0.000371840               0.000483353               0.999999985              -0.000333232               0.000448650               0.999999985              -0.000650507               0.000860705               0.999999985              -0.000559475               0.000726121               0.999999985              -0.000523223               0.000688253               0.999999985              -0.000510043               0.000685385               0.999999985              -0.000505069               0.000695627               0.999999985              -0.000500959               0.000708693               0.999999985              -0.000493872               0.000719591               0.999999985              -0.000482011               0.000726247               0.999999985              -0.000464678               0.000727932               0.999999985              -0.000441608               0.000724050               0.999999985              -0.000412779               0.000714474               0.999999985              -0.000378430               0.000698829               0.999999985              -0.000339263               0.000677575               0.999999985              -0.000296062               0.000652208               0.999999985              -0.000250007               0.000623859               0.999999985              -0.000202312               0.000593632               0.999999985              -0.000153924               0.000562578               0.999999985              -0.000591209               0.000959568               0.999999985              -0.000477650               0.000827042               0.999999985              -0.000442108               0.000791236               0.999999985              -0.000431671               0.000790537               0.999999985              -0.000428076               0.000802610               0.999999985              -0.000422789               0.000817056               0.999999985              -0.000412029               0.000828704               0.999999985              -0.000394380               0.000835599               0.999999985              -0.000369447               0.000836607               0.999999985              -0.000337090               0.000831429               0.999999985              -0.000297822               0.000819957               0.999999985              -0.000252108               0.000802850               0.999999985              -0.000200946               0.000781375               0.999999985              -0.000145998               0.000757093               0.999999985              -0.000088886               0.000731222               0.999999985              -0.000030851               0.000704600               0.999999985               0.000027391               0.000677881               0.999999985              -0.000529867               0.001053333               0.999999985              -0.000409133               0.000940166               0.999999985              -0.000370768               0.000900391               0.999999985              -0.000359822               0.000894484               0.999999985              -0.000356943               0.000903124               0.999999985              -0.000353638               0.000916855               0.999999985              -0.000345641               0.000930614               0.999999985              -0.000331585               0.000941508               0.999999985              -0.000310840               0.000948300               0.999999985              -0.000283131               0.000950148               0.999999985              -0.000248504               0.000946995               0.999999985              -0.000207291               0.000939149               0.999999985              -0.000159905               0.000927229               0.999999985              -0.000107496               0.000912205               0.999999985              -0.000051616               0.000895444               0.999999985               0.000006595               0.000877719               0.999999985               0.000065623               0.000859953               0.999999985              -0.000463089               0.001138975               0.999999985              -0.000343425               0.001049789               0.999999985              -0.000302484               0.001012534               0.999999985              -0.000290019               0.001003915               0.999999985              -0.000286986               0.001010250               0.999999985              -0.000284689               0.001023464               0.999999985              -0.000279024               0.001038724               0.999999985              -0.000268267               0.001053156               0.999999985              -0.000251506               0.001065030               0.999999985              -0.000228118               0.001073401               0.999999985              -0.000198247               0.001077784               0.999999985              -0.000161927               0.001078177               0.999999985              -0.000118908               0.001074965               0.999999985              -0.000069854               0.001068787               0.999999985              -0.000015893               0.001060467               0.999999985               0.000041821               0.001051018               0.999999985               0.000101686               0.001041375               0.999999985              -0.000392159               0.001214400               0.999999985              -0.000280601               0.001152647               0.999999985              -0.000239026               0.001122494               0.999999985              -0.000224756               0.001114576               0.999999985              -0.000220759               0.001120393               0.999999985              -0.000218740               0.001133797               0.999999985              -0.000214647               0.001150660               0.999999985              -0.000206630               0.001168404               0.999999985              -0.000193441               0.001185107               0.999999985              -0.000174388               0.001199539               0.999999985              -0.000149270               0.001211065               0.999999985              -0.000117863               0.001219423               0.999999985              -0.000079850               0.001224546               0.999999985              -0.000035065               0.001226920               0.999999985               0.000015963               0.001226980               0.999999985               0.000072580               0.001225420               0.999999985               0.000133695               0.001223319               0.999999985              -0.000317867               0.001278014               0.999999985              -0.000220788               0.001244308               0.999999985              -0.000181236               0.001224741               0.999999985              -0.000166021               0.001220417               0.999999985              -0.000160983               0.001227624               0.999999985              -0.000158707               0.001242365               0.999999985              -0.000155499               0.001261516               0.999999985              -0.000149446               0.001282608               0.999999985              -0.000139512               0.001303943               0.999999985              -0.000124679               0.001324258               0.999999985              -0.000104311               0.001342712               0.999999985              -0.000078210               0.001358858               0.999999985              -0.000045793               0.001372568               0.999999985              -0.000006483               0.001383716               0.999999985               0.000040096               0.001392621               0.999999985               0.000094150               0.001399599               0.999999985               0.000155673               0.001405294               0.999999985              -0.000240860               0.001328792               0.999999985              -0.000163419               0.001320707               0.999999985              -0.000129383               0.001313094               0.999999985              -0.000114974               0.001314208               0.999999985              -0.000109464               0.001324258               0.999999985              -0.000107010               0.001341242               0.999999985              -0.000104285               0.001363033               0.999999985              -0.000099908               0.001387594               0.999999985              -0.000092785               0.001413419               0.999999985              -0.000081867               0.001439435               0.999999985              -0.000066376               0.001464677               0.999999985              -0.000046003               0.001488540               0.999999985              -0.000020124               0.001510734               0.999999985               0.000012004               0.001530863               0.999999985               0.000051481               0.001548816               0.999999985               0.000099576               0.001564619               0.999999985               0.000157297               0.001578616               0.999999985              -0.000161793               0.001365804               0.999999985              -0.000107915               0.001378165               0.999999985              -0.000082927               0.001381525               0.999999985              -0.000071499               0.001388490               0.999999985              -0.000066695               0.001401845               0.999999985              -0.000064393               0.001421422               0.999999985              -0.000062297               0.001445681               0.999999985              -0.000059467               0.001473259               0.999999985              -0.000054773               0.001503090               0.999999985              -0.000047491               0.001534020               0.999999985              -0.000037136               0.001565157               0.999999985              -0.000023306               0.001595887               0.999999985              -0.000005327               0.001625713               0.999999985               0.000017634               0.001654178               0.999999985               0.000046863               0.001680800               0.999999985               0.000083889               0.001705230               0.999999985               0.000130655               0.001727305               0.999999985              -0.000081284               0.001388326               0.999999985              -0.000053652               0.001413876               0.999999985              -0.000040434               0.001424956               0.999999985              -0.000034074               0.001436437               0.999999985              -0.000031257               0.001452563               0.999999985              -0.000029798               0.001474106               0.999999985              -0.000028693               0.001500164               0.999999985              -0.000027171               0.001529831               0.999999985              -0.000024804               0.001562286               0.999999985              -0.000021284               0.001596545               0.999999985              -0.000016161               0.001631816               0.999999985              -0.000009200               0.001667508               0.999999985               0.000000010               0.001702973               0.999999985               0.000012086               0.001737738               0.999999985               0.000027705               0.001771237               0.999999985               0.000048102               0.001802703               0.999999985               0.000074936               0.001831211               0.999999985              -0.000000000               0.001395876               0.999999985               0.000000000               0.001425976               0.999999985              -0.000000000               0.001439826               0.999999985               0.000000000               0.001453035               0.999999985               0.000000000               0.001470351               0.999999985              -0.000000000               0.001492636               0.999999985               0.000000000               0.001519246               0.999999985              -0.000000000               0.001549592               0.999999985               0.000000000               0.001582813               0.999999985              -0.000000000               0.001618265               0.999999985               0.000000000               0.001655132               0.999999985               0.000000000               0.001692558               0.999999985               0.000000000               0.001730207               0.999999985               0.000000000               0.001767581               0.999999985              -0.000000000               0.001803858               0.999999985              -0.000000000               0.001838165               0.999999985               0.000000000               0.001869283               0.999999985              -0.000870094              -0.000000000               0.999999985              -0.000920677               0.000000000               0.999999985              -0.000941911              -0.000000000               0.999999985              -0.000953776               0.000000000               0.999999985              -0.000963600               0.000000000               0.999999985              -0.000974019              -0.000000000               0.999999985              -0.000985865               0.000000000               0.999999985              -0.000998891               0.000000000               0.999999985              -0.001012854              -0.000000000               0.999999985              -0.001027353               0.000000000               0.999999985              -0.001041895               0.000000000               0.999999985              -0.001056044              -0.000000000               0.999999985              -0.001069375               0.000000000               0.999999985              -0.001081476              -0.000000000               0.999999985              -0.001091949              -0.000000000               0.999999985              -0.001100114              -0.000000000               0.999999985              -0.001105129               0.000000000               0.999999985              -0.000865172              -0.000132365               0.999999985              -0.000911516              -0.000105508               0.999999985              -0.000930154              -0.000093319               0.999999985              -0.000940343              -0.000088631               0.999999985              -0.000948946              -0.000087617               0.999999985              -0.000958384              -0.000088395               0.999999985              -0.000969161              -0.000089606               0.999999985              -0.000981189              -0.000090659               0.999999985              -0.000994056              -0.000091007               0.999999985              -0.001007193              -0.000090249               0.999999985              -0.001020171              -0.000088196               0.999999985              -0.001032624              -0.000084640               0.999999985              -0.001044056              -0.000079091               0.999999985              -0.001054002              -0.000071190               0.999999985              -0.001062141              -0.000060519               0.999999985              -0.001067910              -0.000045984               0.999999985              -0.001070714              -0.000026130               0.999999985              -0.000850639              -0.000263497               0.999999985              -0.000884741              -0.000210562               0.999999985              -0.000895867              -0.000187579               0.999999985              -0.000901388              -0.000179201               0.999999985              -0.000906881              -0.000178007               0.999999985              -0.000913807              -0.000179975               0.999999985              -0.000922147              -0.000182786               0.999999985              -0.000931531              -0.000184991               0.999999985              -0.000941169              -0.000185611               0.999999985              -0.000950558              -0.000184241               0.999999985              -0.000959290              -0.000180427               0.999999985              -0.000966961              -0.000173806               0.999999985              -0.000973248              -0.000163504               0.999999985              -0.000977739              -0.000148917               0.999999985              -0.000980020              -0.000129542               0.999999985              -0.000979742              -0.000103910               0.999999985              -0.000976754              -0.000070439               0.999999985              -0.000826832              -0.000392229               0.999999985              -0.000841726              -0.000314930               0.999999985              -0.000841964              -0.000283447               0.999999985              -0.000841228              -0.000273249               0.999999985              -0.000842713              -0.000273097               0.999999985              -0.000846424              -0.000277041               0.999999985              -0.000851621              -0.000281654               0.999999985              -0.000857208              -0.000285046               0.999999985              -0.000862449              -0.000286024               0.999999985              -0.000866764              -0.000284122               0.999999985              -0.000869786              -0.000278898               0.999999985              -0.000871049              -0.000269868               0.999999985              -0.000870174              -0.000255980               0.999999985              -0.000866962              -0.000236696               0.999999985              -0.000861164              -0.000211558               0.999999985              -0.000852772              -0.000179434               0.999999985              -0.000841965              -0.000139678               0.999999985              -0.000794279              -0.000517402               0.999999985              -0.000784599              -0.000418603               0.999999985              -0.000772754              -0.000381525               0.999999985              -0.000765882              -0.000371491               0.999999985              -0.000763628              -0.000373527               0.999999985              -0.000764345              -0.000379851               0.999999985              -0.000766109              -0.000386559               0.999999985              -0.000767673              -0.000390999               0.999999985              -0.000767995              -0.000392361               0.999999985              -0.000766538              -0.000390088               0.999999985              -0.000762903              -0.000383895               0.999999985              -0.000756705              -0.000372992               0.999999985              -0.000747607              -0.000356564               0.999999985              -0.000735508              -0.000334236               0.999999985              -0.000720499              -0.000305838               0.999999985              -0.000702751              -0.000271155               0.999999985              -0.000682874              -0.000230564               0.999999985              -0.000753438              -0.000638013               0.999999985              -0.000716201              -0.000521704               0.999999985              -0.000693188              -0.000482051               0.999999985              -0.000681600              -0.000473831               0.999999985              -0.000676909              -0.000478662               0.999999985              -0.000675293              -0.000487600               0.999999985              -0.000674053              -0.000496000               0.999999985              -0.000671447              -0.000501520               0.999999985              -0.000666464              -0.000503112               0.999999985              -0.000658640              -0.000500648               0.999999985              -0.000647554              -0.000493572               0.999999985              -0.000632884              -0.000481144               0.999999985              -0.000614450              -0.000462853               0.999999985              -0.000592374              -0.000438751               0.999999985              -0.000567241              -0.000409035               0.999999985              -0.000539604              -0.000374503               0.999999985              -0.000510335              -0.000336261               0.999999985              -0.000705129              -0.000752903               0.999999985              -0.000639907              -0.000624315               0.999999985              -0.000608379              -0.000584652               0.999999985              -0.000594575              -0.000579093               0.999999985              -0.000589066              -0.000586848               0.999999985              -0.000585932              -0.000598086               0.999999985              -0.000581851              -0.000607956               0.999999985              -0.000574900              -0.000614076               0.999999985              -0.000564205              -0.000615921               0.999999985              -0.000549249              -0.000612930               0.999999985              -0.000529780              -0.000604850               0.999999985              -0.000505654              -0.000590853               0.999999985              -0.000477145              -0.000570912               0.999999985              -0.000444769              -0.000545746               0.999999985              -0.000409367              -0.000516180               0.999999985              -0.000371840              -0.000483353               0.999999985              -0.000333232              -0.000448650               0.999999985              -0.000650507              -0.000860705               0.999999985              -0.000559475              -0.000726121               0.999999985              -0.000523223              -0.000688253               0.999999985              -0.000510043              -0.000685385               0.999999985              -0.000505069              -0.000695627               0.999999985              -0.000500959              -0.000708693               0.999999985              -0.000493872              -0.000719591               0.999999985              -0.000482011              -0.000726247               0.999999985              -0.000464678              -0.000727932               0.999999985              -0.000441608              -0.000724050               0.999999985              -0.000412779              -0.000714474               0.999999985              -0.000378430              -0.000698829               0.999999985              -0.000339263              -0.000677575               0.999999985              -0.000296062              -0.000652208               0.999999985              -0.000250007              -0.000623859               0.999999985              -0.000202312              -0.000593632               0.999999985              -0.000153924              -0.000562578               0.999999985              -0.000591209              -0.000959568               0.999999985              -0.000477650              -0.000827042               0.999999985              -0.000442108              -0.000791236               0.999999985              -0.000431671              -0.000790537               0.999999985              -0.000428076              -0.000802610               0.999999985              -0.000422789              -0.000817056               0.999999985              -0.000412029              -0.000828704               0.999999985              -0.000394380              -0.000835599               0.999999985              -0.000369447              -0.000836607               0.999999985              -0.000337090              -0.000831429               0.999999985              -0.000297822              -0.000819957               0.999999985              -0.000252108              -0.000802850               0.999999985              -0.000200946              -0.000781375               0.999999985              -0.000145998              -0.000757093               0.999999985              -0.000088886              -0.000731222               0.999999985              -0.000030851              -0.000704600               0.999999985               0.000027391              -0.000677881               0.999999985              -0.000529867              -0.001053333               0.999999985              -0.000409133              -0.000940166               0.999999985              -0.000370768              -0.000900391               0.999999985              -0.000359822              -0.000894484               0.999999985              -0.000356943              -0.000903124               0.999999985              -0.000353638              -0.000916855               0.999999985              -0.000345641              -0.000930614               0.999999985              -0.000331585              -0.000941508               0.999999985              -0.000310840              -0.000948300               0.999999985              -0.000283131              -0.000950148               0.999999985              -0.000248504              -0.000946995               0.999999985              -0.000207291              -0.000939149               0.999999985              -0.000159905              -0.000927229               0.999999985              -0.000107496              -0.000912205               0.999999985              -0.000051616              -0.000895444               0.999999985               0.000006595              -0.000877719               0.999999985               0.000065623              -0.000859953               0.999999985              -0.000463089              -0.001138975               0.999999985              -0.000343425              -0.001049789               0.999999985              -0.000302484              -0.001012534               0.999999985              -0.000290019              -0.001003915               0.999999985              -0.000286986              -0.001010250               0.999999985              -0.000284689              -0.001023464               0.999999985              -0.000279024              -0.001038724               0.999999985              -0.000268267              -0.001053156               0.999999985              -0.000251506              -0.001065030               0.999999985              -0.000228118              -0.001073401               0.999999985              -0.000198247              -0.001077784               0.999999985              -0.000161927              -0.001078177               0.999999985              -0.000118908              -0.001074965               0.999999985              -0.000069854              -0.001068787               0.999999985              -0.000015893              -0.001060467               0.999999985               0.000041821              -0.001051018               0.999999985               0.000101686              -0.001041375               0.999999985              -0.000392159              -0.001214400               0.999999985              -0.000280601              -0.001152647               0.999999985              -0.000239026              -0.001122494               0.999999985              -0.000224756              -0.001114576               0.999999985              -0.000220759              -0.001120393               0.999999985              -0.000218740              -0.001133797               0.999999985              -0.000214647              -0.001150660               0.999999985              -0.000206630              -0.001168404               0.999999985              -0.000193441              -0.001185107               0.999999985              -0.000174388              -0.001199539               0.999999985              -0.000149270              -0.001211065               0.999999985              -0.000117863              -0.001219423               0.999999985              -0.000079850              -0.001224546               0.999999985              -0.000035065              -0.001226920               0.999999985               0.000015963              -0.001226980               0.999999985               0.000072580              -0.001225420               0.999999985               0.000133695              -0.001223319               0.999999985              -0.000317867              -0.001278014               0.999999985              -0.000220788              -0.001244308               0.999999985              -0.000181236              -0.001224741               0.999999985              -0.000166021              -0.001220417               0.999999985              -0.000160983              -0.001227624               0.999999985              -0.000158707              -0.001242365               0.999999985              -0.000155499              -0.001261516               0.999999985              -0.000149446              -0.001282608               0.999999985              -0.000139512              -0.001303943               0.999999985              -0.000124679              -0.001324258               0.999999985              -0.000104311              -0.001342712               0.999999985              -0.000078210              -0.001358858               0.999999985              -0.000045793              -0.001372568               0.999999985              -0.000006483              -0.001383716               0.999999985               0.000040096              -0.001392621               0.999999985               0.000094150              -0.001399599               0.999999985               0.000155673              -0.001405294               0.999999985              -0.000240860              -0.001328792               0.999999985              -0.000163419              -0.001320707               0.999999985              -0.000129383              -0.001313094               0.999999985              -0.000114974              -0.001314208               0.999999985              -0.000109464              -0.001324258               0.999999985              -0.000107010              -0.001341242               0.999999985              -0.000104285              -0.001363033               0.999999985              -0.000099908              -0.001387594               0.999999985              -0.000092785              -0.001413419               0.999999985              -0.000081867              -0.001439435               0.999999985              -0.000066376              -0.001464677               0.999999985              -0.000046003              -0.001488540               0.999999985              -0.000020124              -0.001510734               0.999999985               0.000012004              -0.001530863               0.999999985               0.000051481              -0.001548816               0.999999985               0.000099576              -0.001564619               0.999999985               0.000157297              -0.001578616               0.999999985              -0.000161793              -0.001365804               0.999999985              -0.000107915              -0.001378165               0.999999985              -0.000082927              -0.001381525               0.999999985              -0.000071499              -0.001388490               0.999999985              -0.000066695              -0.001401845               0.999999985              -0.000064393              -0.001421422               0.999999985              -0.000062297              -0.001445681               0.999999985              -0.000059467              -0.001473259               0.999999985              -0.000054773              -0.001503090               0.999999985              -0.000047491              -0.001534020               0.999999985              -0.000037136              -0.001565157               0.999999985              -0.000023306              -0.001595887               0.999999985              -0.000005327              -0.001625713               0.999999985               0.000017634              -0.001654178               0.999999985               0.000046863              -0.001680800               0.999999985               0.000083889              -0.001705230               0.999999985               0.000130655              -0.001727305               0.999999985              -0.000081284              -0.001388326               0.999999985              -0.000053652              -0.001413876               0.999999985              -0.000040434              -0.001424956               0.999999985              -0.000034074              -0.001436437               0.999999985              -0.000031257              -0.001452563               0.999999985              -0.000029798              -0.001474106               0.999999985              -0.000028693              -0.001500164               0.999999985              -0.000027171              -0.001529831               0.999999985              -0.000024804              -0.001562286               0.999999985              -0.000021284              -0.001596545               0.999999985              -0.000016161              -0.001631816               0.999999985              -0.000009200              -0.001667508               0.999999985               0.000000010              -0.001702973               0.999999985               0.000012086              -0.001737738               0.999999985               0.000027705              -0.001771237               0.999999985               0.000048102              -0.001802703               0.999999985               0.000074936              -0.001831211               0.999999985              -0.000000000              -0.001395876               0.999999985               0.000000000              -0.001425976               0.999999985              -0.000000000              -0.001439826               0.999999985               0.000000000              -0.001453035               0.999999985              -0.000000000              -0.001470351               0.999999985               0.000000000              -0.001492636               0.999999985              -0.000000000              -0.001519246               0.999999985              -0.000000000              -0.001549592               0.999999985              -0.000000000              -0.001582813               0.999999985              -0.000000000              -0.001618265               0.999999985              -0.000000000              -0.001655132               0.999999985              -0.000000000              -0.001692558               0.999999985               0.000000000              -0.001730207               0.999999985              -0.000000000              -0.001767581               0.999999985               0.000000000              -0.001803858               0.999999985              -0.000000000              -0.001838165               0.999999985               0.000000000              -0.001869283               0.999999985               0.000870094              -0.000000000               0.999999985               0.000920677              -0.000000000               0.999999985               0.000941911              -0.000000000               0.999999985               0.000953776              -0.000000000               0.999999985               0.000963600              -0.000000000               0.999999985               0.000974019               0.000000000               0.999999985               0.000985865              -0.000000000               0.999999985               0.000998891               0.000000000               0.999999985               0.001012854               0.000000000               0.999999985               0.001027353               0.000000000               0.999999985               0.001041895               0.000000000               0.999999985               0.001056044               0.000000000               0.999999985               0.001069375               0.000000000               0.999999985               0.001081476               0.000000000               0.999999985               0.001091949              -0.000000000               0.999999985               0.001100114               0.000000000               0.999999985               0.001105129               0.000000000               0.999999985               0.000865172              -0.000132365               0.999999985               0.000911516              -0.000105508               0.999999985               0.000930154              -0.000093319               0.999999985               0.000940343              -0.000088631               0.999999985               0.000948946              -0.000087617               0.999999985               0.000958384              -0.000088395               0.999999985               0.000969161              -0.000089606               0.999999985               0.000981189              -0.000090659               0.999999985               0.000994056              -0.000091007               0.999999985               0.001007193              -0.000090249               0.999999985               0.001020171              -0.000088196               0.999999985               0.001032624              -0.000084640               0.999999985               0.001044056              -0.000079091               0.999999985               0.001054002              -0.000071190               0.999999985               0.001062141              -0.000060519               0.999999985               0.001067910              -0.000045984               0.999999985               0.001070714              -0.000026130               0.999999985               0.000850639              -0.000263497               0.999999985               0.000884741              -0.000210562               0.999999985               0.000895867              -0.000187579               0.999999985               0.000901388              -0.000179201               0.999999985               0.000906881              -0.000178007               0.999999985               0.000913807              -0.000179975               0.999999985               0.000922147              -0.000182786               0.999999985               0.000931531              -0.000184991               0.999999985               0.000941169              -0.000185611               0.999999985               0.000950558              -0.000184241               0.999999985               0.000959290              -0.000180427               0.999999985               0.000966961              -0.000173806               0.999999985               0.000973248              -0.000163504               0.999999985               0.000977739              -0.000148917               0.999999985               0.000980020              -0.000129542               0.999999985               0.000979742              -0.000103910               0.999999985               0.000976754              -0.000070439               0.999999985               0.000826832              -0.000392229               0.999999985               0.000841726              -0.000314930               0.999999985               0.000841964              -0.000283447               0.999999985               0.000841228              -0.000273249               0.999999985               0.000842713              -0.000273097               0.999999985               0.000846424              -0.000277041               0.999999985               0.000851621              -0.000281654               0.999999985               0.000857208              -0.000285046               0.999999985               0.000862449              -0.000286024               0.999999985               0.000866764              -0.000284122               0.999999985               0.000869786              -0.000278898               0.999999985               0.000871049              -0.000269868               0.999999985               0.000870174              -0.000255980               0.999999985               0.000866962              -0.000236696               0.999999985               0.000861164              -0.000211558               0.999999985               0.000852772              -0.000179434               0.999999985               0.000841965              -0.000139678               0.999999985               0.000794279              -0.000517402               0.999999985               0.000784599              -0.000418603               0.999999985               0.000772754              -0.000381525               0.999999985               0.000765882              -0.000371491               0.999999985               0.000763628              -0.000373527               0.999999985               0.000764345              -0.000379851               0.999999985               0.000766109              -0.000386559               0.999999985               0.000767673              -0.000390999               0.999999985               0.000767995              -0.000392361               0.999999985               0.000766538              -0.000390088               0.999999985               0.000762903              -0.000383895               0.999999985               0.000756705              -0.000372992               0.999999985               0.000747607              -0.000356564               0.999999985               0.000735508              -0.000334236               0.999999985               0.000720499              -0.000305838               0.999999985               0.000702751              -0.000271155               0.999999985               0.000682874              -0.000230564               0.999999985               0.000753438              -0.000638013               0.999999985               0.000716201              -0.000521704               0.999999985               0.000693188              -0.000482051               0.999999985               0.000681600              -0.000473831               0.999999985               0.000676909              -0.000478662               0.999999985               0.000675293              -0.000487600               0.999999985               0.000674053              -0.000496000               0.999999985               0.000671447              -0.000501520               0.999999985               0.000666464              -0.000503112               0.999999985               0.000658640              -0.000500648               0.999999985               0.000647554              -0.000493572               0.999999985               0.000632884              -0.000481144               0.999999985               0.000614450              -0.000462853               0.999999985               0.000592374              -0.000438751               0.999999985               0.000567241              -0.000409035               0.999999985               0.000539604              -0.000374503               0.999999985               0.000510335              -0.000336261               0.999999985               0.000705129              -0.000752903               0.999999985               0.000639907              -0.000624315               0.999999985               0.000608379              -0.000584652               0.999999985               0.000594575              -0.000579093               0.999999985               0.000589066              -0.000586848               0.999999985               0.000585932              -0.000598086               0.999999985               0.000581851              -0.000607956               0.999999985               0.000574900              -0.000614076               0.999999985               0.000564205              -0.000615921               0.999999985               0.000549249              -0.000612930               0.999999985               0.000529780              -0.000604850               0.999999985               0.000505654              -0.000590853               0.999999985               0.000477145              -0.000570912               0.999999985               0.000444769              -0.000545746               0.999999985               0.000409367              -0.000516180               0.999999985               0.000371840              -0.000483353               0.999999985               0.000333232              -0.000448650               0.999999985               0.000650507              -0.000860705               0.999999985               0.000559475              -0.000726121               0.999999985               0.000523223              -0.000688253               0.999999985               0.000510043              -0.000685385               0.999999985               0.000505069              -0.000695627               0.999999985               0.000500959              -0.000708693               0.999999985               0.000493872              -0.000719591               0.999999985               0.000482011              -0.000726247               0.999999985               0.000464678              -0.000727932               0.999999985               0.000441608              -0.000724050               0.999999985               0.000412779              -0.000714474               0.999999985               0.000378430              -0.000698829               0.999999985               0.000339263              -0.000677575               0.999999985               0.000296062              -0.000652208               0.999999985               0.000250007              -0.000623859               0.999999985               0.000202312              -0.000593632               0.999999985               0.000153924              -0.000562578               0.999999985               0.000591209              -0.000959568               0.999999985               0.000477650              -0.000827042               0.999999985               0.000442108              -0.000791236               0.999999985               0.000431671              -0.000790537               0.999999985               0.000428076              -0.000802610               0.999999985               0.000422789              -0.000817056               0.999999985               0.000412029              -0.000828704               0.999999985               0.000394380              -0.000835599               0.999999985               0.000369447              -0.000836607               0.999999985               0.000337090              -0.000831429               0.999999985               0.000297822              -0.000819957               0.999999985               0.000252108              -0.000802850               0.999999985               0.000200946              -0.000781375               0.999999985               0.000145998              -0.000757093               0.999999985               0.000088886              -0.000731222               0.999999985               0.000030851              -0.000704600               0.999999985              -0.000027391              -0.000677881               0.999999985               0.000529867              -0.001053333               0.999999985               0.000409133              -0.000940166               0.999999985               0.000370768              -0.000900391               0.999999985               0.000359822              -0.000894484               0.999999985               0.000356943              -0.000903124               0.999999985               0.000353638              -0.000916855               0.999999985               0.000345641              -0.000930614               0.999999985               0.000331585              -0.000941508               0.999999985               0.000310840              -0.000948300               0.999999985               0.000283131              -0.000950148               0.999999985               0.000248504              -0.000946995               0.999999985               0.000207291              -0.000939149               0.999999985               0.000159905              -0.000927229               0.999999985               0.000107496              -0.000912205               0.999999985               0.000051616              -0.000895444               0.999999985              -0.000006595              -0.000877719               0.999999985              -0.000065623              -0.000859953               0.999999985               0.000463089              -0.001138975               0.999999985               0.000343425              -0.001049789               0.999999985               0.000302484              -0.001012534               0.999999985               0.000290019              -0.001003915               0.999999985               0.000286986              -0.001010250               0.999999985               0.000284689              -0.001023464               0.999999985               0.000279024              -0.001038724               0.999999985               0.000268267              -0.001053156               0.999999985               0.000251506              -0.001065030               0.999999985               0.000228118              -0.001073401               0.999999985               0.000198247              -0.001077784               0.999999985               0.000161927              -0.001078177               0.999999985               0.000118908              -0.001074965               0.999999985               0.000069854              -0.001068787               0.999999985               0.000015893              -0.001060467               0.999999985              -0.000041821              -0.001051018               0.999999985              -0.000101686              -0.001041375               0.999999985               0.000392159              -0.001214400               0.999999985               0.000280601              -0.001152647               0.999999985               0.000239026              -0.001122494               0.999999985               0.000224756              -0.001114576               0.999999985               0.000220759              -0.001120393               0.999999985               0.000218740              -0.001133797               0.999999985               0.000214647              -0.001150660               0.999999985               0.000206630              -0.001168404               0.999999985               0.000193441              -0.001185107               0.999999985               0.000174388              -0.001199539               0.999999985               0.000149270              -0.001211065               0.999999985               0.000117863              -0.001219423               0.999999985               0.000079850              -0.001224546               0.999999985               0.000035065              -0.001226920               0.999999985              -0.000015963              -0.001226980               0.999999985              -0.000072580              -0.001225420               0.999999985              -0.000133695              -0.001223319               0.999999985               0.000317867              -0.001278014               0.999999985               0.000220788              -0.001244308               0.999999985               0.000181236              -0.001224741               0.999999985               0.000166021              -0.001220417               0.999999985               0.000160983              -0.001227624               0.999999985               0.000158707              -0.001242365               0.999999985               0.000155499              -0.001261516               0.999999985               0.000149446              -0.001282608               0.999999985               0.000139512              -0.001303943               0.999999985               0.000124679              -0.001324258               0.999999985               0.000104311              -0.001342712               0.999999985               0.000078210              -0.001358858               0.999999985               0.000045793              -0.001372568               0.999999985               0.000006483              -0.001383716               0.999999985              -0.000040096              -0.001392621               0.999999985              -0.000094150              -0.001399599               0.999999985              -0.000155673              -0.001405294               0.999999985               0.000240860              -0.001328792               0.999999985               0.000163419              -0.001320707               0.999999985               0.000129383              -0.001313094               0.999999985               0.000114974              -0.001314208               0.999999985               0.000109464              -0.001324258               0.999999985               0.000107010              -0.001341242               0.999999985               0.000104285              -0.001363033               0.999999985               0.000099908              -0.001387594               0.999999985               0.000092785              -0.001413419               0.999999985               0.000081867              -0.001439435               0.999999985               0.000066376              -0.001464677               0.999999985               0.000046003              -0.001488540               0.999999985               0.000020124              -0.001510734               0.999999985              -0.000012004              -0.001530863               0.999999985              -0.000051481              -0.001548816               0.999999985              -0.000099576              -0.001564619               0.999999985              -0.000157297              -0.001578616               0.999999985               0.000161793              -0.001365804               0.999999985               0.000107915              -0.001378165               0.999999985               0.000082927              -0.001381525               0.999999985               0.000071499              -0.001388490               0.999999985               0.000066695              -0.001401845               0.999999985               0.000064393              -0.001421422               0.999999985               0.000062297              -0.001445681               0.999999985               0.000059467              -0.001473259               0.999999985               0.000054773              -0.001503090               0.999999985               0.000047491              -0.001534020               0.999999985               0.000037136              -0.001565157               0.999999985               0.000023306              -0.001595887               0.999999985               0.000005327              -0.001625713               0.999999985              -0.000017634              -0.001654178               0.999999985              -0.000046863              -0.001680800               0.999999985              -0.000083889              -0.001705230               0.999999985              -0.000130655              -0.001727305               0.999999985               0.000081284              -0.001388326               0.999999985               0.000053652              -0.001413876               0.999999985               0.000040434              -0.001424956               0.999999985               0.000034074              -0.001436437               0.999999985               0.000031257              -0.001452563               0.999999985               0.000029798              -0.001474106               0.999999985               0.000028693              -0.001500164               0.999999985               0.000027171              -0.001529831               0.999999985               0.000024804              -0.001562286               0.999999985               0.000021284              -0.001596545               0.999999985               0.000016161              -0.001631816               0.999999985               0.000009200              -0.001667508               0.999999985              -0.000000010              -0.001702973               0.999999985              -0.000012086              -0.001737738               0.999999985              -0.000027705              -0.001771237               0.999999985              -0.000048102              -0.001802703               0.999999985              -0.000074936              -0.001831211               0.999999985              -0.000000000              -0.001395876               0.999999985               0.000000000              -0.001425976               0.999999985              -0.000000000              -0.001439826               0.999999985               0.000000000              -0.001453035               0.999999985              -0.000000000              -0.001470351               0.999999985               0.000000000              -0.001492636               0.999999985              -0.000000000              -0.001519246               0.999999985              -0.000000000              -0.001549592               0.999999985              -0.000000000              -0.001582813               0.999999985              -0.000000000              -0.001618265               0.999999985              -0.000000000              -0.001655132               0.999999985              -0.000000000              -0.001692558               0.999999985               0.000000000              -0.001730207               0.999999985              -0.000000000              -0.001767581               0.999999985               0.000000000              -0.001803858               0.999999985              -0.000000000              -0.001838165               0.999999985               0.000000000              -0.001869283               0.999999985               0.000870094              -0.000000000               0.999999985               0.000920677              -0.000000000               0.999999985               0.000941911              -0.000000000               0.999999985               0.000953776              -0.000000000               0.999999985               0.000963600              -0.000000000               0.999999985               0.000974019               0.000000000               0.999999985               0.000985865              -0.000000000               0.999999985               0.000998891               0.000000000               0.999999985               0.001012854               0.000000000               0.999999985               0.001027353               0.000000000               0.999999985               0.001041895               0.000000000               0.999999985               0.001056044               0.000000000               0.999999985               0.001069375               0.000000000               0.999999985               0.001081476               0.000000000               0.999999985               0.001091949              -0.000000000               0.999999985               0.001100114               0.000000000               0.999999985               0.001105129               0.000000000               0.999999985               0.000865172               0.000132365               0.999999985               0.000911516               0.000105508               0.999999985               0.000930154               0.000093319               0.999999985               0.000940343               0.000088631               0.999999985               0.000948946               0.000087617               0.999999985               0.000958384               0.000088395               0.999999985               0.000969161               0.000089606               0.999999985               0.000981189               0.000090659               0.999999985               0.000994056               0.000091007               0.999999985               0.001007193               0.000090249               0.999999985               0.001020171               0.000088196               0.999999985               0.001032624               0.000084640               0.999999985               0.001044056               0.000079091               0.999999985               0.001054002               0.000071190               0.999999985               0.001062141               0.000060519               0.999999985               0.001067910               0.000045984               0.999999985               0.001070714               0.000026130               0.999999985               0.000850639               0.000263497               0.999999985               0.000884741               0.000210562               0.999999985               0.000895867               0.000187579               0.999999985               0.000901388               0.000179201               0.999999985               0.000906881               0.000178007               0.999999985               0.000913807               0.000179975               0.999999985               0.000922147               0.000182786               0.999999985               0.000931531               0.000184991               0.999999985               0.000941169               0.000185611               0.999999985               0.000950558               0.000184241               0.999999985               0.000959290               0.000180427               0.999999985               0.000966961               0.000173806               0.999999985               0.000973248               0.000163504               0.999999985               0.000977739               0.000148917               0.999999985               0.000980020               0.000129542               0.999999985               0.000979742               0.000103910               0.999999985               0.000976754               0.000070439               0.999999985               0.000826832               0.000392229               0.999999985               0.000841726               0.000314930               0.999999985               0.000841964               0.000283447               0.999999985               0.000841228               0.000273249               0.999999985               0.000842713               0.000273097               0.999999985               0.000846424               0.000277041               0.999999985               0.000851621               0.000281654               0.999999985               0.000857208               0.000285046               0.999999985               0.000862449               0.000286024               0.999999985               0.000866764               0.000284122               0.999999985               0.000869786               0.000278898               0.999999985               0.000871049               0.000269868               0.999999985               0.000870174               0.000255980               0.999999985               0.000866962               0.000236696               0.999999985               0.000861164               0.000211558               0.999999985               0.000852772               0.000179434               0.999999985               0.000841965               0.000139678               0.999999985               0.000794279               0.000517402               0.999999985               0.000784599               0.000418603               0.999999985               0.000772754               0.000381525               0.999999985               0.000765882               0.000371491               0.999999985               0.000763628               0.000373527               0.999999985               0.000764345               0.000379851               0.999999985               0.000766109               0.000386559               0.999999985               0.000767673               0.000390999               0.999999985               0.000767995               0.000392361               0.999999985               0.000766538               0.000390088               0.999999985               0.000762903               0.000383895               0.999999985               0.000756705               0.000372992               0.999999985               0.000747607               0.000356564               0.999999985               0.000735508               0.000334236               0.999999985               0.000720499               0.000305838               0.999999985               0.000702751               0.000271155               0.999999985               0.000682874               0.000230564               0.999999985               0.000753438               0.000638013               0.999999985               0.000716201               0.000521704               0.999999985               0.000693188               0.000482051               0.999999985               0.000681600               0.000473831               0.999999985               0.000676909               0.000478662               0.999999985               0.000675293               0.000487600               0.999999985               0.000674053               0.000496000               0.999999985               0.000671447               0.000501520               0.999999985               0.000666464               0.000503112               0.999999985               0.000658640               0.000500648               0.999999985               0.000647554               0.000493572               0.999999985               0.000632884               0.000481144               0.999999985               0.000614450               0.000462853               0.999999985               0.000592374               0.000438751               0.999999985               0.000567241               0.000409035               0.999999985               0.000539604               0.000374503               0.999999985               0.000510335               0.000336261               0.999999985               0.000705129               0.000752903               0.999999985               0.000639907               0.000624315               0.999999985               0.000608379               0.000584652               0.999999985               0.000594575               0.000579093               0.999999985               0.000589066               0.000586848               0.999999985               0.000585932               0.000598086               0.999999985               0.000581851               0.000607956               0.999999985               0.000574900               0.000614076               0.999999985               0.000564205               0.000615921               0.999999985               0.000549249               0.000612930               0.999999985               0.000529780               0.000604850               0.999999985               0.000505654               0.000590853               0.999999985               0.000477145               0.000570912               0.999999985               0.000444769               0.000545746               0.999999985               0.000409367               0.000516180               0.999999985               0.000371840               0.000483353               0.999999985               0.000333232               0.000448650               0.999999985               0.000650507               0.000860705               0.999999985               0.000559475               0.000726121               0.999999985               0.000523223               0.000688253               0.999999985               0.000510043               0.000685385               0.999999985               0.000505069               0.000695627               0.999999985               0.000500959               0.000708693               0.999999985               0.000493872               0.000719591               0.999999985               0.000482011               0.000726247               0.999999985               0.000464678               0.000727932               0.999999985               0.000441608               0.000724050               0.999999985               0.000412779               0.000714474               0.999999985               0.000378430               0.000698829               0.999999985               0.000339263               0.000677575               0.999999985               0.000296062               0.000652208               0.999999985               0.000250007               0.000623859               0.999999985               0.000202312               0.000593632               0.999999985               0.000153924               0.000562578               0.999999985               0.000591209               0.000959568               0.999999985               0.000477650               0.000827042               0.999999985               0.000442108               0.000791236               0.999999985               0.000431671               0.000790537               0.999999985               0.000428076               0.000802610               0.999999985               0.000422789               0.000817056               0.999999985               0.000412029               0.000828704               0.999999985               0.000394380               0.000835599               0.999999985               0.000369447               0.000836607               0.999999985               0.000337090               0.000831429               0.999999985               0.000297822               0.000819957               0.999999985               0.000252108               0.000802850               0.999999985               0.000200946               0.000781375               0.999999985               0.000145998               0.000757093               0.999999985               0.000088886               0.000731222               0.999999985               0.000030851               0.000704600               0.999999985              -0.000027391               0.000677881               0.999999985               0.000529867               0.001053333               0.999999985               0.000409133               0.000940166               0.999999985               0.000370768               0.000900391               0.999999985               0.000359822               0.000894484               0.999999985               0.000356943               0.000903124               0.999999985               0.000353638               0.000916855               0.999999985               0.000345641               0.000930614               0.999999985               0.000331585               0.000941508               0.999999985               0.000310840               0.000948300               0.999999985               0.000283131               0.000950148               0.999999985               0.000248504               0.000946995               0.999999985               0.000207291               0.000939149               0.999999985               0.000159905               0.000927229               0.999999985               0.000107496               0.000912205               0.999999985               0.000051616               0.000895444               0.999999985              -0.000006595               0.000877719               0.999999985              -0.000065623               0.000859953               0.999999985               0.000463089               0.001138975               0.999999985               0.000343425               0.001049789               0.999999985               0.000302484               0.001012534               0.999999985               0.000290019               0.001003915               0.999999985               0.000286986               0.001010250               0.999999985               0.000284689               0.001023464               0.999999985               0.000279024               0.001038724               0.999999985               0.000268267               0.001053156               0.999999985               0.000251506               0.001065030               0.999999985               0.000228118               0.001073401               0.999999985               0.000198247               0.001077784               0.999999985               0.000161927               0.001078177               0.999999985               0.000118908               0.001074965               0.999999985               0.000069854               0.001068787               0.999999985               0.000015893               0.001060467               0.999999985              -0.000041821               0.001051018               0.999999985              -0.000101686               0.001041375               0.999999985               0.000392159               0.001214400               0.999999985               0.000280601               0.001152647               0.999999985               0.000239026               0.001122494               0.999999985               0.000224756               0.001114576               0.999999985               0.000220759               0.001120393               0.999999985               0.000218740               0.001133797               0.999999985               0.000214647               0.001150660               0.999999985               0.000206630               0.001168404               0.999999985               0.000193441               0.001185107               0.999999985               0.000174388               0.001199539               0.999999985               0.000149270               0.001211065               0.999999985               0.000117863               0.001219423               0.999999985               0.000079850               0.001224546               0.999999985               0.000035065               0.001226920               0.999999985              -0.000015963               0.001226980               0.999999985              -0.000072580               0.001225420               0.999999985              -0.000133695               0.001223319               0.999999985               0.000317867               0.001278014               0.999999985               0.000220788               0.001244308               0.999999985               0.000181236               0.001224741               0.999999985               0.000166021               0.001220417               0.999999985               0.000160983               0.001227624               0.999999985               0.000158707               0.001242365               0.999999985               0.000155499               0.001261516               0.999999985               0.000149446               0.001282608               0.999999985               0.000139512               0.001303943               0.999999985               0.000124679               0.001324258               0.999999985               0.000104311               0.001342712               0.999999985               0.000078210               0.001358858               0.999999985               0.000045793               0.001372568               0.999999985               0.000006483               0.001383716               0.999999985              -0.000040096               0.001392621               0.999999985              -0.000094150               0.001399599               0.999999985              -0.000155673               0.001405294               0.999999985               0.000240860               0.001328792               0.999999985               0.000163419               0.001320707               0.999999985               0.000129383               0.001313094               0.999999985               0.000114974               0.001314208               0.999999985               0.000109464               0.001324258               0.999999985               0.000107010               0.001341242               0.999999985               0.000104285               0.001363033               0.999999985               0.000099908               0.001387594               0.999999985               0.000092785               0.001413419               0.999999985               0.000081867               0.001439435               0.999999985               0.000066376               0.001464677               0.999999985               0.000046003               0.001488540               0.999999985               0.000020124               0.001510734               0.999999985              -0.000012004               0.001530863               0.999999985              -0.000051481               0.001548816               0.999999985              -0.000099576               0.001564619               0.999999985              -0.000157297               0.001578616               0.999999985               0.000161793               0.001365804               0.999999985               0.000107915               0.001378165               0.999999985               0.000082927               0.001381525               0.999999985               0.000071499               0.001388490               0.999999985               0.000066695               0.001401845               0.999999985               0.000064393               0.001421422               0.999999985               0.000062297               0.001445681               0.999999985               0.000059467               0.001473259               0.999999985               0.000054773               0.001503090               0.999999985               0.000047491               0.001534020               0.999999985               0.000037136               0.001565157               0.999999985               0.000023306               0.001595887               0.999999985               0.000005327               0.001625713               0.999999985              -0.000017634               0.001654178               0.999999985              -0.000046863               0.001680800               0.999999985              -0.000083889               0.001705230               0.999999985              -0.000130655               0.001727305               0.999999985               0.000081284               0.001388326               0.999999985               0.000053652               0.001413876               0.999999985               0.000040434               0.001424956               0.999999985               0.000034074               0.001436437               0.999999985               0.000031257               0.001452563               0.999999985               0.000029798               0.001474106               0.999999985               0.000028693               0.001500164               0.999999985               0.000027171               0.001529831               0.999999985               0.000024804               0.001562286               0.999999985               0.000021284               0.001596545               0.999999985               0.000016161               0.001631816               0.999999985               0.000009200               0.001667508               0.999999985              -0.000000010               0.001702973               0.999999985              -0.000012086               0.001737738               0.999999985              -0.000027705               0.001771237               0.999999985              -0.000048102               0.001802703               0.999999985              -0.000074936               0.001831211               0.999999985              -0.000000000               0.001395876               0.999999985               0.000000000               0.001425976               0.999999985              -0.000000000               0.001439826               0.999999985               0.000000000               0.001453035               0.999999985               0.000000000               0.001470351               0.999999985              -0.000000000               0.001492636               0.999999985               0.000000000               0.001519246               0.999999985              -0.000000000               0.001549592               0.999999985               0.000000000               0.001582813               0.999999985              -0.000000000               0.001618265               0.999999985               0.000000000               0.001655132               0.999999985               0.000000000               0.001692558               0.999999985               0.000000000               0.001730207               0.999999985               0.000000000               0.001767581               0.999999985              -0.000000000               0.001803858               0.999999985              -0.000000000               0.001838165               0.999999985               0.000000000               0.001869283               0.999999985 </DataArray>
<DataArray type="Float64"                                    Name="defo"                                                      NumberOfComponents=" 3" format="ascii">
             -0.000870094              -0.000000000               0.999999985              -0.000920677               0.000000000               0.999999985              -0.000941911              -0.000000000               0.999999985              -0.000953776               0.000000000               0.999999985              -0.000963600               0.000000000               0.999999985              -0.000974019              -0.000000000               0.999999985              -0.000985865               0.000000000               0.999999985              -0.000998891               0.000000000               0.999999985              -0.001012854              -0.000000000               0.999999985              -0.001027353               0.000000000               0.999999985              -0.001041895               0.000000000               0.999999985              -0.001056044              -0.000000000               0.999999985              -0.001069375               0.000000000               0.999999985              -0.001081476              -0.000000000               0.999999985              -0.001091949              -0.000000000               0.999999985              -0.001100114              -0.000000000               0.999999985              -0.001105129               0.000000000               0.999999985              -0.000865172               0.000132365               0.999999985              -0.000911516               0.000105508               0.999999985              -0.000930154               0.000093319               0.999999985              -0.000940343               0.000088631               0.999999985              -0.000948946               0.000087617               0.999999985              -0.000958384               0.000088395               0.999999985              -0.000969161               0.000089606               0.999999985              -0.000981189               0.000090659               0.999999985              -0.000994056               0.000091007               0.999999985              -0.001007193               0.000090249               0.999999985              -0.001020171               0.000088196               0.999999985              -0.001032624               0.000084640               0.999999985              -0.001044056               0.000079091               0.999999985              -0.001054002               0.000071190               0.999999985              -0.001062141               0.000060519               0.999999985              -0.001067910               0.000045984               0.999999985              -0.001070714               0.000026130               0.999999985              -0.000850639               0.000263497               0.999999985              -0.000884741               0.000210562               0.999999985              -0.000895867               0.000187579               0.999999985              -0.000901388               0.000179201               0.999999985              -0.000906881               0.000178007               0.999999985              -0.000913807               0.000179975               0.999999985              -0.000922147               0.000182786               0.999999985              -0.000931531               0.000184991               0.999999985              -0.000941169               0.000185611               0.999999985              -0.000950558               0.000184241               0.999999985              -0.000959290               0.000180427               0.999999985              -0.000966961               0.000173806               0.999999985              -0.000973248               0.000163504               0.999999985              -0.000977739               0.000148917               0.999999985              -0.000980020               0.000129542               0.999999985              -0.000979742               0.000103910               0.999999985              -0.000976754               0.000070439               0.999999985              -0.000826832               0.000392229               0.999999985              -0.000841726               0.000314930               0.999999985              -0.000841964               0.000283447               0.999999985              -0.000841228               0.000273249               0.999999985              -0.000842713               0.000273097               0.999999985              -0.000846424               0.000277041               0.999999985              -0.000851621               0.000281654               0.999999985              -0.000857208               0.000285046               0.999999985              -0.000862449               0.000286024               0.999999985              -0.000866764               0.000284122               0.999999985              -0.000869786               0.000278898               0.999999985              -0.000871049               0.000269868               0.999999985              -0.000870174               0.000255980               0.999999985              -0.000866962               0.000236696               0.999999985              -0.000861164               0.000211558               0.999999985              -0.000852772               0.000179434               0.999999985              -0.000841965               0.000139678               0.999999985              -0.000794279               0.000517402               0.999999985              -0.000784599               0.000418603               0.999999985              -0.000772754               0.000381525               0.999999985              -0.000765882               0.000371491               0.999999985              -0.000763628               0.000373527               0.999999985              -0.000764345               0.000379851               0.999999985              -0.000766109               0.000386559               0.999999985              -0.000767673               0.000390999               0.999999985              -0.000767995               0.000392361               0.999999985              -0.000766538               0.000390088               0.999999985              -0.000762903               0.000383895               0.999999985              -0.000756705               0.000372992               0.999999985              -0.000747607               0.000356564               0.999999985              -0.000735508               0.000334236               0.999999985              -0.000720499               0.000305838               0.999999985              -0.000702751               0.000271155               0.999999985              -0.000682874               0.000230564               0.999999985              -0.000753438               0.000638013               0.999999985              -0.000716201               0.000521704               0.999999985              -0.000693188               0.000482051               0.999999985              -0.000681600               0.000473831               0.999999985              -0.000676909               0.000478662               0.999999985              -0.000675293               0.000487600               0.999999985              -0.000674053               0.000496000               0.999999985              -0.000671447               0.000501520               0.999999985              -0.000666464               0.000503112               0.999999985              -0.000658640               0.000500648               0.999999985              -0.000647554               0.000493572               0.999999985              -0.000632884               0.000481144               0.999999985              -0.000614450               0.000462853               0.999999985              -0.000592374               0.000438751               0.999999985              -0.000567241               0.000409035               0.999999985              -0.000539604               0.000374503               0.999999985              -0.000510335               0.000336261               0.999999985              -0.000705129               0.000752903               0.999999985              -0.000639907               0.000624315               0.999999985              -0.000608379               0.000584652               0.999999985              -0.000594575               0.000579093               0.999999985              -0.000589066               0.000586848               0.999999985              -0.000585932               0.000598086               0.999999985              -0.000581851               0.000607956               0.999999985              -0.000574900               0.000614076               0.999999985              -0.000564205               0.000615921               0.999999985              -0.000549249               0.000612930               0.999999985              -0.000529780               0.000604850               0.999999985              -0.000505654               0.000590853               0.999999985              -0.000477145               0.000570912               0.999999985              -0.000444769               0.000545746               0.999999985              -0.000409367               0.000516180               0.999999985              -0.000371840               0.000483353               0.999999985              -0.000333232               0.000448650               0.999999985              -0.000650507               0.000860705               0.999999985              -0.000559475               0.000726121               0.999999985              -0.000523223               0.000688253               0.999999985              -0.000510043               0.000685385               0.999999985              -0.000505069               0.000695627               0.999999985              -0.000500959               0.000708693               0.999999985              -0.000493872               0.000719591               0.999999985              -0.000482011               0.000726247               0.999999985              -0.000464678               0.000727932               0.999999985              -0.000441608               0.000724050               0.999999985              -0.000412779               0.000714474               0.999999985              -0.000378430               0.000698829               0.999999985              -0.000339263               0.000677575               0.999999985              -0.000296062               0.000652208               0.999999985              -0.000250007               0.000623859               0.999999985              -0.000202312               0.000593632               0.999999985              -0.000153924               0.000562578               0.999999985              -0.000591209               0.000959568               0.999999985              -0.000477650               0.000827042               0.999999985              -0.000442108               0.000791236               0.999999985              -0.000431671               0.000790537               0.999999985              -0.000428076               0.000802610               0.999999985              -0.000422789               0.000817056               0.999999985              -0.000412029               0.000828704               0.999999985              -0.000394380               0.000835599               0.999999985              -0.000369447               0.000836607               0.999999985              -0.000337090               0.000831429               0.999999985              -0.000297822               0.000819957               0.999999985              -0.000252108               0.000802850               0.999999985              -0.000200946               0.000781375               0.999999985              -0.000145998               0.000757093               0.999999985              -0.000088886               0.000731222               0.999999985              -0.000030851               0.000704600               0.999999985               0.000027391               0.000677881               0.999999985              -0.000529867               0.001053333               0.999999985              -0.000409133               0.000940166               0.999999985              -0.000370768               0.000900391               0.999999985              -0.000359822               0.000894484               0.999999985              -0.000356943               0.000903124               0.999999985              -0.000353638               0.000916855               0.999999985              -0.000345641               0.000930614               0.999999985              -0.000331585               0.000941508               0.999999985              -0.000310840               0.000948300               0.999999985              -0.000283131               0.000950148               0.999999985              -0.000248504               0.000946995               0.999999985              -0.000207291               0.000939149               0.999999985              -0.000159905               0.000927229               0.999999985              -0.000107496               0.000912205               0.999999985              -0.000051616               0.000895444               0.999999985               0.000006595               0.000877719               0.999999985               0.000065623               0.000859953               0.999999985              -0.000463089               0.001138975               0.999999985              -0.000343425               0.001049789               0.999999985              -0.000302484               0.001012534               0.999999985              -0.000290019               0.001003915               0.999999985              -0.000286986               0.001010250               0.999999985              -0.000284689               0.001023464               0.999999985              -0.000279024               0.001038724               0.999999985              -0.000268267               0.001053156               0.999999985              -0.000251506               0.001065030               0.999999985              -0.000228118               0.001073401               0.999999985              -0.000198247               0.001077784               0.999999985              -0.000161927               0.001078177               0.999999985              -0.000118908               0.001074965               0.999999985              -0.000069854               0.001068787               0.999999985              -0.000015893               0.001060467               0.999999985               0.000041821               0.001051018               0.999999985               0.000101686               0.001041375               0.999999985              -0.000392159               0.001214400               0.999999985              -0.000280601               0.001152647               0.999999985              -0.000239026               0.001122494               0.999999985              -0.000224756               0.001114576               0.999999985              -0.000220759               0.001120393               0.999999985              -0.000218740               0.001133797               0.999999985              -0.000214647               0.001150660               0.999999985              -0.000206630               0.001168404               0.999999985              -0.000193441               0.001185107               0.999999985              -0.000174388               0.001199539               0.999999985              -0.000149270               0.001211065               0.999999985              -0.000117863               0.001219423               0.999999985              -0.000079850               0.001224546               0.999999985              -0.000035065               0.001226920               0.999999985               0.000015963               0.001226980               0.999999985               0.000072580               0.001225420               0.999999985               0.000133695               0.001223319               0.999999985              -0.000317867               0.001278014               0.999999985              -0.000220788               0.001244308               0.999999985              -0.000181236               0.001224741               0.999999985              -0.000166021               0.001220417               0.999999985              -0.000160983               0.001227624               0.999999985              -0.000158707               0.001242365               0.999999985              -0.000155499               0.001261516               0.999999985              -0.000149446               0.001282608               0.999999985              -0.000139512               0.001303943               0.999999985              -0.000124679               0.001324258               0.999999985              -0.000104311               0.001342712               0.999999985              -0.000078210               0.001358858               0.999999985              -0.000045793               0.001372568               0.999999985              -0.000006483               0.001383716               0.999999985               0.000040096               0.001392621               0.999999985               0.000094150               0.001399599               0.999999985               0.000155673               0.001405294               0.999999985              -0.000240860               0.001328792               0.999999985              -0.000163419               0.001320707               0.999999985              -0.000129383               0.001313094               0.999999985              -0.000114974               0.001314208               0.999999985              -0.000109464               0.001324258               0.999999985              -0.000107010               0.001341242               0.999999985              -0.000104285               0.001363033               0.999999985              -0.000099908               0.001387594               0.999999985              -0.000092785               0.001413419               0.999999985              -0.000081867               0.001439435               0.999999985              -0.000066376               0.001464677               0.999999985              -0.000046003               0.001488540               0.999999985              -0.000020124               0.001510734               0.999999985               0.000012004               0.001530863               0.999999985               0.000051481               0.001548816               0.999999985               0.000099576               0.001564619               0.999999985               0.000157297               0.001578616               0.999999985              -0.000161793               0.001365804               0.999999985              -0.000107915               0.001378165               0.999999985              -0.000082927               0.001381525               0.999999985              -0.000071499               0.001388490               0.999999985              -0.000066695               0.001401845               0.999999985              -0.000064393               0.001421422               0.999999985              -0.000062297               0.001445681               0.999999985              -0.000059467               0.001473259               0.999999985              -0.000054773               0.001503090               0.999999985              -0.000047491               0.001534020               0.999999985              -0.000037136               0.001565157               0.999999985              -0.000023306               0.001595887               0.999999985              -0.000005327               0.001625713               0.999999985               0.000017634               0.001654178               0.999999985               0.000046863               0.001680800               0.999999985               0.000083889               0.001705230               0.999999985               0.000130655               0.001727305               0.999999985              -0.000081284               0.001388326               0.999999985              -0.000053652               0.001413876               0.999999985              -0.000040434               0.001424956               0.999999985              -0.000034074               0.001436437               0.999999985              -0.000031257               0.001452563               0.999999985              -0.000029798               0.001474106               0.999999985              -0.000028693               0.001500164               0.999999985              -0.000027171               0.001529831               0.999999985              -0.000024804               0.001562286               0.999999985              -0.000021284               0.001596545               0.999999985              -0.000016161               0.001631816               0.999999985              -0.000009200               0.001667508               0.999999985               0.000000010               0.001702973               0.999999985               0.000012086               0.001737738               0.999999985               0.000027705               0.001771237               0.999999985               0.000048102               0.001802703               0.999999985               0.000074936               0.001831211               0.999999985              -0.000000000               0.001395876               0.999999985               0.000000000               0.001425976               0.999999985              -0.000000000               0.001439826               0.999999985               0.000000000               0.001453035               0.999999985               0.000000000               0.001470351               0.999999985              -0.000000000               0.001492636               0.999999985               0.000000000               0.001519246               0.999999985              -0.000000000               0.001549592               0.999999985               0.000000000               0.001582813               0.999999985              -0.000000000               0.001618265               0.999999985               0.000000000               0.001655132               0.999999985               0.000000000               0.001692558               0.999999985               0.000000000               0.001730207               0.999999985               0.000000000               0.001767581               0.999999985              -0.000000000               0.001803858               0.999999985              -0.000000000               0.001838165               0.999999985               0.000000000               0.001869283               0.999999985              -0.000870094              -0.000000000               0.999999985              -0.000920677               0.000000000               0.999999985              -0.000941911              -0.000000000               0.999999985              -0.000953776               0.000000000               0.999999985              -0.000963600               0.000000000               0.999999985              -0.000974019              -0.000000000               0.999999985              -0.000985865               0.000000000               0.999999985              -0.000998891               0.000000000               0.999999985              -0.001012854              -0.000000000               0.999999985              -0.001027353               0.000000000               0.999999985              -0.001041895               0.000000000               0.999999985              -0.001056044              -0.000000000               0.999999985              -0.001069375               0.000000000               0.999999985              -0.001081476              -0.000000000               0.999999985              -0.001091949              -0.000000000               0.999999985              -0.001100114              -0.000000000               0.999999985              -0.001105129               0.000000000               0.999999985              -0.000865172              -0.000132365               0.999999985              -0.000911516              -0.000105508               0.999999985              -0.000930154              -0.000093319               0.999999985              -0.000940343              -0.000088631               0.999999985              -0.000948946              -0.000087617               0.999999985              -0.000958384              -0.000088395               0.999999985              -0.000969161              -0.000089606               0.999999985              -0.000981189              -0.000090659               0.999999985              -0.000994056              -0.000091007               0.999999985              -0.001007193              -0.000090249               0.999999985              -0.001020171              -0.000088196               0.999999985              -0.001032624              -0.000084640               0.999999985              -0.001044056              -0.000079091               0.999999985              -0.001054002              -0.000071190               0.999999985              -0.001062141              -0.000060519               0.999999985              -0.001067910              -0.000045984               0.999999985              -0.001070714              -0.000026130               0.999999985              -0.000850639              -0.000263497               0.999999985              -0.000884741              -0.000210562               0.999999985              -0.000895867              -0.000187579               0.999999985              -0.000901388              -0.000179201               0.999999985              -0.000906881              -0.000178007               0.999999985              -0.000913807              -0.000179975               0.999999985              -0.000922147              -0.000182786               0.999999985              -0.000931531              -0.000184991               0.999999985              -0.000941169              -0.000185611               0.999999985              -0.000950558              -0.000184241               0.999999985              -0.000959290              -0.000180427               0.999999985              -0.000966961              -0.000173806               0.999999985              -0.000973248              -0.000163504               0.999999985              -0.000977739              -0.000148917               0.999999985              -0.000980020              -0.000129542               0.999999985              -0.000979742              -0.000103910               0.999999985              -0.000976754              -0.000070439               0.999999985              -0.000826832              -0.000392229               0.999999985              -0.000841726              -0.000314930               0.999999985              -0.000841964              -0.000283447               0.999999985              -0.000841228              -0.000273249               0.999999985              -0.000842713              -0.000273097               0.999999985              -0.000846424              -0.000277041               0.999999985              -0.000851621              -0.000281654               0.999999985              -0.000857208              -0.000285046               0.999999985              -0.000862449              -0.000286024               0.999999985              -0.000866764              -0.000284122               0.999999985              -0.000869786              -0.000278898               0.999999985              -0.000871049              -0.000269868               0.999999985              -0.000870174              -0.000255980               0.999999985              -0.000866962              -0.000236696               0.999999985              -0.000861164              -0.000211558               0.999999985              -0.000852772              -0.000179434               0.999999985              -0.000841965              -0.000139678               0.999999985              -0.000794279              -0.000517402               0.999999985              -0.000784599              -0.000418603               0.999999985              -0.000772754              -0.000381525               0.999999985              -0.000765882              -0.000371491               0.999999985              -0.000763628              -0.000373527               0.999999985              -0.000764345              -0.000379851               0.999999985              -0.000766109              -0.000386559               0.999999985              -0.000767673              -0.000390999               0.999999985              -0.000767995              -0.000392361               0.999999985              -0.000766538              -0.000390088               0.999999985              -0.000762903              -0.000383895               0.999999985              -0.000756705              -0.000372992               0.999999985              -0.000747607              -0.000356564               0.999999985              -0.000735508              -0.000334236               0.999999985              -0.000720499              -0.000305838               0.999999985              -0.000702751              -0.000271155               0.999999985              -0.000682874              -0.000230564               0.999999985              -0.000753438              -0.000638013               0.999999985              -0.000716201              -0.000521704               0.999999985              -0.000693188              -0.000482051               0.999999985              -0.000681600              -0.000473831               0.999999985              -0.000676909              -0.000478662               0.999999985              -0.000675293              -0.000487600               0.999999985              -0.000674053              -0.000496000               0.999999985              -0.000671447              -0.000501520               0.999999985              -0.000666464              -0.000503112               0.999999985              -0.000658640              -0.000500648               0.999999985              -0.000647554              -0.000493572               0.999999985              -0.000632884              -0.000481144               0.999999985              -0.000614450              -0.000462853               0.999999985              -0.000592374              -0.000438751               0.999999985              -0.000567241              -0.000409035               0.999999985              -0.000539604              -0.000374503               0.999999985              -0.000510335              -0.000336261               0.999999985              -0.000705129              -0.000752903               0.999999985              -0.000639907              -0.000624315               0.999999985              -0.000608379              -0.000584652               0.999999985              -0.000594575              -0.000579093               0.999999985              -0.000589066              -0.000586848               0.999999985              -0.000585932              -0.000598086               0.999999985              -0.000581851              -0.000607956               0.999999985              -0.000574900              -0.000614076               0.999999985              -0.000564205              -0.000615921               0.999999985              -0.000549249              -0.000612930               0.999999985              -0.000529780              -0.000604850               0.999999985              -0.000505654              -0.000590853               0.999999985              -0.000477145              -0.000570912               0.999999985              -0.000444769              -0.000545746               0.999999985              -0.000409367              -0.000516180               0.999999985              -0.000371840              -0.000483353               0.999999985              -0.000333232              -0.000448650               0.999999985              -0.000650507              -0.000860705               0.999999985              -0.000559475              -0.000726121               0.999999985              -0.000523223              -0.000688253               0.999999985              -0.000510043              -0.000685385               0.999999985              -0.000505069              -0.000695627               0.999999985              -0.000500959              -0.000708693               0.999999985              -0.000493872              -0.000719591               0.999999985              -0.000482011              -0.000726247               0.999999985              -0.000464678              -0.000727932               0.999999985              -0.000441608              -0.000724050               0.999999985              -0.000412779              -0.000714474               0.999999985              -0.000378430              -0.000698829               0.999999985              -0.000339263              -0.000677575               0.999999985              -0.000296062              -0.000652208               0.999999985              -0.000250007              -0.000623859               0.999999985              -0.000202312              -0.000593632               0.999999985              -0.000153924              -0.000562578               0.999999985              -0.000591209              -0.000959568               0.999999985              -0.000477650              -0.000827042               0.999999985              -0.000442108              -0.000791236               0.999999985              -0.000431671              -0.000790537               0.999999985              -0.000428076              -0.000802610               0.999999985              -0.000422789              -0.000817056               0.999999985              -0.000412029              -0.000828704               0.999999985              -0.000394380              -0.000835599               0.999999985              -0.000369447              -0.000836607               0.999999985              -0.000337090              -0.000831429               0.999999985              -0.000297822              -0.000819957               0.999999985              -0.000252108              -0.000802850               0.999999985              -0.000200946              -0.000781375               0.999999985              -0.000145998              -0.000757093               0.999999985              -0.000088886              -0.000731222               0.999999985              -0.000030851              -0.000704600               0.999999985               0.000027391              -0.000677881               0.999999985              -0.000529867              -0.001053333               0.999999985              -0.000409133              -0.000940166               0.999999985              -0.000370768              -0.000900391               0.999999985              -0.000359822              -0.000894484               0.999999985              -0.000356943              -0.000903124               0.999999985              -0.000353638              -0.000916855               0.999999985              -0.000345641              -0.000930614               0.999999985              -0.000331585              -0.000941508               0.999999985              -0.000310840              -0.000948300               0.999999985              -0.000283131              -0.000950148               0.999999985              -0.000248504              -0.000946995               0.999999985              -0.000207291              -0.000939149               0.999999985              -0.000159905              -0.000927229               0.999999985              -0.000107496              -0.000912205               0.999999985              -0.000051616              -0.000895444               0.999999985               0.000006595              -0.000877719               0.999999985               0.000065623              -0.000859953               0.999999985              -0.000463089              -0.001138975               0.999999985              -0.000343425              -0.001049789               0.999999985              -0.000302484              -0.001012534               0.999999985              -0.000290019              -0.001003915               0.999999985              -0.000286986              -0.001010250               0.999999985              -0.000284689              -0.001023464               0.999999985              -0.000279024              -0.001038724               0.999999985              -0.000268267              -0.001053156               0.999999985              -0.000251506              -0.001065030               0.999999985              -0.000228118              -0.001073401               0.999999985              -0.000198247              -0.001077784               0.999999985              -0.000161927              -0.001078177               0.999999985              -0.000118908              -0.001074965               0.999999985              -0.000069854              -0.001068787               0.999999985              -0.000015893              -0.001060467               0.999999985               0.000041821              -0.001051018               0.999999985               0.000101686              -0.001041375               0.999999985              -0.000392159              -0.001214400               0.999999985              -0.000280601              -0.001152647               0.999999985              -0.000239026              -0.001122494               0.999999985              -0.000224756              -0.001114576               0.999999985              -0.000220759              -0.001120393               0.999999985              -0.000218740              -0.001133797               0.999999985              -0.000214647              -0.001150660               0.999999985              -0.000206630              -0.001168404               0.999999985              -0.000193441              -0.001185107               0.999999985              -0.000174388              -0.001199539               0.999999985              -0.000149270              -0.001211065               0.999999985              -0.000117863              -0.001219423               0.999999985              -0.000079850              -0.001224546               0.999999985              -0.000035065              -0.001226920               0.999999985               0.000015963              -0.001226980               0.999999985               0.000072580              -0.001225420               0.999999985               0.000133695              -0.001223319               0.999999985              -0.000317867              -0.001278014               0.999999985              -0.000220788              -0.001244308               0.999999985              -0.000181236              -0.001224741               0.999999985              -0.000166021              -0.001220417               0.999999985              -0.000160983              -0.001227624               0.999999985              -0.000158707              -0.001242365               0.999999985              -0.000155499              -0.001261516               0.999999985              -0.000149446              -0.001282608               0.999999985              -0.000139512              -0.001303943               0.999999985              -0.000124679              -0.001324258               0.999999985              -0.000104311              -0.001342712               0.999999985              -0.000078210              -0.001358858               0.999999985              -0.000045793              -0.001372568               0.999999985              -0.000006483              -0.001383716               0.999999985               0.000040096              -0.001392621               0.999999985               0.000094150              -0.001399599               0.999999985               0.000155673              -0.001405294               0.999999985              -0.000240860              -0.001328792               0.999999985              -0.000163419              -0.001320707               0.999999985              -0.000129383              -0.001313094               0.999999985              -0.000114974              -0.001314208               0.999999985              -0.000109464              -0.001324258               0.999999985              -0.000107010              -0.001341242               0.999999985              -0.000104285              -0.001363033               0.999999985              -0.000099908              -0.001387594               0.999999985              -0.000092785              -0.001413419               0.999999985              -0.000081867              -0.001439435               0.999999985              -0.000066376              -0.001464677               0.999999985              -0.000046003              -0.001488540               0.999999985              -0.000020124              -0.001510734               0.999999985               0.000012004              -0.001530863               0.999999985               0.000051481              -0.001548816               0.999999985               0.000099576              -0.001564619               0.999999985               0.000157297              -0.001578616               0.999999985              -0.000161793              -0.001365804               0.999999985              -0.000107915              -0.001378165               0.999999985              -0.000082927              -0.001381525               0.999999985              -0.000071499              -0.001388490               0.999999985              -0.000066695              -0.001401845               0.999999985              -0.000064393              -0.001421422               0.999999985              -0.000062297              -0.001445681               0.999999985              -0.000059467              -0.001473259               0.999999985              -0.000054773              -0.001503090               0.999999985              -0.000047491              -0.001534020               0.999999985              -0.000037136              -0.001565157               0.999999985              -0.000023306              -0.001595887               0.999999985              -0.000005327              -0.001625713               0.999999985               0.000017634              -0.001654178               0.999999985               0.000046863              -0.001680800               0.999999985               0.000083889              -0.001705230               0.999999985               0.000130655              -0.001727305               0.999999985              -0.000081284              -0.001388326               0.999999985              -0.000053652              -0.001413876               0.999999985              -0.000040434              -0.001424956               0.999999985              -0.000034074              -0.001436437               0.999999985              -0.000031257              -0.001452563               0.999999985              -0.000029798              -0.001474106               0.999999985              -0.000028693              -0.001500164               0.999999985              -0.000027171              -0.001529831               0.999999985              -0.000024804              -0.001562286               0.999999985              -0.000021284              -0.001596545               0.999999985              -0.000016161              -0.001631816               0.999999985              -0.000009200              -0.001667508               0.999999985               0.000000010              -0.001702973               0.999999985               0.000012086              -0.001737738               0.999999985               0.000027705              -0.001771237               0.999999985               0.000048102              -0.001802703               0.999999985               0.000074936              -0.001831211               0.999999985              -0.000000000              -0.001395876               0.999999985               0.000000000              -0.001425976               0.999999985              -0.000000000              -0.001439826               0.999999985               0.000000000              -0.001453035               0.999999985              -0.000000000              -0.001470351               0.999999985               0.000000000              -0.001492636               0.999999985              -0.000000000              -0.001519246               0.999999985              -0.000000000              -0.001549592               0.999999985              -0.000000000              -0.001582813               0.999999985              -0.000000000              -0.001618265               0.999999985              -0.000000000              -0.001655132               0.999999985              -0.000000000              -0.001692558               0.999999985               0.000000000              -0.001730207               0.999999985              -0.000000000              -0.001767581               0.999999985               0.000000000              -0.001803858               0.999999985              -0.000000000              -0.001838165               0.999999985               0.000000000              -0.001869283               0.999999985               0.000870094              -0.000000000               0.999999985               0.000920677              -0.000000000               0.999999985               0.000941911              -0.000000000               0.999999985               0.000953776              -0.000000000               0.999999985               0.000963600              -0.000000000               0.999999985               0.000974019               0.000000000               0.999999985               0.000985865              -0.000000000               0.999999985               0.000998891               0.000000000               0.999999985               0.001012854               0.000000000               0.999999985               0.001027353               0.000000000               0.999999985               0.001041895               0.000000000               0.999999985               0.001056044               0.000000000               0.999999985               0.001069375               0.000000000               0.999999985               0.001081476               0.000000000               0.999999985               0.001091949              -0.000000000               0.999999985               0.001100114               0.000000000               0.999999985               0.001105129               0.000000000               0.999999985               0.000865172              -0.000132365               0.999999985               0.000911516              -0.000105508               0.999999985               0.000930154              -0.000093319               0.999999985               0.000940343              -0.000088631               0.999999985               0.000948946              -0.000087617               0.999999985               0.000958384              -0.000088395               0.999999985               0.000969161              -0.000089606               0.999999985               0.000981189              -0.000090659               0.999999985               0.000994056              -0.000091007               0.999999985               0.001007193              -0.000090249               0.999999985               0.001020171              -0.000088196               0.999999985               0.001032624              -0.000084640               0.999999985               0.001044056              -0.000079091               0.999999985               0.001054002              -0.000071190               0.999999985               0.001062141              -0.000060519               0.999999985               0.001067910              -0.000045984               0.999999985               0.001070714              -0.000026130               0.999999985               0.000850639              -0.000263497               0.999999985               0.000884741              -0.000210562               0.999999985               0.000895867              -0.000187579               0.999999985               0.000901388              -0.000179201               0.999999985               0.000906881              -0.000178007               0.999999985               0.000913807              -0.000179975               0.999999985               0.000922147              -0.000182786               0.999999985               0.000931531              -0.000184991               0.999999985               0.000941169              -0.000185611               0.999999985               0.000950558              -0.000184241               0.999999985               0.000959290              -0.000180427               0.999999985               0.000966961              -0.000173806               0.999999985               0.000973248              -0.000163504               0.999999985               0.000977739              -0.000148917               0.999999985               0.000980020              -0.000129542               0.999999985               0.000979742              -0.000103910               0.999999985               0.000976754              -0.000070439               0.999999985               0.000826832              -0.000392229               0.999999985               0.000841726              -0.000314930               0.999999985               0.000841964              -0.000283447               0.999999985               0.000841228              -0.000273249               0.999999985               0.000842713              -0.000273097               0.999999985               0.000846424              -0.000277041               0.999999985               0.000851621              -0.000281654               0.999999985               0.000857208              -0.000285046               0.999999985               0.000862449              -0.000286024               0.999999985               0.000866764              -0.000284122               0.999999985               0.000869786              -0.000278898               0.999999985               0.000871049              -0.000269868               0.999999985               0.000870174              -0.000255980               0.999999985               0.000866962              -0.000236696               0.999999985               0.000861164              -0.000211558               0.999999985               0.000852772              -0.000179434               0.999999985               0.000841965              -0.000139678               0.999999985               0.000794279              -0.000517402               0.999999985               0.000784599              -0.000418603               0.999999985               0.000772754              -0.000381525               0.999999985               0.000765882              -0.000371491               0.999999985               0.000763628              -0.000373527               0.999999985               0.000764345              -0.000379851               0.999999985               0.000766109              -0.000386559               0.999999985               0.000767673              -0.000390999               0.999999985               0.000767995              -0.000392361               0.999999985               0.000766538              -0.000390088               0.999999985               0.000762903              -0.000383895               0.999999985               0.000756705              -0.000372992               0.999999985               0.000747607              -0.000356564               0.999999985               0.000735508              -0.000334236               0.999999985               0.000720499              -0.000305838               0.999999985               0.000702751              -0.000271155               0.999999985               0.000682874              -0.000230564               0.999999985               0.000753438              -0.000638013               0.999999985               0.000716201              -0.000521704               0.999999985               0.000693188              -0.000482051               0.999999985               0.000681600              -0.000473831               0.999999985               0.000676909              -0.000478662               0.999999985               0.000675293              -0.000487600               0.999999985               0.000674053              -0.000496000               0.999999985               0.000671447              -0.000501520               0.999999985               0.000666464              -0.000503112               0.999999985               0.000658640              -0.000500648               0.999999985               0.000647554              -0.000493572               0.999999985               0.000632884              -0.000481144               0.999999985               0.000614450              -0.000462853               0.999999985               0.000592374              -0.000438751               0.999999985               0.000567241              -0.000409035               0.999999985               0.000539604              -0.000374503               0.999999985               0.000510335              -0.000336261               0.999999985               0.000705129              -0.000752903               0.999999985               0.000639907              -0.000624315               0.999999985               0.000608379              -0.000584652               0.999999985               0.000594575              -0.000579093               0.999999985               0.000589066              -0.000586848               0.999999985               0.000585932              -0.000598086               0.999999985               0.000581851              -0.000607956               0.999999985               0.000574900              -0.000614076               0.999999985               0.000564205              -0.000615921               0.999999985               0.000549249              -0.000612930               0.999999985               0.000529780              -0.000604850               0.999999985               0.000505654              -0.000590853               0.999999985               0.000477145              -0.000570912               0.999999985               0.000444769              -0.000545746               0.999999985               0.000409367              -0.000516180               0.999999985               0.000371840              -0.000483353               0.999999985               0.000333232              -0.000448650               0.999999985               0.000650507              -0.000860705               0.999999985               0.000559475              -0.000726121               0.999999985               0.000523223              -0.000688253               0.999999985               0.000510043              -0.000685385               0.999999985               0.000505069              -0.000695627               0.999999985               0.000500959              -0.000708693               0.999999985               0.000493872              -0.000719591               0.999999985               0.000482011              -0.000726247               0.999999985               0.000464678              -0.000727932               0.999999985               0.000441608              -0.000724050               0.999999985               0.000412779              -0.000714474               0.999999985               0.000378430              -0.000698829               0.999999985               0.000339263              -0.000677575               0.999999985               0.000296062              -0.000652208               0.999999985               0.000250007              -0.000623859               0.999999985               0.000202312              -0.000593632               0.999999985               0.000153924              -0.000562578               0.999999985               0.000591209              -0.000959568               0.999999985               0.000477650              -0.000827042               0.999999985               0.000442108              -0.000791236               0.999999985               0.000431671              -0.000790537               0.999999985               0.000428076              -0.000802610               0.999999985               0.000422789              -0.000817056               0.999999985               0.000412029              -0.000828704               0.999999985               0.000394380              -0.000835599               0.999999985               0.000369447              -0.000836607               0.999999985               0.000337090              -0.000831429               0.999999985               0.000297822              -0.000819957               0.999999985               0.000252108              -0.000802850               0.999999985               0.000200946              -0.000781375               0.999999985               0.000145998              -0.000757093               0.999999985               0.000088886              -0.000731222               0.999999985               0.000030851              -0.000704600               0.999999985              -0.000027391              -0.000677881               0.999999985               0.000529867              -0.001053333               0.999999985               0.000409133              -0.000940166               0.999999985               0.000370768              -0.000900391               0.999999985               0.000359822              -0.000894484               0.999999985               0.000356943              -0.000903124               0.999999985               0.000353638              -0.000916855               0.999999985               0.000345641              -0.000930614               0.999999985               0.000331585              -0.000941508               0.999999985               0.000310840              -0.000948300               0.999999985               0.000283131              -0.000950148               0.999999985               0.000248504              -0.000946995               0.999999985               0.000207291              -0.000939149               0.999999985               0.000159905              -0.000927229               0.999999985               0.000107496              -0.000912205               0.999999985               0.000051616              -0.000895444               0.999999985              -0.000006595              -0.000877719               0.999999985              -0.000065623              -0.000859953               0.999999985               0.000463089              -0.001138975               0.999999985               0.000343425              -0.001049789               0.999999985               0.000302484              -0.001012534               0.999999985               0.000290019              -0.001003915               0.999999985               0.000286986              -0.001010250               0.999999985               0.000284689              -0.001023464               0.999999985               0.000279024              -0.001038724               0.999999985               0.000268267              -0.001053156               0.999999985               0.000251506              -0.001065030               0.999999985               0.000228118              -0.001073401               0.999999985               0.000198247              -0.001077784               0.999999985               0.000161927              -0.001078177               0.999999985               0.000118908              -0.001074965               0.999999985               0.000069854              -0.001068787               0.999999985               0.000015893              -0.001060467               0.999999985              -0.000041821              -0.001051018               0.999999985              -0.000101686              -0.001041375               0.999999985               0.000392159              -0.001214400               0.999999985               0.000280601              -0.001152647               0.999999985               0.000239026              -0.001122494               0.999999985               0.000224756              -0.001114576               0.999999985               0.000220759              -0.001120393               0.999999985               0.000218740              -0.001133797               0.999999985               0.000214647              -0.001150660               0.999999985               0.000206630              -0.001168404               0.999999985               0.000193441              -0.001185107               0.999999985               0.000174388              -0.001199539               0.999999985               0.000149270              -0.001211065               0.999999985               0.000117863              -0.001219423               0.999999985               0.000079850              -0.001224546               0.999999985               0.000035065              -0.001226920               0.999999985              -0.000015963              -0.001226980               0.999999985              -0.000072580              -0.001225420               0.999999985              -0.000133695              -0.001223319               0.999999985               0.000317867              -0.001278014               0.999999985               0.000220788              -0.001244308               0.999999985               0.000181236              -0.001224741               0.999999985               0.000166021              -0.001220417               0.999999985               0.000160983              -0.001227624               0.999999985               0.000158707              -0.001242365               0.999999985               0.000155499              -0.001261516               0.999999985               0.000149446              -0.001282608               0.999999985               0.000139512              -0.001303943               0.999999985               0.000124679              -0.001324258               0.999999985               0.000104311              -0.001342712               0.999999985               0.000078210              -0.001358858               0.999999985               0.000045793              -0.001372568               0.999999985               0.000006483              -0.001383716               0.999999985              -0.000040096              -0.001392621               0.999999985              -0.000094150              -0.001399599               0.999999985              -0.000155673              -0.001405294               0.999999985               0.000240860              -0.001328792               0.999999985               0.000163419              -0.001320707               0.999999985               0.000129383              -0.001313094               0.999999985               0.000114974              -0.001314208               0.999999985               0.000109464              -0.001324258               0.999999985               0.000107010              -0.001341242               0.999999985               0.000104285              -0.001363033               0.999999985               0.000099908              -0.001387594               0.999999985               0.000092785              -0.001413419               0.999999985               0.000081867              -0.001439435               0.999999985               0.000066376              -0.001464677               0.999999985               0.000046003              -0.001488540               0.999999985               0.000020124              -0.001510734               0.999999985              -0.000012004              -0.001530863               0.999999985              -0.000051481              -0.001548816               0.999999985              -0.000099576              -0.001564619               0.999999985              -0.000157297              -0.001578616               0.999999985               0.000161793              -0.001365804               0.999999985               0.000107915              -0.001378165               0.999999985               0.000082927              -0.001381525               0.999999985               0.000071499              -0.001388490               0.999999985               0.000066695              -0.001401845               0.999999985               0.000064393              -0.001421422               0.999999985               0.000062297              -0.001445681               0.999999985               0.000059467              -0.001473259               0.999999985               0.000054773              -0.001503090               0.999999985               0.000047491              -0.001534020               0.999999985               0.000037136              -0.001565157               0.999999985               0.000023306              -0.001595887               0.999999985               0.000005327              -0.001625713               0.999999985              -0.000017634              -0.001654178               0.999999985              -0.000046863              -0.001680800               0.999999985              -0.000083889              -0.001705230               0.999999985              -0.000130655              -0.001727305               0.999999985               0.000081284              -0.001388326               0.999999985               0.000053652              -0.001413876               0.999999985               0.000040434              -0.001424956               0.999999985               0.000034074              -0.001436437               0.999999985               0.000031257              -0.001452563               0.999999985               0.000029798              -0.001474106               0.999999985               0.000028693              -0.001500164               0.999999985               0.000027171              -0.001529831               0.999999985               0.000024804              -0.001562286               0.999999985               0.000021284              -0.001596545               0.999999985               0.000016161              -0.001631816               0.999999985               0.000009200              -0.001667508               0.999999985              -0.000000010              -0.001702973               0.999999985              -0.000012086              -0.001737738               0.999999985              -0.000027705              -0.001771237               0.999999985              -0.000048102              -0.001802703               0.999999985              -0.000074936              -0.001831211               0.999999985              -0.000000000              -0.001395876               0.999999985               0.000000000              -0.001425976               0.999999985              -0.000000000              -0.001439826               0.999999985               0.000000000              -0.001453035               0.999999985              -0.000000000              -0.001470351               0.999999985               0.000000000              -0.001492636               0.999999985              -0.000000000              -0.001519246               0.999999985              -0.000000000              -0.001549592               0.999999985              -0.000000000              -0.001582813               0.999999985              -0.000000000              -0.001618265               0.999999985              -0.000000000              -0.001655132               0.999999985              -0.000000000              -0.001692558               0.999999985               0.000000000              -0.001730207               0.999999985              -0.000000000              -0.001767581               0.999999985               0.000000000              -0.001803858               0.999999985              -0.000000000              -0.001838165               0.999999985               0.000000000              -0.001869283               0.999999985               0.000870094              -0.000000000               0.999999985               0.000920677              -0.000000000               0.999999985               0.000941911              -0.000000000               0.999999985               0.000953776              -0.000000000               0.999999985               0.000963600              -0.000000000               0.999999985               0.000974019               0.000000000               0.999999985               0.000985865              -0.000000000               0.999999985               0.000998891               0.000000000               0.999999985               0.001012854               0.000000000               0.999999985               0.001027353               0.000000000               0.999999985               0.001041895               0.000000000               0.999999985               0.001056044               0.000000000               0.999999985               0.001069375               0.000000000               0.999999985               0.001081476               0.000000000               0.999999985               0.001091949              -0.000000000               0.999999985               0.001100114               0.000000000               0.999999985               0.001105129               0.000000000               0.999999985               0.000865172               0.000132365               0.999999985               0.000911516               0.000105508               0.999999985               0.000930154               0.000093319               0.999999985               0.000940343               0.000088631               0.999999985               0.000948946               0.000087617               0.999999985               0.000958384               0.000088395               0.999999985               0.000969161               0.000089606               0.999999985               0.000981189               0.000090659               0.999999985               0.000994056               0.000091007               0.999999985               0.001007193               0.000090249               0.999999985               0.001020171               0.000088196               0.999999985               0.001032624               0.000084640               0.999999985               0.001044056               0.000079091               0.999999985               0.001054002               0.000071190               0.999999985               0.001062141               0.000060519               0.999999985               0.001067910               0.000045984               0.999999985               0.001070714               0.000026130               0.999999985               0.000850639               0.000263497               0.999999985               0.000884741               0.000210562               0.999999985               0.000895867               0.000187579               0.999999985               0.000901388               0.000179201               0.999999985               0.000906881               0.000178007               0.999999985               0.000913807               0.000179975               0.999999985               0.000922147               0.000182786               0.999999985               0.000931531               0.000184991               0.999999985               0.000941169               0.000185611               0.999999985               0.000950558               0.000184241               0.999999985               0.000959290               0.000180427               0.999999985               0.000966961               0.000173806               0.999999985               0.000973248               0.000163504               0.999999985               0.000977739               0.000148917               0.999999985               0.000980020               0.000129542               0.999999985               0.000979742               0.000103910               0.999999985               0.000976754               0.000070439               0.999999985               0.000826832               0.000392229               0.999999985               0.000841726               0.000314930               0.999999985               0.000841964               0.000283447               0.999999985               0.000841228               0.000273249               0.999999985               0.000842713               0.000273097               0.999999985               0.000846424               0.000277041               0.999999985               0.000851621               0.000281654               0.999999985               0.000857208               0.000285046               0.999999985               0.000862449               0.000286024               0.999999985               0.000866764               0.000284122               0.999999985               0.000869786               0.000278898               0.999999985               0.000871049               0.000269868               0.999999985               0.000870174               0.000255980               0.999999985               0.000866962               0.000236696               0.999999985               0.000861164               0.000211558               0.999999985               0.000852772               0.000179434               0.999999985               0.000841965               0.000139678               0.999999985               0.000794279               0.000517402               0.999999985               0.000784599               0.000418603               0.999999985               0.000772754               0.000381525               0.999999985               0.000765882               0.000371491               0.999999985               0.000763628               0.000373527               0.999999985               0.000764345               0.000379851               0.999999985               0.000766109               0.000386559               0.999999985               0.000767673               0.000390999               0.999999985               0.000767995               0.000392361               0.999999985               0.000766538               0.000390088               0.999999985               0.000762903               0.000383895               0.999999985               0.000756705               0.000372992               0.999999985               0.000747607               0.000356564               0.999999985               0.000735508               0.000334236               0.999999985               0.000720499               0.000305838               0.999999985               0.000702751               0.000271155               0.999999985               0.000682874               0.000230564               0.999999985               0.000753438               0.000638013               0.999999985               0.000716201               0.000521704               0.999999985               0.000693188               0.000482051               0.999999985               0.000681600               0.000473831               0.999999985               0.000676909               0.000478662               0.999999985               0.000675293               0.000487600               0.999999985               0.000674053               0.000496000               0.999999985               0.000671447               0.000501520               0.999999985               0.000666464               0.000503112               0.999999985               0.000658640               0.000500648               0.999999985               0.000647554               0.000493572               0.999999985               0.000632884               0.000481144               0.999999985               0.000614450               0.000462853               0.999999985               0.000592374               0.000438751               0.999999985               0.000567241               0.000409035               0.999999985               0.000539604               0.000374503               0.999999985               0.000510335               0.000336261               0.999999985               0.000705129               0.000752903               0.999999985               0.000639907               0.000624315               0.999999985               0.000608379               0.000584652               0.999999985               0.000594575               0.000579093               0.999999985               0.000589066               0.000586848               0.999999985               0.000585932               0.000598086               0.999999985               0.000581851               0.000607956               0.999999985               0.000574900               0.000614076               0.999999985               0.000564205               0.000615921               0.999999985               0.000549249               0.000612930               0.999999985               0.000529780               0.000604850               0.999999985               0.000505654               0.000590853               0.999999985               0.000477145               0.000570912               0.999999985               0.000444769               0.000545746               0.999999985               0.000409367               0.000516180               0.999999985               0.000371840               0.000483353               0.999999985               0.000333232               0.000448650               0.999999985               0.000650507               0.000860705               0.999999985               0.000559475               0.000726121               0.999999985               0.000523223               0.000688253               0.999999985               0.000510043               0.000685385               0.999999985               0.000505069               0.000695627               0.999999985               0.000500959               0.000708693               0.999999985               0.000493872               0.000719591               0.999999985               0.000482011               0.000726247               0.999999985               0.000464678               0.000727932               0.999999985               0.000441608               0.000724050               0.999999985               0.000412779               0.000714474               0.999999985               0.000378430               0.000698829               0.999999985               0.000339263               0.000677575               0.999999985               0.000296062               0.000652208               0.999999985               0.000250007               0.000623859               0.999999985               0.000202312               0.000593632               0.999999985               0.000153924               0.000562578               0.999999985               0.000591209               0.000959568               0.999999985               0.000477650               0.000827042               0.999999985               0.000442108               0.000791236               0.999999985               0.000431671               0.000790537               0.999999985               0.000428076               0.000802610               0.999999985               0.000422789               0.000817056               0.999999985               0.000412029               0.000828704               0.999999985               0.000394380               0.000835599               0.999999985               0.000369447               0.000836607               0.999999985               0.000337090               0.000831429               0.999999985               0.000297822               0.000819957               0.999999985               0.000252108               0.000802850               0.999999985               0.000200946               0.000781375               0.999999985               0.000145998               0.000757093               0.999999985               0.000088886               0.000731222               0.999999985               0.000030851               0.000704600               0.999999985              -0.000027391               0.000677881               0.999999985               0.000529867               0.001053333               0.999999985               0.000409133               0.000940166               0.999999985               0.000370768               0.000900391               0.999999985               0.000359822               0.000894484               0.999999985               0.000356943               0.000903124               0.999999985               0.000353638               0.000916855               0.999999985               0.000345641               0.000930614               0.999999985               0.000331585               0.000941508               0.999999985               0.000310840               0.000948300               0.999999985               0.000283131               0.000950148               0.999999985               0.000248504               0.000946995               0.999999985               0.000207291               0.000939149               0.999999985               0.000159905               0.000927229               0.999999985               0.000107496               0.000912205               0.999999985               0.000051616               0.000895444               0.999999985              -0.000006595               0.000877719               0.999999985              -0.000065623               0.000859953               0.999999985               0.000463089               0.001138975               0.999999985               0.000343425               0.001049789               0.999999985               0.000302484               0.001012534               0.999999985               0.000290019               0.001003915               0.999999985               0.000286986               0.001010250               0.999999985               0.000284689               0.001023464               0.999999985               0.000279024               0.001038724               0.999999985               0.000268267               0.001053156               0.999999985               0.000251506               0.001065030               0.999999985               0.000228118               0.001073401               0.999999985               0.000198247               0.001077784               0.999999985               0.000161927               0.001078177               0.999999985               0.000118908               0.001074965               0.999999985               0.000069854               0.001068787               0.999999985               0.000015893               0.001060467               0.999999985              -0.000041821               0.001051018               0.999999985              -0.000101686               0.001041375               0.999999985               0.000392159               0.001214400               0.999999985               0.000280601               0.001152647               0.999999985               0.000239026               0.001122494               0.999999985               0.000224756               0.001114576               0.999999985               0.000220759               0.001120393               0.999999985               0.000218740               0.001133797               0.999999985               0.000214647               0.001150660               0.999999985               0.000206630               0.001168404               0.999999985               0.000193441               0.001185107               0.999999985               0.000174388               0.001199539               0.999999985               0.000149270               0.001211065               0.999999985               0.000117863               0.001219423               0.999999985               0.000079850               0.001224546               0.999999985               0.000035065               0.001226920               0.999999985              -0.000015963               0.001226980               0.999999985              -0.000072580               0.001225420               0.999999985              -0.000133695               0.001223319               0.999999985               0.000317867               0.001278014               0.999999985               0.000220788               0.001244308               0.999999985               0.000181236               0.001224741               0.999999985               0.000166021               0.001220417               0.999999985               0.000160983               0.001227624               0.999999985               0.000158707               0.001242365               0.999999985               0.000155499               0.001261516               0.999999985               0.000149446               0.001282608               0.999999985               0.000139512               0.001303943               0.999999985               0.000124679               0.001324258               0.999999985               0.000104311               0.001342712               0.999999985               0.000078210               0.001358858               0.999999985               0.000045793               0.001372568               0.999999985               0.000006483               0.001383716               0.999999985              -0.000040096               0.001392621               0.999999985              -0.000094150               0.001399599               0.999999985              -0.000155673               0.001405294               0.999999985               0.000240860               0.001328792               0.999999985               0.000163419               0.001320707               0.999999985               0.000129383               0.001313094               0.999999985               0.000114974               0.001314208               0.999999985               0.000109464               0.001324258               0.999999985               0.000107010               0.001341242               0.999999985               0.000104285               0.001363033               0.999999985               0.000099908               0.001387594               0.999999985               0.000092785               0.001413419               0.999999985               0.000081867               0.001439435               0.999999985               0.000066376               0.001464677               0.999999985               0.000046003               0.001488540               0.999999985               0.000020124               0.001510734               0.999999985              -0.000012004               0.001530863               0.999999985              -0.000051481               0.001548816               0.999999985              -0.000099576               0.001564619               0.999999985              -0.000157297               0.001578616               0.999999985               0.000161793               0.001365804               0.999999985               0.000107915               0.001378165               0.999999985               0.000082927               0.001381525               0.999999985               0.000071499               0.001388490               0.999999985               0.000066695               0.001401845               0.999999985               0.000064393               0.001421422               0.999999985               0.000062297               0.001445681               0.999999985               0.000059467               0.001473259               0.999999985               0.000054773               0.001503090               0.999999985               0.000047491               0.001534020               0.999999985               0.000037136               0.001565157               0.999999985               0.000023306               0.001595887               0.999999985               0.000005327               0.001625713               0.999999985              -0.000017634               0.001654178               0.999999985              -0.000046863               0.001680800               0.999999985              -0.000083889               0.001705230               0.999999985              -0.000130655               0.001727305               0.999999985               0.000081284               0.001388326               0.999999985               0.000053652               0.001413876               0.999999985               0.000040434               0.001424956               0.999999985               0.000034074               0.001436437               0.999999985               0.000031257               0.001452563               0.999999985               0.000029798               0.001474106               0.999999985               0.000028693               0.001500164               0.999999985               0.000027171               0.001529831               0.999999985               0.000024804               0.001562286               0.999999985               0.000021284               0.001596545               0.999999985               0.000016161               0.001631816               0.999999985               0.000009200               0.001667508               0.999999985              -0.000000010               0.001702973               0.999999985              -0.000012086               0.001737738               0.999999985              -0.000027705               0.001771237               0.999999985              -0.000048102               0.001802703               0.999999985              -0.000074936               0.001831211               0.999999985              -0.000000000               0.001395876               0.999999985               0.000000000               0.001425976               0.999999985              -0.000000000               0.001439826               0.999999985               0.000000000               0.001453035               0.999999985               0.000000000               0.001470351               0.999999985              -0.000000000               0.001492636               0.999999985               0.000000000               0.001519246               0.999999985              -0.000000000               0.001549592               0.999999985               0.000000000               0.001582813               0.999999985              -0.000000000               0.001618265               0.999999985               0.000000000               0.001655132               0.999999985               0.000000000               0.001692558               0.999999985               0.000000000               0.001730207               0.999999985               0.000000000               0.001767581               0.999999985              -0.000000000               0.001803858               0.999999985              -0.000000000               0.001838165               0.999999985               0.000000000               0.001869283               0.999999985 </DataArray>
<DataArray type="Float64"                                    Name="stress"                                                      NumberOfComponents="10" format="ascii">
              0.002263656               0.024057413               0.000000000              -0.002158300               0.008738491               0.006580191               0.000000000               0.000000000               0.000000000               0.000000000               0.002180606               0.018518553              -0.000000000              -0.001497088               0.006671819               0.005174731               0.000000000               0.000000000               0.000000000               0.000000000               0.002793582               0.014026016               0.000000000              -0.000705657               0.004910511               0.004204854               0.000000000               0.000000000               0.000000000               0.000000000               0.002567018               0.011508693               0.000000000              -0.000475954               0.003994844               0.003518890               0.000000000               0.000000000               0.000000000               0.000000000               0.002104797               0.009922939              -0.000000000              -0.000451067               0.003457969               0.003006902               0.000000000               0.000000000               0.000000000               0.000000000               0.001616114               0.008813095               0.000000000              -0.000495593               0.003102867               0.002607274               0.000000000               0.000000000               0.000000000               0.000000000               0.001181437               0.007953159               0.000000000              -0.000551105               0.002834728               0.002283623               0.000000000               0.000000000               0.000000000               0.000000000               0.000821877               0.007233771              -0.000000000              -0.000596016               0.002609905               0.002013889               0.000000000               0.000000000               0.000000000               0.000000000               0.000529880               0.006586835              -0.000000000              -0.000624648               0.002403806               0.001779158               0.000000000               0.000000000               0.000000000               0.000000000               0.000302428               0.005974613               0.000000000              -0.000633414               0.002202656               0.001569241               0.000000000               0.000000000               0.000000000               0.000000000               0.000130631               0.005377664              -0.000000000              -0.000623220               0.002000277               0.001377057               0.000000000               0.000000000               0.000000000               0.000000000               0.000008346               0.004780273               0.000000000              -0.000594403               0.001791543               0.001197140               0.000000000               0.000000000               0.000000000               0.000000000              -0.000070747               0.004161080               0.000000000              -0.000546664               0.001569234               0.001022570               0.000000000               0.000000000               0.000000000               0.000000000              -0.000116512               0.003503621               0.000000000              -0.000481644               0.001328410               0.000846766               0.000000000               0.000000000               0.000000000               0.000000000              -0.000120692               0.002794071               0.000000000              -0.000394518               0.001062853               0.000668336               0.000000000               0.000000000               0.000000000               0.000000000              -0.000071538               0.001999971               0.000000000              -0.000276822               0.000758924               0.000482102               0.000000000               0.000000000               0.000000000               0.000000000              -0.000100290               0.001387062               0.000000000              -0.000210991               0.000532680               0.000321688               0.000000000               0.000000000               0.000000000               0.000000000               0.002330242               0.023540980              -0.001595998              -0.002068777               0.008536507               0.006467730               0.000000000               0.000000000               0.000000000               0.000000000               0.002113091               0.018189679              -0.000726413              -0.001481297               0.006556931               0.005075634               0.000000000               0.000000000               0.000000000               0.000000000               0.002586438               0.013897713               0.000133720              -0.000767298               0.004888291               0.004120992               0.000000000               0.000000000               0.000000000               0.000000000               0.002311419               0.011480970               0.000488292              -0.000568338               0.004016398               0.003448060               0.000000000               0.000000000               0.000000000               0.000000000               0.001844528               0.009948183               0.000623777              -0.000551824               0.003499969               0.002948145               0.000000000               0.000000000               0.000000000               0.000000000               0.001374302               0.008863247               0.000660933              -0.000592542               0.003151900               0.002559358               0.000000000               0.000000000               0.000000000               0.000000000               0.000963057               0.008016215               0.000655118              -0.000640879               0.002885671               0.002244792               0.000000000               0.000000000               0.000000000               0.000000000               0.000625072               0.007297601               0.000630767              -0.000677797               0.002658441               0.001980645               0.000000000               0.000000000               0.000000000               0.000000000               0.000361006               0.006649189               0.000599766              -0.000695770               0.002448297               0.001752528               0.000000000               0.000000000               0.000000000               0.000000000               0.000161144               0.006041494               0.000568719              -0.000694756               0.002245397               0.001550640               0.000000000               0.000000000               0.000000000               0.000000000               0.000011219               0.005452958               0.000538042              -0.000677411               0.002043438               0.001366027               0.000000000               0.000000000               0.000000000               0.000000000              -0.000091330               0.004869095               0.000499891              -0.000642884               0.001837310               0.001194426               0.000000000               0.000000000               0.000000000               0.000000000              -0.000147941               0.004271859               0.000450258              -0.000589459               0.001620425               0.001030966               0.000000000               0.000000000               0.000000000               0.000000000              -0.000169002               0.003647219               0.000390853              -0.000519277               0.001388820               0.000869543               0.000000000               0.000000000               0.000000000               0.000000000              -0.000150897               0.002986826               0.000306941              -0.000429939               0.001138912               0.000708973               0.000000000               0.000000000               0.000000000               0.000000000              -0.000086701               0.002271089               0.000177341              -0.000316398               0.000862488               0.000546090               0.000000000               0.000000000               0.000000000               0.000000000              -0.000101063               0.001735455               0.000109535              -0.000254830               0.000663423               0.000408593               0.000000000               0.000000000               0.000000000               0.000000000               0.002482367               0.022068457              -0.002959146              -0.001827666               0.007965301               0.006137634               0.000000000               0.000000000               0.000000000               0.000000000               0.001906788               0.017262504              -0.001343995              -0.001442764               0.006235032               0.004792268               0.000000000               0.000000000               0.000000000               0.000000000               0.001999685               0.013533457               0.000239285              -0.000941798               0.004825040               0.003883242               0.000000000               0.000000000               0.000000000               0.000000000               0.001595077               0.011396858               0.000868329              -0.000826451               0.004074398               0.003247947               0.000000000               0.000000000               0.000000000               0.000000000               0.001122205               0.010005156               0.001095765              -0.000829816               0.003611624               0.002781808               0.000000000               0.000000000               0.000000000               0.000000000               0.000703895               0.008986098               0.001148397              -0.000859300               0.003281769               0.002422469               0.000000000               0.000000000               0.000000000               0.000000000               0.000365006               0.008164286               0.001125536              -0.000883657               0.003015954               0.002132297               0.000000000               0.000000000               0.000000000               0.000000000               0.000108071               0.007451912               0.001073757              -0.000890961               0.002780933               0.001889972               0.000000000               0.000000000               0.000000000               0.000000000              -0.000074699               0.006807106               0.001015444              -0.000878899               0.002561979               0.001683080               0.000000000               0.000000000               0.000000000               0.000000000              -0.000203791               0.006209060               0.000957303              -0.000852552               0.002353850               0.001501297               0.000000000               0.000000000               0.000000000               0.000000000              -0.000287266               0.005642797               0.000896856              -0.000813073               0.002151938               0.001338865               0.000000000               0.000000000               0.000000000               0.000000000              -0.000330194               0.005094465               0.000822776              -0.000760629               0.001951681               0.001191052               0.000000000               0.000000000               0.000000000               0.000000000              -0.000335767               0.004550735               0.000728798              -0.000694753               0.001748481               0.001053728               0.000000000               0.000000000               0.000000000               0.000000000              -0.000301294               0.004009300               0.000619058              -0.000614146               0.001541135               0.000926989               0.000000000               0.000000000               0.000000000               0.000000000              -0.000227812               0.003470467               0.000473084              -0.000519237               0.001329889               0.000810653               0.000000000               0.000000000               0.000000000               0.000000000              -0.000122686               0.002936389               0.000265697              -0.000413055               0.001116471               0.000703416               0.000000000               0.000000000               0.000000000               0.000000000              -0.000101631               0.002570449               0.000159139              -0.000359417               0.000976613               0.000617196               0.000000000               0.000000000               0.000000000               0.000000000               0.002606015               0.019842782              -0.003902610              -0.001503091               0.007115224               0.005612133               0.000000000               0.000000000               0.000000000               0.000000000               0.001534657               0.015885408              -0.001772348              -0.001410177               0.005765142               0.004354965               0.000000000               0.000000000               0.000000000               0.000000000               0.001102604               0.012993409               0.000283310              -0.001210697               0.004734659               0.003523962               0.000000000               0.000000000               0.000000000               0.000000000               0.000555373               0.011253404               0.001053316              -0.001198408               0.004150566               0.002952158               0.000000000               0.000000000               0.000000000               0.000000000               0.000106663               0.010046785               0.001311809              -0.001215847               0.003754177               0.002538330               0.000000000               0.000000000               0.000000000               0.000000000              -0.000218490               0.009107550               0.001355123              -0.001220375               0.003442611               0.002222236               0.000000000               0.000000000               0.000000000               0.000000000              -0.000434434               0.008318188               0.001310799              -0.001202684               0.003173596               0.001970912               0.000000000               0.000000000               0.000000000               0.000000000              -0.000565160               0.007616186               0.001236011              -0.001163956               0.002926688               0.001762733               0.000000000               0.000000000               0.000000000               0.000000000              -0.000634239               0.006983318               0.001156216              -0.001110752               0.002698000               0.001587248               0.000000000               0.000000000               0.000000000               0.000000000              -0.000662035               0.006403818               0.001078885              -0.001048738               0.002484164               0.001435426               0.000000000               0.000000000               0.000000000               0.000000000              -0.000650783               0.005870030               0.000997914              -0.000977795               0.002282589               0.001304793               0.000000000               0.000000000               0.000000000               0.000000000              -0.000601082               0.005368556               0.000898526              -0.000896473               0.002088325               0.001191852               0.000000000               0.000000000               0.000000000               0.000000000              -0.000523533               0.004893665               0.000777403              -0.000808031               0.001900549               0.001092518               0.000000000               0.000000000               0.000000000               0.000000000              -0.000419334               0.004449099               0.000640671              -0.000713386               0.001720813               0.001007427               0.000000000               0.000000000               0.000000000               0.000000000              -0.000290579               0.004042288               0.000470110              -0.000614252               0.001552166               0.000937915               0.000000000               0.000000000               0.000000000               0.000000000              -0.000149104               0.003692964               0.000252759              -0.000517533               0.001403487               0.000885953               0.000000000               0.000000000               0.000000000               0.000000000              -0.000097716               0.003486769               0.000144384              -0.000472488               0.001319741               0.000847252               0.000000000               0.000000000               0.000000000               0.000000000               0.002553668               0.017141042              -0.004336020              -0.001185005               0.006108624               0.004923619               0.000000000               0.000000000               0.000000000               0.000000000               0.000968414               0.014246843              -0.001990887              -0.001417698               0.005221466               0.003803768               0.000000000               0.000000000               0.000000000               0.000000000              -0.000004140               0.012352775               0.000232435              -0.001545645               0.004632766               0.003087120               0.000000000               0.000000000               0.000000000               0.000000000              -0.000633091               0.011044113               0.001007905              -0.001617919               0.004220640               0.002602721               0.000000000               0.000000000               0.000000000               0.000000000              -0.000995705               0.010021267               0.001243379              -0.001626044               0.003882403               0.002256360               0.000000000               0.000000000               0.000000000               0.000000000              -0.001173205               0.009159125               0.001266449              -0.001584839               0.003581291               0.001996452               0.000000000               0.000000000               0.000000000               0.000000000              -0.001230283               0.008399982               0.001206397              -0.001511350               0.003303749               0.001792399               0.000000000               0.000000000               0.000000000               0.000000000              -0.001212381               0.007718204               0.001120802              -0.001419415               0.003045847               0.001626432               0.000000000               0.000000000               0.000000000               0.000000000              -0.001148385               0.007106885               0.001039133              -0.001319002               0.002808605               0.001489603               0.000000000               0.000000000               0.000000000               0.000000000              -0.001057602               0.006558526               0.000961975              -0.001216414               0.002591625               0.001375211               0.000000000               0.000000000               0.000000000               0.000000000              -0.000942131               0.006060103               0.000878856              -0.001110809               0.002390284               0.001279475               0.000000000               0.000000000               0.000000000               0.000000000              -0.000800498               0.005601856               0.000775939              -0.001000416               0.002200739               0.001200322               0.000000000               0.000000000               0.000000000               0.000000000              -0.000640204               0.005188823               0.000654521              -0.000888677               0.002025816               0.001137139               0.000000000               0.000000000               0.000000000               0.000000000              -0.000475198               0.004826369               0.000519983              -0.000781494               0.001869272               0.001087778               0.000000000               0.000000000               0.000000000               0.000000000              -0.000306563               0.004527145               0.000365049              -0.000680853               0.001735984               0.001055131               0.000000000               0.000000000               0.000000000               0.000000000              -0.000145190               0.004316364               0.000189338              -0.000593990               0.001636770               0.001042780               0.000000000               0.000000000               0.000000000               0.000000000              -0.000080066               0.004217744               0.000104230              -0.000557241               0.001591648               0.001034407               0.000000000               0.000000000               0.000000000               0.000000000               0.002187922               0.014238073              -0.004276287              -0.000959290               0.005065739               0.004106449               0.000000000               0.000000000               0.000000000               0.000000000               0.000208630               0.012522798              -0.002033601              -0.001487111               0.004669928               0.003182817               0.000000000               0.000000000               0.000000000               0.000000000              -0.001189896               0.011659666               0.000061688              -0.001903664               0.004521071               0.002617407               0.000000000               0.000000000               0.000000000               0.000000000              -0.001793077               0.010749005               0.000739433              -0.002016025               0.004254974               0.002238949               0.000000000               0.000000000               0.000000000               0.000000000              -0.001994406               0.009888081               0.000928575              -0.001983907               0.003957296               0.001973389               0.000000000               0.000000000               0.000000000               0.000000000              -0.001983374               0.009094440               0.000937189              -0.001880566               0.003658305               0.001777739               0.000000000               0.000000000               0.000000000               0.000000000              -0.001861034               0.008366872               0.000881394              -0.001743743               0.003370177               0.001626434               0.000000000               0.000000000               0.000000000               0.000000000              -0.001684550               0.007713879               0.000811232              -0.001595937               0.003103246               0.001507309               0.000000000               0.000000000               0.000000000               0.000000000              -0.001487245               0.007134562               0.000748783              -0.001449534               0.002861341               0.001411808               0.000000000               0.000000000               0.000000000               0.000000000              -0.001284537               0.006614892               0.000692842              -0.001308560               0.002641129               0.001332569               0.000000000               0.000000000               0.000000000               0.000000000              -0.001073622               0.006144573               0.000626467              -0.001170677               0.002438396               0.001267719               0.000000000               0.000000000               0.000000000               0.000000000              -0.000855339               0.005719387               0.000541968              -0.001035673               0.002251667               0.001215994               0.000000000               0.000000000               0.000000000               0.000000000              -0.000634850               0.005351669               0.000444699              -0.000907025               0.002086213               0.001179188               0.000000000               0.000000000               0.000000000               0.000000000              -0.000432856               0.005052062               0.000337456              -0.000793827               0.001948613               0.001154786               0.000000000               0.000000000               0.000000000               0.000000000              -0.000256172               0.004831971               0.000222969              -0.000700059               0.001843994               0.001143935               0.000000000               0.000000000               0.000000000               0.000000000              -0.000110678               0.004703337               0.000109918              -0.000629420               0.001777570               0.001148150               0.000000000               0.000000000               0.000000000               0.000000000              -0.000053101               0.004658244               0.000057393              -0.000602192               0.001753463               0.001151271               0.000000000               0.000000000               0.000000000               0.000000000               0.001455963               0.011365672              -0.003815505              -0.000874724               0.004080093               0.003205369               0.000000000               0.000000000               0.000000000               0.000000000              -0.000691990               0.010843007              -0.001963175              -0.001614869               0.004152589               0.002537720               0.000000000               0.000000000               0.000000000               0.000000000              -0.002319520               0.010925942              -0.000239854              -0.002235557               0.004387130               0.002151573               0.000000000               0.000000000               0.000000000               0.000000000              -0.002771741               0.010342813               0.000291231              -0.002332249               0.004224986               0.001892737               0.000000000               0.000000000               0.000000000               0.000000000              -0.002751730               0.009616038               0.000446316              -0.002233898               0.003949946               0.001716049               0.000000000               0.000000000               0.000000000               0.000000000              -0.002530158               0.008887575               0.000466039              -0.002059751               0.003649079               0.001589328               0.000000000               0.000000000               0.000000000               0.000000000              -0.002231544               0.008205014               0.000440154              -0.001862451               0.003355794               0.001493343               0.000000000               0.000000000               0.000000000               0.000000000              -0.001913577               0.007591074               0.000409508              -0.001666471               0.003085823               0.001419352               0.000000000               0.000000000               0.000000000               0.000000000              -0.001603600               0.007044042               0.000385090              -0.001481851               0.002841941               0.001360090               0.000000000               0.000000000               0.000000000               0.000000000              -0.001310853               0.006544312               0.000364133              -0.001309606               0.002617951               0.001308345               0.000000000               0.000000000               0.000000000               0.000000000              -0.001030017               0.006092065               0.000329931              -0.001147762               0.002413255               0.001265493               0.000000000               0.000000000               0.000000000               0.000000000              -0.000765309               0.005691985               0.000275484              -0.000998487               0.002230138               0.001231652               0.000000000               0.000000000               0.000000000               0.000000000              -0.000523010               0.005361038               0.000215331              -0.000866256               0.002075747               0.001209490               0.000000000               0.000000000               0.000000000               0.000000000              -0.000316879               0.005114247               0.000153302              -0.000758109               0.001957435               0.001199326               0.000000000               0.000000000               0.000000000               0.000000000              -0.000159597               0.004952438               0.000090950              -0.000678902               0.001877097               0.001198195               0.000000000               0.000000000               0.000000000               0.000000000              -0.000057687               0.004864429               0.000038975              -0.000629684               0.001831355               0.001201670               0.000000000               0.000000000               0.000000000               0.000000000              -0.000026409               0.004833581               0.000019060              -0.000614099               0.001815877               0.001201778               0.000000000               0.000000000               0.000000000               0.000000000               0.000394541               0.008716667              -0.003065699              -0.000941631               0.003219403               0.002277772               0.000000000               0.000000000               0.000000000               0.000000000              -0.001676650               0.009307019              -0.001834885              -0.001792118               0.003699681               0.001907563               0.000000000               0.000000000               0.000000000               0.000000000              -0.003277205               0.010152505              -0.000657658              -0.002498009               0.004216804               0.001718795               0.000000000               0.000000000               0.000000000               0.000000000              -0.003469140               0.009822192              -0.000262902              -0.002528695               0.004116930               0.001588234               0.000000000               0.000000000               0.000000000               0.000000000              -0.003202475               0.009211385              -0.000104718              -0.002352345               0.003854546               0.001502201               0.000000000               0.000000000               0.000000000               0.000000000              -0.002782329               0.008554467              -0.000041507              -0.002112676               0.003555686               0.001443010               0.000000000               0.000000000               0.000000000               0.000000000              -0.002331604               0.007928473              -0.000012096              -0.001865406               0.003264600               0.001399194               0.000000000               0.000000000               0.000000000               0.000000000              -0.001901106               0.007361151               0.000009662              -0.001633055               0.002998044               0.001364989               0.000000000               0.000000000               0.000000000               0.000000000              -0.001512196               0.006836711               0.000031635              -0.001421659               0.002752767               0.001331108               0.000000000               0.000000000               0.000000000               0.000000000              -0.001165144               0.006352287               0.000050949              -0.001230962               0.002527728               0.001296767               0.000000000               0.000000000               0.000000000               0.000000000              -0.000851821               0.005914315               0.000057716              -0.001058720               0.002324325               0.001265606               0.000000000               0.000000000               0.000000000               0.000000000              -0.000575705               0.005547992               0.000046710              -0.000909386               0.002152441               0.001243055               0.000000000               0.000000000               0.000000000               0.000000000              -0.000346316               0.005271999               0.000035411              -0.000788866               0.002020271               0.001231405               0.000000000               0.000000000               0.000000000               0.000000000              -0.000171441               0.005086018               0.000026213              -0.000700041               0.001928669               0.001228629               0.000000000               0.000000000               0.000000000               0.000000000              -0.000061403               0.004974784               0.000012967              -0.000644873               0.001873202               0.001228330               0.000000000               0.000000000               0.000000000               0.000000000              -0.000010668               0.004917663               0.000003073              -0.000618707               0.001845440               0.001226733               0.000000000               0.000000000               0.000000000               0.000000000              -0.000003303               0.004897016               0.000002280              -0.000613364               0.001836777               0.001223413               0.000000000               0.000000000               0.000000000               0.000000000              -0.000864827               0.006491140              -0.002156501              -0.001135701               0.002542258               0.001406557               0.000000000               0.000000000               0.000000000               0.000000000              -0.002638308               0.007932499              -0.001695287              -0.001980923               0.003304447               0.001323524               0.000000000               0.000000000               0.000000000               0.000000000              -0.004023789               0.009367191              -0.001157249              -0.002679813               0.004015637               0.001335824               0.000000000               0.000000000               0.000000000               0.000000000              -0.003936546               0.009303943              -0.000852323              -0.002639191               0.003981014               0.001341823               0.000000000               0.000000000               0.000000000               0.000000000              -0.003460955               0.008841876              -0.000659391              -0.002403087               0.003748291               0.001345205               0.000000000               0.000000000               0.000000000               0.000000000              -0.002885823               0.008278755              -0.000528874              -0.002117023               0.003465232               0.001348209               0.000000000               0.000000000               0.000000000               0.000000000              -0.002324853               0.007720517              -0.000434172              -0.001836880               0.003185773               0.001348893               0.000000000               0.000000000               0.000000000               0.000000000              -0.001815164               0.007192057              -0.000359287              -0.001579690               0.002923892               0.001344202               0.000000000               0.000000000               0.000000000               0.000000000              -0.001365285               0.006691735              -0.000293589              -0.001348445               0.002680038               0.001331592               0.000000000               0.000000000               0.000000000               0.000000000              -0.000979778               0.006221202              -0.000233495              -0.001145064               0.002455401               0.001310337               0.000000000               0.000000000               0.000000000               0.000000000              -0.000652822               0.005800576              -0.000179786              -0.000969878               0.002256799               0.001286921               0.000000000               0.000000000               0.000000000               0.000000000              -0.000377138               0.005466693              -0.000130951              -0.000824761               0.002097133               0.001272372               0.000000000               0.000000000               0.000000000               0.000000000              -0.000171336               0.005229671              -0.000084923              -0.000717958               0.001982526               0.001264568               0.000000000               0.000000000               0.000000000               0.000000000              -0.000042434               0.005077329              -0.000046694              -0.000650577               0.001909285               0.001258708               0.000000000               0.000000000               0.000000000               0.000000000               0.000018785               0.004992304              -0.000021607              -0.000616992               0.001869749               0.001252757               0.000000000               0.000000000               0.000000000               0.000000000               0.000029774               0.004957269              -0.000005980              -0.000608492               0.001855237               0.001246745               0.000000000               0.000000000               0.000000000               0.000000000               0.000024164               0.004952957              -0.000000008              -0.000610057               0.001854321               0.001244265               0.000000000               0.000000000               0.000000000               0.000000000              -0.002318097               0.004431189              -0.001209827              -0.001423182               0.001951442               0.000528260               0.000000000               0.000000000               0.000000000               0.000000000              -0.003440678               0.006330570              -0.001544011              -0.002081571               0.002804025               0.000722455               0.000000000               0.000000000               0.000000000               0.000000000              -0.004462644               0.008190815              -0.001681114              -0.002697337               0.003629356               0.000932020               0.000000000               0.000000000               0.000000000               0.000000000              -0.004228567               0.008531269              -0.001472148              -0.002652115               0.003727766               0.001075651               0.000000000               0.000000000               0.000000000               0.000000000              -0.003673131               0.008354945              -0.001245576              -0.002421787               0.003592216               0.001170429               0.000000000               0.000000000               0.000000000               0.000000000              -0.003048613               0.007998003              -0.001045792              -0.002142975               0.003380299               0.001237324               0.000000000               0.000000000               0.000000000               0.000000000              -0.002447346               0.007578891              -0.000884838              -0.001865112               0.003147976               0.001282864               0.000000000               0.000000000               0.000000000               0.000000000              -0.001902440               0.007143611              -0.000756942              -0.001606362               0.002916634               0.001310271               0.000000000               0.000000000               0.000000000               0.000000000              -0.001423690               0.006710087              -0.000644404              -0.001372641               0.002694220               0.001321579               0.000000000               0.000000000               0.000000000               0.000000000              -0.001014539               0.006288271              -0.000539109              -0.001166483               0.002484897               0.001318414               0.000000000               0.000000000               0.000000000               0.000000000              -0.000666167               0.005906744              -0.000439176              -0.000988153               0.002298279               0.001310126               0.000000000               0.000000000               0.000000000               0.000000000              -0.000374673               0.005584367              -0.000337844              -0.000838546               0.002140952               0.001302406               0.000000000               0.000000000               0.000000000               0.000000000              -0.000152762               0.005330305              -0.000237339              -0.000723572               0.002017941               0.001294369               0.000000000               0.000000000               0.000000000               0.000000000              -0.000004892               0.005156522              -0.000149652              -0.000646398               0.001934290               0.001287891               0.000000000               0.000000000               0.000000000               0.000000000               0.000071782               0.005051075              -0.000075924              -0.000604465               0.001885163               0.001280699               0.000000000               0.000000000               0.000000000               0.000000000               0.000092227               0.005006868              -0.000023353              -0.000591272               0.001866030               0.001274758               0.000000000               0.000000000               0.000000000               0.000000000               0.000087088               0.005001290              -0.000003532              -0.000592502               0.001864581               0.001272079               0.000000000               0.000000000               0.000000000               0.000000000              -0.004160539               0.002571005              -0.000295322              -0.001881574               0.001484183              -0.000397391               0.000000000               0.000000000               0.000000000               0.000000000              -0.004339968               0.004714672              -0.001330067              -0.002216817               0.002310480               0.000093663               0.000000000               0.000000000               0.000000000               0.000000000              -0.004804235               0.006799206              -0.002101859              -0.002651483               0.003150206               0.000498724               0.000000000               0.000000000               0.000000000               0.000000000              -0.004447553               0.007522500              -0.002056613              -0.002608139               0.003376854               0.000768715               0.000000000               0.000000000               0.000000000               0.000000000              -0.003856055               0.007674359              -0.001835481              -0.002405310               0.003359864               0.000954554               0.000000000               0.000000000               0.000000000               0.000000000              -0.003219258               0.007563466              -0.001593703              -0.002152650               0.003238680               0.001086030               0.000000000               0.000000000               0.000000000               0.000000000              -0.002601265               0.007326386              -0.001381519              -0.001891268               0.003072527               0.001181259               0.000000000               0.000000000               0.000000000               0.000000000              -0.002030920               0.007030938              -0.001205658              -0.001640459               0.002890442               0.001249983               0.000000000               0.000000000               0.000000000               0.000000000              -0.001523384               0.006701757              -0.001047808              -0.001408985               0.002703558               0.001294573               0.000000000               0.000000000               0.000000000               0.000000000              -0.001081050               0.006359796              -0.000903521              -0.001200366               0.002520033               0.001319667               0.000000000               0.000000000               0.000000000               0.000000000              -0.000697384               0.006027519              -0.000768899              -0.001014957               0.002347472               0.001332515               0.000000000               0.000000000               0.000000000               0.000000000              -0.000368722               0.005724783              -0.000626797              -0.000853866               0.002192864               0.001338997               0.000000000               0.000000000               0.000000000               0.000000000              -0.000100694               0.005467878              -0.000477078              -0.000721243               0.002063022               0.001341779               0.000000000               0.000000000               0.000000000               0.000000000               0.000092099               0.005266713              -0.000334090              -0.000623801               0.001963487               0.001339686               0.000000000               0.000000000               0.000000000               0.000000000               0.000202740               0.005121352              -0.000199778              -0.000564140               0.001895147               0.001331007               0.000000000               0.000000000               0.000000000               0.000000000               0.000238959               0.005041024              -0.000084334              -0.000540517               0.001860497               0.001319980               0.000000000               0.000000000               0.000000000               0.000000000               0.000225582               0.005009470              -0.000029289              -0.000541589               0.001850336               0.001308747               0.000000000               0.000000000               0.000000000               0.000000000              -0.006268634               0.001047947               0.000505113              -0.002481728               0.001176550              -0.001305178               0.000000000               0.000000000               0.000000000               0.000000000              -0.005380918               0.003182202              -0.001037373              -0.002415615               0.001865926              -0.000549689               0.000000000               0.000000000               0.000000000               0.000000000              -0.005080154               0.005207881              -0.002304202              -0.002556037               0.002587954               0.000031917               0.000000000               0.000000000               0.000000000               0.000000000              -0.004512159               0.006199837              -0.002458461              -0.002467034               0.002888935               0.000421901               0.000000000               0.000000000               0.000000000               0.000000000              -0.003870847               0.006649499              -0.002297593              -0.002282750               0.002977394               0.000694643               0.000000000               0.000000000               0.000000000               0.000000000              -0.003228710               0.006798661              -0.002058789              -0.002060594               0.002953062               0.000892467               0.000000000               0.000000000               0.000000000               0.000000000              -0.002614989               0.006781803              -0.001827363              -0.001828342               0.002870025               0.001041683               0.000000000               0.000000000               0.000000000               0.000000000              -0.002044059               0.006662082              -0.001621805              -0.001599279               0.002753764               0.001154485               0.000000000               0.000000000               0.000000000               0.000000000              -0.001518892               0.006472847              -0.001436335              -0.001378688               0.002617156               0.001238469               0.000000000               0.000000000               0.000000000               0.000000000              -0.001044301               0.006243666              -0.001266858              -0.001172069               0.002471891               0.001299822               0.000000000               0.000000000               0.000000000               0.000000000              -0.000626525               0.005998590              -0.001106442              -0.000984769               0.002327766               0.001342997               0.000000000               0.000000000               0.000000000               0.000000000              -0.000259825               0.005755454              -0.000941013              -0.000816865               0.002190754               0.001373889               0.000000000               0.000000000               0.000000000               0.000000000               0.000058949               0.005535982              -0.000762264              -0.000669890               0.002068606               0.001398715               0.000000000               0.000000000               0.000000000               0.000000000               0.000311612               0.005347077              -0.000574582              -0.000551529               0.001966184               0.001414655               0.000000000               0.000000000               0.000000000               0.000000000               0.000475831               0.005187796              -0.000381859              -0.000470037               0.001885927               0.001415890               0.000000000               0.000000000               0.000000000               0.000000000               0.000541188               0.005075568              -0.000187021              -0.000431500               0.001835672               0.001404173               0.000000000               0.000000000               0.000000000               0.000000000               0.000529208               0.005022782              -0.000084872              -0.000429394               0.001817375               0.001387981               0.000000000               0.000000000               0.000000000               0.000000000              -0.008491405              -0.000049854               0.001071849              -0.003178043               0.001042722              -0.002135320               0.000000000               0.000000000               0.000000000               0.000000000              -0.006506642               0.001823571              -0.000709683              -0.002667934               0.001497158              -0.001170776               0.000000000               0.000000000               0.000000000               0.000000000              -0.005317715               0.003553759              -0.002255052              -0.002438359               0.001997358              -0.000441001               0.000000000               0.000000000               0.000000000               0.000000000              -0.004449906               0.004667240              -0.002584260              -0.002252115               0.002306435               0.000054320               0.000000000               0.000000000               0.000000000               0.000000000              -0.003719564               0.005350795              -0.002511575              -0.002063682               0.002471473               0.000407792               0.000000000               0.000000000               0.000000000               0.000000000              -0.003061882               0.005748913              -0.002311648              -0.001866816               0.002538556               0.000671740               0.000000000               0.000000000               0.000000000               0.000000000              -0.002461153               0.005952695              -0.002093249              -0.001667016               0.002539883               0.000872867               0.000000000               0.000000000               0.000000000               0.000000000              -0.001903193               0.006019413              -0.001890690              -0.001466121               0.002495157               0.001029036               0.000000000               0.000000000               0.000000000               0.000000000              -0.001376022               0.005996157              -0.001704365              -0.001265525               0.002420540               0.001155015               0.000000000               0.000000000               0.000000000               0.000000000              -0.000884215               0.005910658              -0.001528132              -0.001070411               0.002327003               0.001256592               0.000000000               0.000000000               0.000000000               0.000000000              -0.000434678               0.005785343              -0.001361204              -0.000886171               0.002223818               0.001337648               0.000000000               0.000000000               0.000000000               0.000000000              -0.000020033               0.005646250              -0.001193478              -0.000713292               0.002119829               0.001406536               0.000000000               0.000000000               0.000000000               0.000000000               0.000359706               0.005503234              -0.001009940              -0.000553014               0.002018731               0.001465717               0.000000000               0.000000000               0.000000000               0.000000000               0.000693531               0.005362964              -0.000802980              -0.000410296               0.001924402               0.001514106               0.000000000               0.000000000               0.000000000               0.000000000               0.000953867               0.005229842              -0.000566806              -0.000296030               0.001841940               0.001545910               0.000000000               0.000000000               0.000000000               0.000000000               0.001110776               0.005109426              -0.000297804              -0.000222137               0.001777170               0.001555034               0.000000000               0.000000000               0.000000000               0.000000000               0.001157617               0.005051950              -0.000154937              -0.000197387               0.001749762               0.001552375               0.000000000               0.000000000               0.000000000               0.000000000              -0.010617666              -0.000731761               0.001300130              -0.003890152               0.001052789              -0.002837362               0.000000000               0.000000000               0.000000000               0.000000000              -0.007620899               0.000720730              -0.000412229              -0.002947926               0.001222877              -0.001725049               0.000000000               0.000000000               0.000000000               0.000000000              -0.005525683               0.002001925              -0.001955853              -0.002322368               0.001441420              -0.000880948               0.000000000               0.000000000               0.000000000               0.000000000              -0.004305237               0.003105727              -0.002376256              -0.002002676               0.001702788              -0.000299888               0.000000000               0.000000000               0.000000000               0.000000000              -0.003452131               0.003940408              -0.002384177              -0.001787097               0.001909154               0.000122057               0.000000000               0.000000000               0.000000000               0.000000000              -0.002766295               0.004536077              -0.002241009              -0.001604367               0.002046799               0.000442432               0.000000000               0.000000000               0.000000000               0.000000000              -0.002172068               0.004933157              -0.002061225              -0.001431168               0.002121424               0.000690257               0.000000000               0.000000000               0.000000000               0.000000000              -0.001625891               0.005183481              -0.001889202              -0.001257642               0.002147023               0.000889381               0.000000000               0.000000000               0.000000000               0.000000000              -0.001111638               0.005332310              -0.001724974              -0.001083401               0.002138552               0.001055151               0.000000000               0.000000000               0.000000000               0.000000000              -0.000618694               0.005401608              -0.001566324              -0.000907210               0.002102921               0.001195711               0.000000000               0.000000000               0.000000000               0.000000000              -0.000140027               0.005413753              -0.001417726              -0.000729228               0.002047642               0.001318414               0.000000000               0.000000000               0.000000000               0.000000000               0.000328061               0.005396540              -0.001270982              -0.000551544               0.001982676               0.001431132               0.000000000               0.000000000               0.000000000               0.000000000               0.000782774               0.005352818              -0.001108927              -0.000375562               0.001909442               0.001533880               0.000000000               0.000000000               0.000000000               0.000000000               0.001216289               0.005284367              -0.000915350              -0.000204438               0.001829584               0.001625146               0.000000000               0.000000000               0.000000000               0.000000000               0.001611455               0.005198368              -0.000670819              -0.000045501               0.001747939               0.001702438               0.000000000               0.000000000               0.000000000               0.000000000               0.001944438               0.005104176              -0.000365492               0.000091141               0.001670995               0.001762136               0.000000000               0.000000000               0.000000000               0.000000000               0.002133221               0.005072830              -0.000205819               0.000165852               0.001635642               0.001801495               0.000000000               0.000000000               0.000000000               0.000000000              -0.012397594              -0.001090856               0.001151633              -0.004512738               0.001140619              -0.003372118               0.000000000               0.000000000               0.000000000               0.000000000              -0.008577210              -0.000079030              -0.000195095              -0.003206573               0.001042507              -0.002164066               0.000000000               0.000000000               0.000000000               0.000000000              -0.005702105               0.000734034              -0.001439782              -0.002230041               0.000988018              -0.001242024               0.000000000               0.000000000               0.000000000               0.000000000              -0.004141006               0.001745797              -0.001829161              -0.001771100               0.001172290              -0.000598810               0.000000000               0.000000000               0.000000000               0.000000000              -0.003151124               0.002653803              -0.001880249              -0.001513394               0.001389055              -0.000124339               0.000000000               0.000000000               0.000000000               0.000000000              -0.002427979               0.003379031              -0.001795084              -0.001332868               0.001570621               0.000237753               0.000000000               0.000000000               0.000000000               0.000000000              -0.001832857               0.003921255              -0.001671422              -0.001177476               0.001699563               0.000522087               0.000000000               0.000000000               0.000000000               0.000000000              -0.001303117               0.004329366              -0.001544051              -0.001029838               0.001786386               0.000756549               0.000000000               0.000000000               0.000000000               0.000000000              -0.000803766               0.004629033              -0.001419228              -0.000880040               0.001836342               0.000956302               0.000000000               0.000000000               0.000000000               0.000000000              -0.000311722               0.004835041              -0.001302027              -0.000721275               0.001852089               0.001130814               0.000000000               0.000000000               0.000000000               0.000000000               0.000187296               0.004976779              -0.001194643              -0.000551861               0.001842863               0.001291002               0.000000000               0.000000000               0.000000000               0.000000000               0.000697820               0.005074059              -0.001088738              -0.000372575               0.001815527               0.001442953               0.000000000               0.000000000               0.000000000               0.000000000               0.001221069               0.005131707              -0.000968634              -0.000183563               0.001771740               0.001588177               0.000000000               0.000000000               0.000000000               0.000000000               0.001756711               0.005149412              -0.000818260               0.000015089               0.001711424               0.001726513               0.000000000               0.000000000               0.000000000               0.000000000               0.002307773               0.005129284              -0.000617826               0.000224252               0.001634993               0.001859245               0.000000000               0.000000000               0.000000000               0.000000000               0.002870714               0.005078118              -0.000346298               0.000441748               0.001545440               0.001987188               0.000000000               0.000000000               0.000000000               0.000000000               0.003261310               0.005085137              -0.000204214               0.000587343               0.001499247               0.002086591               0.000000000               0.000000000               0.000000000               0.000000000              -0.013592153              -0.001241653               0.000673454              -0.004941848               0.001233390              -0.003708458               0.000000000               0.000000000               0.000000000               0.000000000              -0.009229601              -0.000557745              -0.000068066              -0.003391380               0.000944539              -0.002446841               0.000000000               0.000000000               0.000000000               0.000000000              -0.005830581              -0.000096862              -0.000762469              -0.002174358               0.000692494              -0.001481865               0.000000000               0.000000000               0.000000000               0.000000000              -0.004017216               0.000817990              -0.000997576              -0.001608703               0.000808892              -0.000799811               0.000000000               0.000000000               0.000000000               0.000000000              -0.002917554               0.001742651              -0.001043158              -0.001311912               0.001018180              -0.000293731               0.000000000               0.000000000               0.000000000               0.000000000              -0.002155959               0.002532301              -0.001006100              -0.001125020               0.001219098               0.000094078               0.000000000               0.000000000               0.000000000               0.000000000              -0.001558528               0.003164660              -0.000941600              -0.000980028               0.001381552               0.000401524               0.000000000               0.000000000               0.000000000               0.000000000              -0.001039122               0.003675955              -0.000871181              -0.000849163               0.001508360               0.000659197               0.000000000               0.000000000               0.000000000               0.000000000              -0.000548305               0.004080409              -0.000803868              -0.000715664               0.001598677               0.000883013               0.000000000               0.000000000               0.000000000               0.000000000              -0.000059577               0.004390165              -0.000742687              -0.000571111               0.001653744               0.001082633               0.000000000               0.000000000               0.000000000               0.000000000               0.000443487               0.004627661              -0.000686815              -0.000412149               0.001679921               0.001267772               0.000000000               0.000000000               0.000000000               0.000000000               0.000971405               0.004808470              -0.000631462              -0.000236782               0.001681734               0.001444953               0.000000000               0.000000000               0.000000000               0.000000000               0.001537796               0.004945634              -0.000568239              -0.000041531               0.001662372               0.001620841               0.000000000               0.000000000               0.000000000               0.000000000               0.002155920               0.005040924              -0.000489220               0.000178352               0.001620840               0.001799193               0.000000000               0.000000000               0.000000000               0.000000000               0.002840879               0.005083955              -0.000379527               0.000429831               0.001551358               0.001981189               0.000000000               0.000000000               0.000000000               0.000000000               0.003610448               0.005063807              -0.000217860               0.000720935               0.001447607               0.002168542               0.000000000               0.000000000               0.000000000               0.000000000               0.004196805               0.005099820              -0.000133100               0.000936315               0.001387818               0.002324133               0.000000000               0.000000000               0.000000000               0.000000000              -0.014014881              -0.001280148               0.000000000              -0.005095559               0.001271795              -0.003823764               0.000000000               0.000000000               0.000000000               0.000000000              -0.009462332              -0.000717137              -0.000000000              -0.003458730               0.000913858              -0.002544872               0.000000000               0.000000000               0.000000000               0.000000000              -0.005878795              -0.000386092              -0.000000000              -0.002156285               0.000590060              -0.001566225               0.000000000               0.000000000               0.000000000               0.000000000              -0.003970907               0.000491439               0.000000000              -0.001550518               0.000680648              -0.000869871               0.000000000               0.000000000               0.000000000               0.000000000              -0.002829444               0.001413629              -0.000000000              -0.001237743               0.000883785              -0.000353958               0.000000000               0.000000000               0.000000000               0.000000000              -0.002052844               0.002216155               0.000000000              -0.001046833               0.001087655               0.000040822               0.000000000               0.000000000               0.000000000               0.000000000              -0.001455456               0.002877413               0.000000000              -0.000905470               0.001260951               0.000355481               0.000000000               0.000000000               0.000000000               0.000000000              -0.000935351               0.003424663               0.000000000              -0.000778838               0.001401156               0.000622318               0.000000000               0.000000000               0.000000000               0.000000000              -0.000446117               0.003870050               0.000000000              -0.000651049               0.001507020               0.000855971               0.000000000               0.000000000               0.000000000               0.000000000               0.000038104               0.004224553              -0.000000000              -0.000513779               0.001579430               0.001065651               0.000000000               0.000000000               0.000000000               0.000000000               0.000537566               0.004494038              -0.000000000              -0.000360167               0.001618053               0.001257887               0.000000000               0.000000000               0.000000000               0.000000000               0.001069640               0.004705417              -0.000000000              -0.000187062               0.001630810               0.001443749               0.000000000               0.000000000               0.000000000               0.000000000               0.001654314               0.004881219               0.000000000               0.000010215               0.001623652               0.001633867               0.000000000               0.000000000               0.000000000               0.000000000               0.002305751               0.005008535              -0.000000000               0.000238587               0.001589966               0.001828553               0.000000000               0.000000000               0.000000000               0.000000000               0.003041330               0.005072576              -0.000000000               0.000506422               0.001522035               0.002028456               0.000000000               0.000000000               0.000000000               0.000000000               0.003895165               0.005061897               0.000000000               0.000827941               0.001411302               0.002239243               0.000000000               0.000000000               0.000000000               0.000000000               0.004566076               0.005109053               0.000000000               0.001073636               0.001345122               0.002418758               0.000000000               0.000000000               0.000000000               0.000000000               0.000000000               0.000000000               0.000000000               0.000000000               0.000000000               0.000000000               0.000000000               0.000000000               0.000000000               0.000000000               0.000000000               0.000000000               0.000000000               0.000000000               0.000000000               0.000000000               0.000000000               0.000000000               0.000000000               0.000000000               0.000000000               0.000000000               0.000000000               0.000000000               0.000000000               0.000000000               0.000000000               0.000000000               0.000000000               0.000000000               0.000000000               0.000000000               0.000000000               0.000000000               0.000000000               0.000000000               0.000000000               0.000000000               0.000000000               0.000000000               0.000000000               0.000000000               0.000000000               0.000000000               0.000000000               0.000000000               0.000000000               0.000000000               0.000000000               0.000000000               0.000000000               0.000000000               0.000000000               0.000000000               0.000000000               0.000000000               0.000000000               0.000000000               0.000000000               0.000000000               0.000000000               0.000000000               0.000000000               0.000000000               0.000000000               0.000000000               0.000000000               0.000000000               0.000000000               0.000000000               0.000000000               0.000000000               0.000000000               0.000000000               0.000000000               0.000000000               0.000000000               0.000000000               0.000000000               0.000000000               0.000000000               0.000000000               0.000000000               0.000000000               0.000000000               0.000000000               0.000000000               0.000000000               0.000000000               0.000000000               0.000000000               0.000000000               0.000000000               0.000000000               0.000000000               0.000000000               0.000000000               0.000000000               0.000000000               0.000000000               0.000000000               0.000000000               0.000000000               0.000000000               0.000000000               0.000000000               0.000000000               0.000000000               0.000000000               0.000000000               0.000000000               0.000000000               0.000000000               0.000000000               0.000000000               0.000000000               0.000000000               0.000000000               0.000000000               0.000000000               0.000000000               0.000000000               0.000000000               0.000000000               0.000000000               0.000000000               0.000000000               0.000000000               0.000000000               0.000000000               0.000000000               0.000000000               0.000000000               0.000000000               0.000000000               0.000000000               0.000000000               0.000000000               0.000000000               0.000000000               0.000000000               0.000000000               0.000000000               0.000000000               0.000000000               0.000000000               0.000000000               0.000000000               0.000000000               0.000000000               0.000000000               0.000000000               0.000000000               0.000000000               0.000000000               0.000000000               0.000000000               0.000000000               0.000000000               0.000000000               0.000000000               0.000000000               0.000000000               0.000000000               0.000000000               0.000000000               0.000000000               0.000000000               0.000000000               0.000000000               0.002330242               0.023540980               0.001595998              -0.002068777               0.008536507               0.006467730               0.000000000               0.000000000               0.000000000               0.000000000               0.002113091               0.018189679               0.000726413              -0.001481297               0.006556931               0.005075634               0.000000000               0.000000000               0.000000000               0.000000000               0.002586438               0.013897713              -0.000133720              -0.000767298               0.004888291               0.004120992               0.000000000               0.000000000               0.000000000               0.000000000               0.002311419               0.011480970              -0.000488292              -0.000568338               0.004016398               0.003448060               0.000000000               0.000000000               0.000000000               0.000000000               0.001844528               0.009948183              -0.000623777              -0.000551824               0.003499969               0.002948145               0.000000000               0.000000000               0.000000000               0.000000000               0.001374302               0.008863247              -0.000660933              -0.000592542               0.003151900               0.002559358               0.000000000               0.000000000               0.000000000               0.000000000               0.000963057               0.008016215              -0.000655118              -0.000640879               0.002885671               0.002244792               0.000000000               0.000000000               0.000000000               0.000000000               0.000625072               0.007297601              -0.000630767              -0.000677797               0.002658441               0.001980645               0.000000000               0.000000000               0.000000000               0.000000000               0.000361006               0.006649189              -0.000599766              -0.000695770               0.002448297               0.001752528               0.000000000               0.000000000               0.000000000               0.000000000               0.000161144               0.006041494              -0.000568719              -0.000694756               0.002245397               0.001550640               0.000000000               0.000000000               0.000000000               0.000000000               0.000011219               0.005452958              -0.000538042              -0.000677411               0.002043438               0.001366027               0.000000000               0.000000000               0.000000000               0.000000000              -0.000091330               0.004869095              -0.000499891              -0.000642884               0.001837310               0.001194426               0.000000000               0.000000000               0.000000000               0.000000000              -0.000147941               0.004271859              -0.000450258              -0.000589459               0.001620425               0.001030966               0.000000000               0.000000000               0.000000000               0.000000000              -0.000169002               0.003647219              -0.000390853              -0.000519277               0.001388820               0.000869543               0.000000000               0.000000000               0.000000000               0.000000000              -0.000150897               0.002986826              -0.000306941              -0.000429939               0.001138912               0.000708973               0.000000000               0.000000000               0.000000000               0.000000000              -0.000086701               0.002271089              -0.000177341              -0.000316398               0.000862488               0.000546090               0.000000000               0.000000000               0.000000000               0.000000000              -0.000101063               0.001735455              -0.000109535              -0.000254830               0.000663423               0.000408593               0.000000000               0.000000000               0.000000000               0.000000000               0.002482367               0.022068457               0.002959146              -0.001827666               0.007965301               0.006137634               0.000000000               0.000000000               0.000000000               0.000000000               0.001906788               0.017262504               0.001343995              -0.001442764               0.006235032               0.004792268               0.000000000               0.000000000               0.000000000               0.000000000               0.001999685               0.013533457              -0.000239285              -0.000941798               0.004825040               0.003883242               0.000000000               0.000000000               0.000000000               0.000000000               0.001595077               0.011396858              -0.000868329              -0.000826451               0.004074398               0.003247947               0.000000000               0.000000000               0.000000000               0.000000000               0.001122205               0.010005156              -0.001095765              -0.000829816               0.003611624               0.002781808               0.000000000               0.000000000               0.000000000               0.000000000               0.000703895               0.008986098              -0.001148397              -0.000859300               0.003281769               0.002422469               0.000000000               0.000000000               0.000000000               0.000000000               0.000365006               0.008164286              -0.001125536              -0.000883657               0.003015954               0.002132297               0.000000000               0.000000000               0.000000000               0.000000000               0.000108071               0.007451912              -0.001073757              -0.000890961               0.002780933               0.001889972               0.000000000               0.000000000               0.000000000               0.000000000              -0.000074699               0.006807106              -0.001015444              -0.000878899               0.002561979               0.001683080               0.000000000               0.000000000               0.000000000               0.000000000              -0.000203791               0.006209060              -0.000957303              -0.000852552               0.002353850               0.001501297               0.000000000               0.000000000               0.000000000               0.000000000              -0.000287266               0.005642797              -0.000896856              -0.000813073               0.002151938               0.001338865               0.000000000               0.000000000               0.000000000               0.000000000              -0.000330194               0.005094465              -0.000822776              -0.000760629               0.001951681               0.001191052               0.000000000               0.000000000               0.000000000               0.000000000              -0.000335767               0.004550735              -0.000728798              -0.000694753               0.001748481               0.001053728               0.000000000               0.000000000               0.000000000               0.000000000              -0.000301294               0.004009300              -0.000619058              -0.000614146               0.001541135               0.000926989               0.000000000               0.000000000               0.000000000               0.000000000              -0.000227812               0.003470467              -0.000473084              -0.000519237               0.001329889               0.000810653               0.000000000               0.000000000               0.000000000               0.000000000              -0.000122686               0.002936389              -0.000265697              -0.000413055               0.001116471               0.000703416               0.000000000               0.000000000               0.000000000               0.000000000              -0.000101631               0.002570449              -0.000159139              -0.000359417               0.000976613               0.000617196               0.000000000               0.000000000               0.000000000               0.000000000               0.002606015               0.019842782               0.003902610              -0.001503091               0.007115224               0.005612133               0.000000000               0.000000000               0.000000000               0.000000000               0.001534657               0.015885408               0.001772348              -0.001410177               0.005765142               0.004354965               0.000000000               0.000000000               0.000000000               0.000000000               0.001102604               0.012993409              -0.000283310              -0.001210697               0.004734659               0.003523962               0.000000000               0.000000000               0.000000000               0.000000000               0.000555373               0.011253404              -0.001053316              -0.001198408               0.004150566               0.002952158               0.000000000               0.000000000               0.000000000               0.000000000               0.000106663               0.010046785              -0.001311809              -0.001215847               0.003754177               0.002538330               0.000000000               0.000000000               0.000000000               0.000000000              -0.000218490               0.009107550              -0.001355123              -0.001220375               0.003442611               0.002222236               0.000000000               0.000000000               0.000000000               0.000000000              -0.000434434               0.008318188              -0.001310799              -0.001202684               0.003173596               0.001970912               0.000000000               0.000000000               0.000000000               0.000000000              -0.000565160               0.007616186              -0.001236011              -0.001163956               0.002926688               0.001762733               0.000000000               0.000000000               0.000000000               0.000000000              -0.000634239               0.006983318              -0.001156216              -0.001110752               0.002698000               0.001587248               0.000000000               0.000000000               0.000000000               0.000000000              -0.000662035               0.006403818              -0.001078885              -0.001048738               0.002484164               0.001435426               0.000000000               0.000000000               0.000000000               0.000000000              -0.000650783               0.005870030              -0.000997914              -0.000977795               0.002282589               0.001304793               0.000000000               0.000000000               0.000000000               0.000000000              -0.000601082               0.005368556              -0.000898526              -0.000896473               0.002088325               0.001191852               0.000000000               0.000000000               0.000000000               0.000000000              -0.000523533               0.004893665              -0.000777403              -0.000808031               0.001900549               0.001092518               0.000000000               0.000000000               0.000000000               0.000000000              -0.000419334               0.004449099              -0.000640671              -0.000713386               0.001720813               0.001007427               0.000000000               0.000000000               0.000000000               0.000000000              -0.000290579               0.004042288              -0.000470110              -0.000614252               0.001552166               0.000937915               0.000000000               0.000000000               0.000000000               0.000000000              -0.000149104               0.003692964              -0.000252759              -0.000517533               0.001403487               0.000885953               0.000000000               0.000000000               0.000000000               0.000000000              -0.000097716               0.003486769              -0.000144384              -0.000472488               0.001319741               0.000847252               0.000000000               0.000000000               0.000000000               0.000000000               0.002553668               0.017141042               0.004336020              -0.001185005               0.006108624               0.004923619               0.000000000               0.000000000               0.000000000               0.000000000               0.000968414               0.014246843               0.001990887              -0.001417698               0.005221466               0.003803768               0.000000000               0.000000000               0.000000000               0.000000000              -0.000004140               0.012352775              -0.000232435              -0.001545645               0.004632766               0.003087120               0.000000000               0.000000000               0.000000000               0.000000000              -0.000633091               0.011044113              -0.001007905              -0.001617919               0.004220640               0.002602721               0.000000000               0.000000000               0.000000000               0.000000000              -0.000995705               0.010021267              -0.001243379              -0.001626044               0.003882403               0.002256360               0.000000000               0.000000000               0.000000000               0.000000000              -0.001173205               0.009159125              -0.001266449              -0.001584839               0.003581291               0.001996452               0.000000000               0.000000000               0.000000000               0.000000000              -0.001230283               0.008399982              -0.001206397              -0.001511350               0.003303749               0.001792399               0.000000000               0.000000000               0.000000000               0.000000000              -0.001212381               0.007718204              -0.001120802              -0.001419415               0.003045847               0.001626432               0.000000000               0.000000000               0.000000000               0.000000000              -0.001148385               0.007106885              -0.001039133              -0.001319002               0.002808605               0.001489603               0.000000000               0.000000000               0.000000000               0.000000000              -0.001057602               0.006558526              -0.000961975              -0.001216414               0.002591625               0.001375211               0.000000000               0.000000000               0.000000000               0.000000000              -0.000942131               0.006060103              -0.000878856              -0.001110809               0.002390284               0.001279475               0.000000000               0.000000000               0.000000000               0.000000000              -0.000800498               0.005601856              -0.000775939              -0.001000416               0.002200739               0.001200322               0.000000000               0.000000000               0.000000000               0.000000000              -0.000640204               0.005188823              -0.000654521              -0.000888677               0.002025816               0.001137139               0.000000000               0.000000000               0.000000000               0.000000000              -0.000475198               0.004826369              -0.000519983              -0.000781494               0.001869272               0.001087778               0.000000000               0.000000000               0.000000000               0.000000000              -0.000306563               0.004527145              -0.000365049              -0.000680853               0.001735984               0.001055131               0.000000000               0.000000000               0.000000000               0.000000000              -0.000145190               0.004316364              -0.000189338              -0.000593990               0.001636770               0.001042780               0.000000000               0.000000000               0.000000000               0.000000000              -0.000080066               0.004217744              -0.000104230              -0.000557241               0.001591648               0.001034407               0.000000000               0.000000000               0.000000000               0.000000000               0.002187922               0.014238073               0.004276287              -0.000959290               0.005065739               0.004106449               0.000000000               0.000000000               0.000000000               0.000000000               0.000208630               0.012522798               0.002033601              -0.001487111               0.004669928               0.003182817               0.000000000               0.000000000               0.000000000               0.000000000              -0.001189896               0.011659666              -0.000061688              -0.001903664               0.004521071               0.002617407               0.000000000               0.000000000               0.000000000               0.000000000              -0.001793077               0.010749005              -0.000739433              -0.002016025               0.004254974               0.002238949               0.000000000               0.000000000               0.000000000               0.000000000              -0.001994406               0.009888081              -0.000928575              -0.001983907               0.003957296               0.001973389               0.000000000               0.000000000               0.000000000               0.000000000              -0.001983374               0.009094440              -0.000937189              -0.001880566               0.003658305               0.001777739               0.000000000               0.000000000               0.000000000               0.000000000              -0.001861034               0.008366872              -0.000881394              -0.001743743               0.003370177               0.001626434               0.000000000               0.000000000               0.000000000               0.000000000              -0.001684550               0.007713879              -0.000811232              -0.001595937               0.003103246               0.001507309               0.000000000               0.000000000               0.000000000               0.000000000              -0.001487245               0.007134562              -0.000748783              -0.001449534               0.002861341               0.001411808               0.000000000               0.000000000               0.000000000               0.000000000              -0.001284537               0.006614892              -0.000692842              -0.001308560               0.002641129               0.001332569               0.000000000               0.000000000               0.000000000               0.000000000              -0.001073622               0.006144573              -0.000626467              -0.001170677               0.002438396               0.001267719               0.000000000               0.000000000               0.000000000               0.000000000              -0.000855339               0.005719387              -0.000541968              -0.001035673               0.002251667               0.001215994               0.000000000               0.000000000               0.000000000               0.000000000              -0.000634850               0.005351669              -0.000444699              -0.000907025               0.002086213               0.001179188               0.000000000               0.000000000               0.000000000               0.000000000              -0.000432856               0.005052062              -0.000337456              -0.000793827               0.001948613               0.001154786               0.000000000               0.000000000               0.000000000               0.000000000              -0.000256172               0.004831971              -0.000222969              -0.000700059               0.001843994               0.001143935               0.000000000               0.000000000               0.000000000               0.000000000              -0.000110678               0.004703337              -0.000109918              -0.000629420               0.001777570               0.001148150               0.000000000               0.000000000               0.000000000               0.000000000              -0.000053101               0.004658244              -0.000057393              -0.000602192               0.001753463               0.001151271               0.000000000               0.000000000               0.000000000               0.000000000               0.001455963               0.011365672               0.003815505              -0.000874724               0.004080093               0.003205369               0.000000000               0.000000000               0.000000000               0.000000000              -0.000691990               0.010843007               0.001963175              -0.001614869               0.004152589               0.002537720               0.000000000               0.000000000               0.000000000               0.000000000              -0.002319520               0.010925942               0.000239854              -0.002235557               0.004387130               0.002151573               0.000000000               0.000000000               0.000000000               0.000000000              -0.002771741               0.010342813              -0.000291231              -0.002332249               0.004224986               0.001892737               0.000000000               0.000000000               0.000000000               0.000000000              -0.002751730               0.009616038              -0.000446316              -0.002233898               0.003949946               0.001716049               0.000000000               0.000000000               0.000000000               0.000000000              -0.002530158               0.008887575              -0.000466039              -0.002059751               0.003649079               0.001589328               0.000000000               0.000000000               0.000000000               0.000000000              -0.002231544               0.008205014              -0.000440154              -0.001862451               0.003355794               0.001493343               0.000000000               0.000000000               0.000000000               0.000000000              -0.001913577               0.007591074              -0.000409508              -0.001666471               0.003085823               0.001419352               0.000000000               0.000000000               0.000000000               0.000000000              -0.001603600               0.007044042              -0.000385090              -0.001481851               0.002841941               0.001360090               0.000000000               0.000000000               0.000000000               0.000000000              -0.001310853               0.006544312              -0.000364133              -0.001309606               0.002617951               0.001308345               0.000000000               0.000000000               0.000000000               0.000000000              -0.001030017               0.006092065              -0.000329931              -0.001147762               0.002413255               0.001265493               0.000000000               0.000000000               0.000000000               0.000000000              -0.000765309               0.005691985              -0.000275484              -0.000998487               0.002230138               0.001231652               0.000000000               0.000000000               0.000000000               0.000000000              -0.000523010               0.005361038              -0.000215331              -0.000866256               0.002075747               0.001209490               0.000000000               0.000000000               0.000000000               0.000000000              -0.000316879               0.005114247              -0.000153302              -0.000758109               0.001957435               0.001199326               0.000000000               0.000000000               0.000000000               0.000000000              -0.000159597               0.004952438              -0.000090950              -0.000678902               0.001877097               0.001198195               0.000000000               0.000000000               0.000000000               0.000000000              -0.000057687               0.004864429              -0.000038975              -0.000629684               0.001831355               0.001201670               0.000000000               0.000000000               0.000000000               0.000000000              -0.000026409               0.004833581              -0.000019060              -0.000614099               0.001815877               0.001201778               0.000000000               0.000000000               0.000000000               0.000000000               0.000394541               0.008716667               0.003065699              -0.000941631               0.003219403               0.002277772               0.000000000               0.000000000               0.000000000               0.000000000              -0.001676650               0.009307019               0.001834885              -0.001792118               0.003699681               0.001907563               0.000000000               0.000000000               0.000000000               0.000000000              -0.003277205               0.010152505               0.000657658              -0.002498009               0.004216804               0.001718795               0.000000000               0.000000000               0.000000000               0.000000000              -0.003469140               0.009822192               0.000262902              -0.002528695               0.004116930               0.001588234               0.000000000               0.000000000               0.000000000               0.000000000              -0.003202475               0.009211385               0.000104718              -0.002352345               0.003854546               0.001502201               0.000000000               0.000000000               0.000000000               0.000000000              -0.002782329               0.008554467               0.000041507              -0.002112676               0.003555686               0.001443010               0.000000000               0.000000000               0.000000000               0.000000000              -0.002331604               0.007928473               0.000012096              -0.001865406               0.003264600               0.001399194               0.000000000               0.000000000               0.000000000               0.000000000              -0.001901106               0.007361151              -0.000009662              -0.001633055               0.002998044               0.001364989               0.000000000               0.000000000               0.000000000               0.000000000              -0.001512196               0.006836711              -0.000031635              -0.001421659               0.002752767               0.001331108               0.000000000               0.000000000               0.000000000               0.000000000              -0.001165144               0.006352287              -0.000050949              -0.001230962               0.002527728               0.001296767               0.000000000               0.000000000               0.000000000               0.000000000              -0.000851821               0.005914315              -0.000057716              -0.001058720               0.002324325               0.001265606               0.000000000               0.000000000               0.000000000               0.000000000              -0.000575705               0.005547992              -0.000046710              -0.000909386               0.002152441               0.001243055               0.000000000               0.000000000               0.000000000               0.000000000              -0.000346316               0.005271999              -0.000035411              -0.000788866               0.002020271               0.001231405               0.000000000               0.000000000               0.000000000               0.000000000              -0.000171441               0.005086018              -0.000026213              -0.000700041               0.001928669               0.001228629               0.000000000               0.000000000               0.000000000               0.000000000              -0.000061403               0.004974784              -0.000012967              -0.000644873               0.001873202               0.001228330               0.000000000               0.000000000               0.000000000               0.000000000              -0.000010668               0.004917663              -0.000003073              -0.000618707               0.001845440               0.001226733               0.000000000               0.000000000               0.000000000               0.000000000              -0.000003303               0.004897016              -0.000002280              -0.000613364               0.001836777               0.001223413               0.000000000               0.000000000               0.000000000               0.000000000              -0.000864827               0.006491140               0.002156501              -0.001135701               0.002542258               0.001406557               0.000000000               0.000000000               0.000000000               0.000000000              -0.002638308               0.007932499               0.001695287              -0.001980923               0.003304447               0.001323524               0.000000000               0.000000000               0.000000000               0.000000000              -0.004023789               0.009367191               0.001157249              -0.002679813               0.004015637               0.001335824               0.000000000               0.000000000               0.000000000               0.000000000              -0.003936546               0.009303943               0.000852323              -0.002639191               0.003981014               0.001341823               0.000000000               0.000000000               0.000000000               0.000000000              -0.003460955               0.008841876               0.000659391              -0.002403087               0.003748291               0.001345205               0.000000000               0.000000000               0.000000000               0.000000000              -0.002885823               0.008278755               0.000528874              -0.002117023               0.003465232               0.001348209               0.000000000               0.000000000               0.000000000               0.000000000              -0.002324853               0.007720517               0.000434172              -0.001836880               0.003185773               0.001348893               0.000000000               0.000000000               0.000000000               0.000000000              -0.001815164               0.007192057               0.000359287              -0.001579690               0.002923892               0.001344202               0.000000000               0.000000000               0.000000000               0.000000000              -0.001365285               0.006691735               0.000293589              -0.001348445               0.002680038               0.001331592               0.000000000               0.000000000               0.000000000               0.000000000              -0.000979778               0.006221202               0.000233495              -0.001145064               0.002455401               0.001310337               0.000000000               0.000000000               0.000000000               0.000000000              -0.000652822               0.005800576               0.000179786              -0.000969878               0.002256799               0.001286921               0.000000000               0.000000000               0.000000000               0.000000000              -0.000377138               0.005466693               0.000130951              -0.000824761               0.002097133               0.001272372               0.000000000               0.000000000               0.000000000               0.000000000              -0.000171336               0.005229671               0.000084923              -0.000717958               0.001982526               0.001264568               0.000000000               0.000000000               0.000000000               0.000000000              -0.000042434               0.005077329               0.000046694              -0.000650577               0.001909285               0.001258708               0.000000000               0.000000000               0.000000000               0.000000000               0.000018785               0.004992304               0.000021607              -0.000616992               0.001869749               0.001252757               0.000000000               0.000000000               0.000000000               0.000000000               0.000029774               0.004957269               0.000005980              -0.000608492               0.001855237               0.001246745               0.000000000               0.000000000               0.000000000               0.000000000               0.000024164               0.004952957               0.000000008              -0.000610057               0.001854321               0.001244265               0.000000000               0.000000000               0.000000000               0.000000000              -0.002318097               0.004431189               0.001209827              -0.001423182               0.001951442               0.000528260               0.000000000               0.000000000               0.000000000               0.000000000              -0.003440678               0.006330570               0.001544011              -0.002081571               0.002804025               0.000722455               0.000000000               0.000000000               0.000000000               0.000000000              -0.004462644               0.008190815               0.001681114              -0.002697337               0.003629356               0.000932020               0.000000000               0.000000000               0.000000000               0.000000000              -0.004228567               0.008531269               0.001472148              -0.002652115               0.003727766               0.001075651               0.000000000               0.000000000               0.000000000               0.000000000              -0.003673131               0.008354945               0.001245576              -0.002421787               0.003592216               0.001170429               0.000000000               0.000000000               0.000000000               0.000000000              -0.003048613               0.007998003               0.001045792              -0.002142975               0.003380299               0.001237324               0.000000000               0.000000000               0.000000000               0.000000000              -0.002447346               0.007578891               0.000884838              -0.001865112               0.003147976               0.001282864               0.000000000               0.000000000               0.000000000               0.000000000              -0.001902440               0.007143611               0.000756942              -0.001606362               0.002916634               0.001310271               0.000000000               0.000000000               0.000000000               0.000000000              -0.001423690               0.006710087               0.000644404              -0.001372641               0.002694220               0.001321579               0.000000000               0.000000000               0.000000000               0.000000000              -0.001014539               0.006288271               0.000539109              -0.001166483               0.002484897               0.001318414               0.000000000               0.000000000               0.000000000               0.000000000              -0.000666167               0.005906744               0.000439176              -0.000988153               0.002298279               0.001310126               0.000000000               0.000000000               0.000000000               0.000000000              -0.000374673               0.005584367               0.000337844              -0.000838546               0.002140952               0.001302406               0.000000000               0.000000000               0.000000000               0.000000000              -0.000152762               0.005330305               0.000237339              -0.000723572               0.002017941               0.001294369               0.000000000               0.000000000               0.000000000               0.000000000              -0.000004892               0.005156522               0.000149652              -0.000646398               0.001934290               0.001287891               0.000000000               0.000000000               0.000000000               0.000000000               0.000071782               0.005051075               0.000075924              -0.000604465               0.001885163               0.001280699               0.000000000               0.000000000               0.000000000               0.000000000               0.000092227               0.005006868               0.000023353              -0.000591272               0.001866030               0.001274758               0.000000000               0.000000000               0.000000000               0.000000000               0.000087088               0.005001290               0.000003532              -0.000592502               0.001864581               0.001272079               0.000000000               0.000000000               0.000000000               0.000000000              -0.004160539               0.002571005               0.000295322              -0.001881574               0.001484183              -0.000397391               0.000000000               0.000000000               0.000000000               0.000000000              -0.004339968               0.004714672               0.001330067              -0.002216817               0.002310480               0.000093663               0.000000000               0.000000000               0.000000000               0.000000000              -0.004804235               0.006799206               0.002101859              -0.002651483               0.003150206               0.000498724               0.000000000               0.000000000               0.000000000               0.000000000              -0.004447553               0.007522500               0.002056613              -0.002608139               0.003376854               0.000768715               0.000000000               0.000000000               0.000000000               0.000000000              -0.003856055               0.007674359               0.001835481              -0.002405310               0.003359864               0.000954554               0.000000000               0.000000000               0.000000000               0.000000000              -0.003219258               0.007563466               0.001593703              -0.002152650               0.003238680               0.001086030               0.000000000               0.000000000               0.000000000               0.000000000              -0.002601265               0.007326386               0.001381519              -0.001891268               0.003072527               0.001181259               0.000000000               0.000000000               0.000000000               0.000000000              -0.002030920               0.007030938               0.001205658              -0.001640459               0.002890442               0.001249983               0.000000000               0.000000000               0.000000000               0.000000000              -0.001523384               0.006701757               0.001047808              -0.001408985               0.002703558               0.001294573               0.000000000               0.000000000               0.000000000               0.000000000              -0.001081050               0.006359796               0.000903521              -0.001200366               0.002520033               0.001319667               0.000000000               0.000000000               0.000000000               0.000000000              -0.000697384               0.006027519               0.000768899              -0.001014957               0.002347472               0.001332515               0.000000000               0.000000000               0.000000000               0.000000000              -0.000368722               0.005724783               0.000626797              -0.000853866               0.002192864               0.001338997               0.000000000               0.000000000               0.000000000               0.000000000              -0.000100694               0.005467878               0.000477078              -0.000721243               0.002063022               0.001341779               0.000000000               0.000000000               0.000000000               0.000000000               0.000092099               0.005266713               0.000334090              -0.000623801               0.001963487               0.001339686               0.000000000               0.000000000               0.000000000               0.000000000               0.000202740               0.005121352               0.000199778              -0.000564140               0.001895147               0.001331007               0.000000000               0.000000000               0.000000000               0.000000000               0.000238959               0.005041024               0.000084334              -0.000540517               0.001860497               0.001319980               0.000000000               0.000000000               0.000000000               0.000000000               0.000225582               0.005009470               0.000029289              -0.000541589               0.001850336               0.001308747               0.000000000               0.000000000               0.000000000               0.000000000              -0.006268634               0.001047947              -0.000505113              -0.002481728               0.001176550              -0.001305178               0.000000000               0.000000000               0.000000000               0.000000000              -0.005380918               0.003182202               0.001037373              -0.002415615               0.001865926              -0.000549689               0.000000000               0.000000000               0.000000000               0.000000000              -0.005080154               0.005207881               0.002304202              -0.002556037               0.002587954               0.000031917               0.000000000               0.000000000               0.000000000               0.000000000              -0.004512159               0.006199837               0.002458461              -0.002467034               0.002888935               0.000421901               0.000000000               0.000000000               0.000000000               0.000000000              -0.003870847               0.006649499               0.002297593              -0.002282750               0.002977394               0.000694643               0.000000000               0.000000000               0.000000000               0.000000000              -0.003228710               0.006798661               0.002058789              -0.002060594               0.002953062               0.000892467               0.000000000               0.000000000               0.000000000               0.000000000              -0.002614989               0.006781803               0.001827363              -0.001828342               0.002870025               0.001041683               0.000000000               0.000000000               0.000000000               0.000000000              -0.002044059               0.006662082               0.001621805              -0.001599279               0.002753764               0.001154485               0.000000000               0.000000000               0.000000000               0.000000000              -0.001518892               0.006472847               0.001436335              -0.001378688               0.002617156               0.001238469               0.000000000               0.000000000               0.000000000               0.000000000              -0.001044301               0.006243666               0.001266858              -0.001172069               0.002471891               0.001299822               0.000000000               0.000000000               0.000000000               0.000000000              -0.000626525               0.005998590               0.001106442              -0.000984769               0.002327766               0.001342997               0.000000000               0.000000000               0.000000000               0.000000000              -0.000259825               0.005755454               0.000941013              -0.000816865               0.002190754               0.001373889               0.000000000               0.000000000               0.000000000               0.000000000               0.000058949               0.005535982               0.000762264              -0.000669890               0.002068606               0.001398715               0.000000000               0.000000000               0.000000000               0.000000000               0.000311612               0.005347077               0.000574582              -0.000551529               0.001966184               0.001414655               0.000000000               0.000000000               0.000000000               0.000000000               0.000475831               0.005187796               0.000381859              -0.000470037               0.001885927               0.001415890               0.000000000               0.000000000               0.000000000               0.000000000               0.000541188               0.005075568               0.000187021              -0.000431500               0.001835672               0.001404173               0.000000000               0.000000000               0.000000000               0.000000000               0.000529208               0.005022782               0.000084872              -0.000429394               0.001817375               0.001387981               0.000000000               0.000000000               0.000000000               0.000000000              -0.008491405              -0.000049854              -0.001071849              -0.003178043               0.001042722              -0.002135320               0.000000000               0.000000000               0.000000000               0.000000000              -0.006506642               0.001823571               0.000709683              -0.002667934               0.001497158              -0.001170776               0.000000000               0.000000000               0.000000000               0.000000000              -0.005317715               0.003553759               0.002255052              -0.002438359               0.001997358              -0.000441001               0.000000000               0.000000000               0.000000000               0.000000000              -0.004449906               0.004667240               0.002584260              -0.002252115               0.002306435               0.000054320               0.000000000               0.000000000               0.000000000               0.000000000              -0.003719564               0.005350795               0.002511575              -0.002063682               0.002471473               0.000407792               0.000000000               0.000000000               0.000000000               0.000000000              -0.003061882               0.005748913               0.002311648              -0.001866816               0.002538556               0.000671740               0.000000000               0.000000000               0.000000000               0.000000000              -0.002461153               0.005952695               0.002093249              -0.001667016               0.002539883               0.000872867               0.000000000               0.000000000               0.000000000               0.000000000              -0.001903193               0.006019413               0.001890690              -0.001466121               0.002495157               0.001029036               0.000000000               0.000000000               0.000000000               0.000000000              -0.001376022               0.005996157               0.001704365              -0.001265525               0.002420540               0.001155015               0.000000000               0.000000000               0.000000000               0.000000000              -0.000884215               0.005910658               0.001528132              -0.001070411               0.002327003               0.001256592               0.000000000               0.000000000               0.000000000               0.000000000              -0.000434678               0.005785343               0.001361204              -0.000886171               0.002223818               0.001337648               0.000000000               0.000000000               0.000000000               0.000000000              -0.000020033               0.005646250               0.001193478              -0.000713292               0.002119829               0.001406536               0.000000000               0.000000000               0.000000000               0.000000000               0.000359706               0.005503234               0.001009940              -0.000553014               0.002018731               0.001465717               0.000000000               0.000000000               0.000000000               0.000000000               0.000693531               0.005362964               0.000802980              -0.000410296               0.001924402               0.001514106               0.000000000               0.000000000               0.000000000               0.000000000               0.000953867               0.005229842               0.000566806              -0.000296030               0.001841940               0.001545910               0.000000000               0.000000000               0.000000000               0.000000000               0.001110776               0.005109426               0.000297804              -0.000222137               0.001777170               0.001555034               0.000000000               0.000000000               0.000000000               0.000000000               0.001157617               0.005051950               0.000154937              -0.000197387               0.001749762               0.001552375               0.000000000               0.000000000               0.000000000               0.000000000              -0.010617666              -0.000731761              -0.001300130              -0.003890152               0.001052789              -0.002837362               0.000000000               0.000000000               0.000000000               0.000000000              -0.007620899               0.000720730               0.000412229              -0.002947926               0.001222877              -0.001725049               0.000000000               0.000000000               0.000000000               0.000000000              -0.005525683               0.002001925               0.001955853              -0.002322368               0.001441420              -0.000880948               0.000000000               0.000000000               0.000000000               0.000000000              -0.004305237               0.003105727               0.002376256              -0.002002676               0.001702788              -0.000299888               0.000000000               0.000000000               0.000000000               0.000000000              -0.003452131               0.003940408               0.002384177              -0.001787097               0.001909154               0.000122057               0.000000000               0.000000000               0.000000000               0.000000000              -0.002766295               0.004536077               0.002241009              -0.001604367               0.002046799               0.000442432               0.000000000               0.000000000               0.000000000               0.000000000              -0.002172068               0.004933157               0.002061225              -0.001431168               0.002121424               0.000690257               0.000000000               0.000000000               0.000000000               0.000000000              -0.001625891               0.005183481               0.001889202              -0.001257642               0.002147023               0.000889381               0.000000000               0.000000000               0.000000000               0.000000000              -0.001111638               0.005332310               0.001724974              -0.001083401               0.002138552               0.001055151               0.000000000               0.000000000               0.000000000               0.000000000              -0.000618694               0.005401608               0.001566324              -0.000907210               0.002102921               0.001195711               0.000000000               0.000000000               0.000000000               0.000000000              -0.000140027               0.005413753               0.001417726              -0.000729228               0.002047642               0.001318414               0.000000000               0.000000000               0.000000000               0.000000000               0.000328061               0.005396540               0.001270982              -0.000551544               0.001982676               0.001431132               0.000000000               0.000000000               0.000000000               0.000000000               0.000782774               0.005352818               0.001108927              -0.000375562               0.001909442               0.001533880               0.000000000               0.000000000               0.000000000               0.000000000               0.001216289               0.005284367               0.000915350              -0.000204438               0.001829584               0.001625146               0.000000000               0.000000000               0.000000000               0.000000000               0.001611455               0.005198368               0.000670819              -0.000045501               0.001747939               0.001702438               0.000000000               0.000000000               0.000000000               0.000000000               0.001944438               0.005104176               0.000365492               0.000091141               0.001670995               0.001762136               0.000000000               0.000000000               0.000000000               0.000000000               0.002133221               0.005072830               0.000205819               0.000165852               0.001635642               0.001801495               0.000000000               0.000000000               0.000000000               0.000000000              -0.012397594              -0.001090856              -0.001151633              -0.004512738               0.001140619              -0.003372118               0.000000000               0.000000000               0.000000000               0.000000000              -0.008577210              -0.000079030               0.000195095              -0.003206573               0.001042507              -0.002164066               0.000000000               0.000000000               0.000000000               0.000000000              -0.005702105               0.000734034               0.001439782              -0.002230041               0.000988018              -0.001242024               0.000000000               0.000000000               0.000000000               0.000000000              -0.004141006               0.001745797               0.001829161              -0.001771100               0.001172290              -0.000598810               0.000000000               0.000000000               0.000000000               0.000000000              -0.003151124               0.002653803               0.001880249              -0.001513394               0.001389055              -0.000124339               0.000000000               0.000000000               0.000000000               0.000000000              -0.002427979               0.003379031               0.001795084              -0.001332868               0.001570621               0.000237753               0.000000000               0.000000000               0.000000000               0.000000000              -0.001832857               0.003921255               0.001671422              -0.001177476               0.001699563               0.000522087               0.000000000               0.000000000               0.000000000               0.000000000              -0.001303117               0.004329366               0.001544051              -0.001029838               0.001786386               0.000756549               0.000000000               0.000000000               0.000000000               0.000000000              -0.000803766               0.004629033               0.001419228              -0.000880040               0.001836342               0.000956302               0.000000000               0.000000000               0.000000000               0.000000000              -0.000311722               0.004835041               0.001302027              -0.000721275               0.001852089               0.001130814               0.000000000               0.000000000               0.000000000               0.000000000               0.000187296               0.004976779               0.001194643              -0.000551861               0.001842863               0.001291002               0.000000000               0.000000000               0.000000000               0.000000000               0.000697820               0.005074059               0.001088738              -0.000372575               0.001815527               0.001442953               0.000000000               0.000000000               0.000000000               0.000000000               0.001221069               0.005131707               0.000968634              -0.000183563               0.001771740               0.001588177               0.000000000               0.000000000               0.000000000               0.000000000               0.001756711               0.005149412               0.000818260               0.000015089               0.001711424               0.001726513               0.000000000               0.000000000               0.000000000               0.000000000               0.002307773               0.005129284               0.000617826               0.000224252               0.001634993               0.001859245               0.000000000               0.000000000               0.000000000               0.000000000               0.002870714               0.005078118               0.000346298               0.000441748               0.001545440               0.001987188               0.000000000               0.000000000               0.000000000               0.000000000               0.003261310               0.005085137               0.000204214               0.000587343               0.001499247               0.002086591               0.000000000               0.000000000               0.000000000               0.000000000              -0.013592153              -0.001241653              -0.000673454              -0.004941848               0.001233390              -0.003708458               0.000000000               0.000000000               0.000000000               0.000000000              -0.009229601              -0.000557745               0.000068066              -0.003391380               0.000944539              -0.002446841               0.000000000               0.000000000               0.000000000               0.000000000              -0.005830581              -0.000096862               0.000762469              -0.002174358               0.000692494              -0.001481865               0.000000000               0.000000000               0.000000000               0.000000000              -0.004017216               0.000817990               0.000997576              -0.001608703               0.000808892              -0.000799811               0.000000000               0.000000000               0.000000000               0.000000000              -0.002917554               0.001742651               0.001043158              -0.001311912               0.001018180              -0.000293731               0.000000000               0.000000000               0.000000000               0.000000000              -0.002155959               0.002532301               0.001006100              -0.001125020               0.001219098               0.000094078               0.000000000               0.000000000               0.000000000               0.000000000              -0.001558528               0.003164660               0.000941600              -0.000980028               0.001381552               0.000401524               0.000000000               0.000000000               0.000000000               0.000000000              -0.001039122               0.003675955               0.000871181              -0.000849163               0.001508360               0.000659197               0.000000000               0.000000000               0.000000000               0.000000000              -0.000548305               0.004080409               0.000803868              -0.000715664               0.001598677               0.000883013               0.000000000               0.000000000               0.000000000               0.000000000              -0.000059577               0.004390165               0.000742687              -0.000571111               0.001653744               0.001082633               0.000000000               0.000000000               0.000000000               0.000000000               0.000443487               0.004627661               0.000686815              -0.000412149               0.001679921               0.001267772               0.000000000               0.000000000               0.000000000               0.000000000               0.000971405               0.004808470               0.000631462              -0.000236782               0.001681734               0.001444953               0.000000000               0.000000000               0.000000000               0.000000000               0.001537796               0.004945634               0.000568239              -0.000041531               0.001662372               0.001620841               0.000000000               0.000000000               0.000000000               0.000000000               0.002155920               0.005040924               0.000489220               0.000178352               0.001620840               0.001799193               0.000000000               0.000000000               0.000000000               0.000000000               0.002840879               0.005083955               0.000379527               0.000429831               0.001551358               0.001981189               0.000000000               0.000000000               0.000000000               0.000000000               0.003610448               0.005063807               0.000217860               0.000720935               0.001447607               0.002168542               0.000000000               0.000000000               0.000000000               0.000000000               0.004196805               0.005099820               0.000133100               0.000936315               0.001387818               0.002324133               0.000000000               0.000000000               0.000000000               0.000000000              -0.014014881              -0.001280148               0.000000000              -0.005095559               0.001271795              -0.003823764               0.000000000               0.000000000               0.000000000               0.000000000              -0.009462332              -0.000717137               0.000000000              -0.003458730               0.000913858              -0.002544872               0.000000000               0.000000000               0.000000000               0.000000000              -0.005878795              -0.000386092              -0.000000000              -0.002156285               0.000590060              -0.001566225               0.000000000               0.000000000               0.000000000               0.000000000              -0.003970907               0.000491439               0.000000000              -0.001550518               0.000680648              -0.000869871               0.000000000               0.000000000               0.000000000               0.000000000              -0.002829444               0.001413629               0.000000000              -0.001237743               0.000883785              -0.000353958               0.000000000               0.000000000               0.000000000               0.000000000              -0.002052844               0.002216155               0.000000000              -0.001046833               0.001087655               0.000040822               0.000000000               0.000000000               0.000000000               0.000000000              -0.001455456               0.002877413               0.000000000              -0.000905470               0.001260951               0.000355481               0.000000000               0.000000000               0.000000000               0.000000000              -0.000935351               0.003424663              -0.000000000              -0.000778838               0.001401156               0.000622318               0.000000000               0.000000000               0.000000000               0.000000000              -0.000446117               0.003870050              -0.000000000              -0.000651049               0.001507020               0.000855971               0.000000000               0.000000000               0.000000000               0.000000000               0.000038104               0.004224553              -0.000000000              -0.000513779               0.001579430               0.001065651               0.000000000               0.000000000               0.000000000               0.000000000               0.000537566               0.004494038               0.000000000              -0.000360167               0.001618053               0.001257887               0.000000000               0.000000000               0.000000000               0.000000000               0.001069640               0.004705417              -0.000000000              -0.000187062               0.001630810               0.001443749               0.000000000               0.000000000               0.000000000               0.000000000               0.001654314               0.004881219              -0.000000000               0.000010215               0.001623652               0.001633867               0.000000000               0.000000000               0.000000000               0.000000000               0.002305751               0.005008535              -0.000000000               0.000238587               0.001589966               0.001828553               0.000000000               0.000000000               0.000000000               0.000000000               0.003041330               0.005072576              -0.000000000               0.000506422               0.001522035               0.002028456               0.000000000               0.000000000               0.000000000               0.000000000               0.003895165               0.005061897              -0.000000000               0.000827941               0.001411302               0.002239243               0.000000000               0.000000000               0.000000000               0.000000000               0.004566076               0.005109053              -0.000000000               0.001073636               0.001345122               0.002418758               0.000000000               0.000000000               0.000000000               0.000000000               0.002263656               0.024057413               0.000000000              -0.002158300               0.008738491               0.006580191               0.000000000               0.000000000               0.000000000               0.000000000               0.002180606               0.018518553               0.000000000              -0.001497088               0.006671819               0.005174731               0.000000000               0.000000000               0.000000000               0.000000000               0.002793582               0.014026016               0.000000000              -0.000705657               0.004910511               0.004204854               0.000000000               0.000000000               0.000000000               0.000000000               0.002567018               0.011508693              -0.000000000              -0.000475954               0.003994844               0.003518890               0.000000000               0.000000000               0.000000000               0.000000000               0.002104797               0.009922939              -0.000000000              -0.000451067               0.003457969               0.003006902               0.000000000               0.000000000               0.000000000               0.000000000               0.001616114               0.008813095               0.000000000              -0.000495593               0.003102867               0.002607274               0.000000000               0.000000000               0.000000000               0.000000000               0.001181437               0.007953159               0.000000000              -0.000551105               0.002834728               0.002283623               0.000000000               0.000000000               0.000000000               0.000000000               0.000821877               0.007233771              -0.000000000              -0.000596016               0.002609905               0.002013889               0.000000000               0.000000000               0.000000000               0.000000000               0.000529880               0.006586835              -0.000000000              -0.000624648               0.002403806               0.001779158               0.000000000               0.000000000               0.000000000               0.000000000               0.000302428               0.005974613               0.000000000              -0.000633414               0.002202656               0.001569241               0.000000000               0.000000000               0.000000000               0.000000000               0.000130631               0.005377664               0.000000000              -0.000623220               0.002000277               0.001377057               0.000000000               0.000000000               0.000000000               0.000000000               0.000008346               0.004780273               0.000000000              -0.000594403               0.001791543               0.001197140               0.000000000               0.000000000               0.000000000               0.000000000              -0.000070747               0.004161080               0.000000000              -0.000546664               0.001569234               0.001022570               0.000000000               0.000000000               0.000000000               0.000000000              -0.000116512               0.003503621               0.000000000              -0.000481644               0.001328410               0.000846766               0.000000000               0.000000000               0.000000000               0.000000000              -0.000120692               0.002794071               0.000000000              -0.000394518               0.001062853               0.000668336               0.000000000               0.000000000               0.000000000               0.000000000              -0.000071538               0.001999971              -0.000000000              -0.000276822               0.000758924               0.000482102               0.000000000               0.000000000               0.000000000               0.000000000              -0.000100290               0.001387062              -0.000000000              -0.000210991               0.000532680               0.000321688               0.000000000               0.000000000               0.000000000               0.000000000               0.002330242               0.023540980              -0.001595998              -0.002068777               0.008536507               0.006467730               0.000000000               0.000000000               0.000000000               0.000000000               0.002113091               0.018189679              -0.000726413              -0.001481297               0.006556931               0.005075634               0.000000000               0.000000000               0.000000000               0.000000000               0.002586438               0.013897713               0.000133720              -0.000767298               0.004888291               0.004120992               0.000000000               0.000000000               0.000000000               0.000000000               0.002311419               0.011480970               0.000488292              -0.000568338               0.004016398               0.003448060               0.000000000               0.000000000               0.000000000               0.000000000               0.001844528               0.009948183               0.000623777              -0.000551824               0.003499969               0.002948145               0.000000000               0.000000000               0.000000000               0.000000000               0.001374302               0.008863247               0.000660933              -0.000592542               0.003151900               0.002559358               0.000000000               0.000000000               0.000000000               0.000000000               0.000963057               0.008016215               0.000655118              -0.000640879               0.002885671               0.002244792               0.000000000               0.000000000               0.000000000               0.000000000               0.000625072               0.007297601               0.000630767              -0.000677797               0.002658441               0.001980645               0.000000000               0.000000000               0.000000000               0.000000000               0.000361006               0.006649189               0.000599766              -0.000695770               0.002448297               0.001752528               0.000000000               0.000000000               0.000000000               0.000000000               0.000161144               0.006041494               0.000568719              -0.000694756               0.002245397               0.001550640               0.000000000               0.000000000               0.000000000               0.000000000               0.000011219               0.005452958               0.000538042              -0.000677411               0.002043438               0.001366027               0.000000000               0.000000000               0.000000000               0.000000000              -0.000091330               0.004869095               0.000499891              -0.000642884               0.001837310               0.001194426               0.000000000               0.000000000               0.000000000               0.000000000              -0.000147941               0.004271859               0.000450258              -0.000589459               0.001620425               0.001030966               0.000000000               0.000000000               0.000000000               0.000000000              -0.000169002               0.003647219               0.000390853              -0.000519277               0.001388820               0.000869543               0.000000000               0.000000000               0.000000000               0.000000000              -0.000150897               0.002986826               0.000306941              -0.000429939               0.001138912               0.000708973               0.000000000               0.000000000               0.000000000               0.000000000              -0.000086701               0.002271089               0.000177341              -0.000316398               0.000862488               0.000546090               0.000000000               0.000000000               0.000000000               0.000000000              -0.000101063               0.001735455               0.000109535              -0.000254830               0.000663423               0.000408593               0.000000000               0.000000000               0.000000000               0.000000000               0.002482367               0.022068457              -0.002959146              -0.001827666               0.007965301               0.006137634               0.000000000               0.000000000               0.000000000               0.000000000               0.001906788               0.017262504              -0.001343995              -0.001442764               0.006235032               0.004792268               0.000000000               0.000000000               0.000000000               0.000000000               0.001999685               0.013533457               0.000239285              -0.000941798               0.004825040               0.003883242               0.000000000               0.000000000               0.000000000               0.000000000               0.001595077               0.011396858               0.000868329              -0.000826451               0.004074398               0.003247947               0.000000000               0.000000000               0.000000000               0.000000000               0.001122205               0.010005156               0.001095765              -0.000829816               0.003611624               0.002781808               0.000000000               0.000000000               0.000000000               0.000000000               0.000703895               0.008986098               0.001148397              -0.000859300               0.003281769               0.002422469               0.000000000               0.000000000               0.000000000               0.000000000               0.000365006               0.008164286               0.001125536              -0.000883657               0.003015954               0.002132297               0.000000000               0.000000000               0.000000000               0.000000000               0.000108071               0.007451912               0.001073757              -0.000890961               0.002780933               0.001889972               0.000000000               0.000000000               0.000000000               0.000000000              -0.000074699               0.006807106               0.001015444              -0.000878899               0.002561979               0.001683080               0.000000000               0.000000000               0.000000000               0.000000000              -0.000203791               0.006209060               0.000957303              -0.000852552               0.002353850               0.001501297               0.000000000               0.000000000               0.000000000               0.000000000              -0.000287266               0.005642797               0.000896856              -0.000813073               0.002151938               0.001338865               0.000000000               0.000000000               0.000000000               0.000000000              -0.000330194               0.005094465               0.000822776              -0.000760629               0.001951681               0.001191052               0.000000000               0.000000000               0.000000000               0.000000000              -0.000335767               0.004550735               0.000728798              -0.000694753               0.001748481               0.001053728               0.000000000               0.000000000               0.000000000               0.000000000              -0.000301294               0.004009300               0.000619058              -0.000614146               0.001541135               0.000926989               0.000000000               0.000000000               0.000000000               0.000000000              -0.000227812               0.003470467               0.000473084              -0.000519237               0.001329889               0.000810653               0.000000000               0.000000000               0.000000000               0.000000000              -0.000122686               0.002936389               0.000265697              -0.000413055               0.001116471               0.000703416               0.000000000               0.000000000               0.000000000               0.000000000              -0.000101631               0.002570449               0.000159139              -0.000359417               0.000976613               0.000617196               0.000000000               0.000000000               0.000000000               0.000000000               0.002606015               0.019842782              -0.003902610              -0.001503091               0.007115224               0.005612133               0.000000000               0.000000000               0.000000000               0.000000000               0.001534657               0.015885408              -0.001772348              -0.001410177               0.005765142               0.004354965               0.000000000               0.000000000               0.000000000               0.000000000               0.001102604               0.012993409               0.000283310              -0.001210697               0.004734659               0.003523962               0.000000000               0.000000000               0.000000000               0.000000000               0.000555373               0.011253404               0.001053316              -0.001198408               0.004150566               0.002952158               0.000000000               0.000000000               0.000000000               0.000000000               0.000106663               0.010046785               0.001311809              -0.001215847               0.003754177               0.002538330               0.000000000               0.000000000               0.000000000               0.000000000              -0.000218490               0.009107550               0.001355123              -0.001220375               0.003442611               0.002222236               0.000000000               0.000000000               0.000000000               0.000000000              -0.000434434               0.008318188               0.001310799              -0.001202684               0.003173596               0.001970912               0.000000000               0.000000000               0.000000000               0.000000000              -0.000565160               0.007616186               0.001236011              -0.001163956               0.002926688               0.001762733               0.000000000               0.000000000               0.000000000               0.000000000              -0.000634239               0.006983318               0.001156216              -0.001110752               0.002698000               0.001587248               0.000000000               0.000000000               0.000000000               0.000000000              -0.000662035               0.006403818               0.001078885              -0.001048738               0.002484164               0.001435426               0.000000000               0.000000000               0.000000000               0.000000000              -0.000650783               0.005870030               0.000997914              -0.000977795               0.002282589               0.001304793               0.000000000               0.000000000               0.000000000               0.000000000              -0.000601082               0.005368556               0.000898526              -0.000896473               0.002088325               0.001191852               0.000000000               0.000000000               0.000000000               0.000000000              -0.000523533               0.004893665               0.000777403              -0.000808031               0.001900549               0.001092518               0.000000000               0.000000000               0.000000000               0.000000000              -0.000419334               0.004449099               0.000640671              -0.000713386               0.001720813               0.001007427               0.000000000               0.000000000               0.000000000               0.000000000              -0.000290579               0.004042288               0.000470110              -0.000614252               0.001552166               0.000937915               0.000000000               0.000000000               0.000000000               0.000000000              -0.000149104               0.003692964               0.000252759              -0.000517533               0.001403487               0.000885953               0.000000000               0.000000000               0.000000000               0.000000000              -0.000097716               0.003486769               0.000144384              -0.000472488               0.001319741               0.000847252               0.000000000               0.000000000               0.000000000               0.000000000               0.002553668               0.017141042              -0.004336020              -0.001185005               0.006108624               0.004923619               0.000000000               0.000000000               0.000000000               0.000000000               0.000968414               0.014246843              -0.001990887              -0.001417698               0.005221466               0.003803768               0.000000000               0.000000000               0.000000000               0.000000000              -0.000004140               0.012352775               0.000232435              -0.001545645               0.004632766               0.003087120               0.000000000               0.000000000               0.000000000               0.000000000              -0.000633091               0.011044113               0.001007905              -0.001617919               0.004220640               0.002602721               0.000000000               0.000000000               0.000000000               0.000000000              -0.000995705               0.010021267               0.001243379              -0.001626044               0.003882403               0.002256360               0.000000000               0.000000000               0.000000000               0.000000000              -0.001173205               0.009159125               0.001266449              -0.001584839               0.003581291               0.001996452               0.000000000               0.000000000               0.000000000               0.000000000              -0.001230283               0.008399982               0.001206397              -0.001511350               0.003303749               0.001792399               0.000000000               0.000000000               0.000000000               0.000000000              -0.001212381               0.007718204               0.001120802              -0.001419415               0.003045847               0.001626432               0.000000000               0.000000000               0.000000000               0.000000000              -0.001148385               0.007106885               0.001039133              -0.001319002               0.002808605               0.001489603               0.000000000               0.000000000               0.000000000               0.000000000              -0.001057602               0.006558526               0.000961975              -0.001216414               0.002591625               0.001375211               0.000000000               0.000000000               0.000000000               0.000000000              -0.000942131               0.006060103               0.000878856              -0.001110809               0.002390284               0.001279475               0.000000000               0.000000000               0.000000000               0.000000000              -0.000800498               0.005601856               0.000775939              -0.001000416               0.002200739               0.001200322               0.000000000               0.000000000               0.000000000               0.000000000              -0.000640204               0.005188823               0.000654521              -0.000888677               0.002025816               0.001137139               0.000000000               0.000000000               0.000000000               0.000000000              -0.000475198               0.004826369               0.000519983              -0.000781494               0.001869272               0.001087778               0.000000000               0.000000000               0.000000000               0.000000000              -0.000306563               0.004527145               0.000365049              -0.000680853               0.001735984               0.001055131               0.000000000               0.000000000               0.000000000               0.000000000              -0.000145190               0.004316364               0.000189338              -0.000593990               0.001636770               0.001042780               0.000000000               0.000000000               0.000000000               0.000000000              -0.000080066               0.004217744               0.000104230              -0.000557241               0.001591648               0.001034407               0.000000000               0.000000000               0.000000000               0.000000000               0.002187922               0.014238073              -0.004276287              -0.000959290               0.005065739               0.004106449               0.000000000               0.000000000               0.000000000               0.000000000               0.000208630               0.012522798              -0.002033601              -0.001487111               0.004669928               0.003182817               0.000000000               0.000000000               0.000000000               0.000000000              -0.001189896               0.011659666               0.000061688              -0.001903664               0.004521071               0.002617407               0.000000000               0.000000000               0.000000000               0.000000000              -0.001793077               0.010749005               0.000739433              -0.002016025               0.004254974               0.002238949               0.000000000               0.000000000               0.000000000               0.000000000              -0.001994406               0.009888081               0.000928575              -0.001983907               0.003957296               0.001973389               0.000000000               0.000000000               0.000000000               0.000000000              -0.001983374               0.009094440               0.000937189              -0.001880566               0.003658305               0.001777739               0.000000000               0.000000000               0.000000000               0.000000000              -0.001861034               0.008366872               0.000881394              -0.001743743               0.003370177               0.001626434               0.000000000               0.000000000               0.000000000               0.000000000              -0.001684550               0.007713879               0.000811232              -0.001595937               0.003103246               0.001507309               0.000000000               0.000000000               0.000000000               0.000000000              -0.001487245               0.007134562               0.000748783              -0.001449534               0.002861341               0.001411808               0.000000000               0.000000000               0.000000000               0.000000000              -0.001284537               0.006614892               0.000692842              -0.001308560               0.002641129               0.001332569               0.000000000               0.000000000               0.000000000               0.000000000              -0.001073622               0.006144573               0.000626467              -0.001170677               0.002438396               0.001267719               0.000000000               0.000000000               0.000000000               0.000000000              -0.000855339               0.005719387               0.000541968              -0.001035673               0.002251667               0.001215994               0.000000000               0.000000000               0.000000000               0.000000000              -0.000634850               0.005351669               0.000444699              -0.000907025               0.002086213               0.001179188               0.000000000               0.000000000               0.000000000               0.000000000              -0.000432856               0.005052062               0.000337456              -0.000793827               0.001948613               0.001154786               0.000000000               0.000000000               0.000000000               0.000000000              -0.000256172               0.004831971               0.000222969              -0.000700059               0.001843994               0.001143935               0.000000000               0.000000000               0.000000000               0.000000000              -0.000110678               0.004703337               0.000109918              -0.000629420               0.001777570               0.001148150               0.000000000               0.000000000               0.000000000               0.000000000              -0.000053101               0.004658244               0.000057393              -0.000602192               0.001753463               0.001151271               0.000000000               0.000000000               0.000000000               0.000000000               0.001455963               0.011365672              -0.003815505              -0.000874724               0.004080093               0.003205369               0.000000000               0.000000000               0.000000000               0.000000000              -0.000691990               0.010843007              -0.001963175              -0.001614869               0.004152589               0.002537720               0.000000000               0.000000000               0.000000000               0.000000000              -0.002319520               0.010925942              -0.000239854              -0.002235557               0.004387130               0.002151573               0.000000000               0.000000000               0.000000000               0.000000000              -0.002771741               0.010342813               0.000291231              -0.002332249               0.004224986               0.001892737               0.000000000               0.000000000               0.000000000               0.000000000              -0.002751730               0.009616038               0.000446316              -0.002233898               0.003949946               0.001716049               0.000000000               0.000000000               0.000000000               0.000000000              -0.002530158               0.008887575               0.000466039              -0.002059751               0.003649079               0.001589328               0.000000000               0.000000000               0.000000000               0.000000000              -0.002231544               0.008205014               0.000440154              -0.001862451               0.003355794               0.001493343               0.000000000               0.000000000               0.000000000               0.000000000              -0.001913577               0.007591074               0.000409508              -0.001666471               0.003085823               0.001419352               0.000000000               0.000000000               0.000000000               0.000000000              -0.001603600               0.007044042               0.000385090              -0.001481851               0.002841941               0.001360090               0.000000000               0.000000000               0.000000000               0.000000000              -0.001310853               0.006544312               0.000364133              -0.001309606               0.002617951               0.001308345               0.000000000               0.000000000               0.000000000               0.000000000              -0.001030017               0.006092065               0.000329931              -0.001147762               0.002413255               0.001265493               0.000000000               0.000000000               0.000000000               0.000000000              -0.000765309               0.005691985               0.000275484              -0.000998487               0.002230138               0.001231652               0.000000000               0.000000000               0.000000000               0.000000000              -0.000523010               0.005361038               0.000215331              -0.000866256               0.002075747               0.001209490               0.000000000               0.000000000               0.000000000               0.000000000              -0.000316879               0.005114247               0.000153302              -0.000758109               0.001957435               0.001199326               0.000000000               0.000000000               0.000000000               0.000000000              -0.000159597               0.004952438               0.000090950              -0.000678902               0.001877097               0.001198195               0.000000000               0.000000000               0.000000000               0.000000000              -0.000057687               0.004864429               0.000038975              -0.000629684               0.001831355               0.001201670               0.000000000               0.000000000               0.000000000               0.000000000              -0.000026409               0.004833581               0.000019060              -0.000614099               0.001815877               0.001201778               0.000000000               0.000000000               0.000000000               0.000000000               0.000394541               0.008716667              -0.003065699              -0.000941631               0.003219403               0.002277772               0.000000000               0.000000000               0.000000000               0.000000000              -0.001676650               0.009307019              -0.001834885              -0.001792118               0.003699681               0.001907563               0.000000000               0.000000000               0.000000000               0.000000000              -0.003277205               0.010152505              -0.000657658              -0.002498009               0.004216804               0.001718795               0.000000000               0.000000000               0.000000000               0.000000000              -0.003469140               0.009822192              -0.000262902              -0.002528695               0.004116930               0.001588234               0.000000000               0.000000000               0.000000000               0.000000000              -0.003202475               0.009211385              -0.000104718              -0.002352345               0.003854546               0.001502201               0.000000000               0.000000000               0.000000000               0.000000000              -0.002782329               0.008554467              -0.000041507              -0.002112676               0.003555686               0.001443010               0.000000000               0.000000000               0.000000000               0.000000000              -0.002331604               0.007928473              -0.000012096              -0.001865406               0.003264600               0.001399194               0.000000000               0.000000000               0.000000000               0.000000000              -0.001901106               0.007361151               0.000009662              -0.001633055               0.002998044               0.001364989               0.000000000               0.000000000               0.000000000               0.000000000              -0.001512196               0.006836711               0.000031635              -0.001421659               0.002752767               0.001331108               0.000000000               0.000000000               0.000000000               0.000000000              -0.001165144               0.006352287               0.000050949              -0.001230962               0.002527728               0.001296767               0.000000000               0.000000000               0.000000000               0.000000000              -0.000851821               0.005914315               0.000057716              -0.001058720               0.002324325               0.001265606               0.000000000               0.000000000               0.000000000               0.000000000              -0.000575705               0.005547992               0.000046710              -0.000909386               0.002152441               0.001243055               0.000000000               0.000000000               0.000000000               0.000000000              -0.000346316               0.005271999               0.000035411              -0.000788866               0.002020271               0.001231405               0.000000000               0.000000000               0.000000000               0.000000000              -0.000171441               0.005086018               0.000026213              -0.000700041               0.001928669               0.001228629               0.000000000               0.000000000               0.000000000               0.000000000              -0.000061403               0.004974784               0.000012967              -0.000644873               0.001873202               0.001228330               0.000000000               0.000000000               0.000000000               0.000000000              -0.000010668               0.004917663               0.000003073              -0.000618707               0.001845440               0.001226733               0.000000000               0.000000000               0.000000000               0.000000000              -0.000003303               0.004897016               0.000002280              -0.000613364               0.001836777               0.001223413               0.000000000               0.000000000               0.000000000               0.000000000              -0.000864827               0.006491140              -0.002156501              -0.001135701               0.002542258               0.001406557               0.000000000               0.000000000               0.000000000               0.000000000              -0.002638308               0.007932499              -0.001695287              -0.001980923               0.003304447               0.001323524               0.000000000               0.000000000               0.000000000               0.000000000              -0.004023789               0.009367191              -0.001157249              -0.002679813               0.004015637               0.001335824               0.000000000               0.000000000               0.000000000               0.000000000              -0.003936546               0.009303943              -0.000852323              -0.002639191               0.003981014               0.001341823               0.000000000               0.000000000               0.000000000               0.000000000              -0.003460955               0.008841876              -0.000659391              -0.002403087               0.003748291               0.001345205               0.000000000               0.000000000               0.000000000               0.000000000              -0.002885823               0.008278755              -0.000528874              -0.002117023               0.003465232               0.001348209               0.000000000               0.000000000               0.000000000               0.000000000              -0.002324853               0.007720517              -0.000434172              -0.001836880               0.003185773               0.001348893               0.000000000               0.000000000               0.000000000               0.000000000              -0.001815164               0.007192057              -0.000359287              -0.001579690               0.002923892               0.001344202               0.000000000               0.000000000               0.000000000               0.000000000              -0.001365285               0.006691735              -0.000293589              -0.001348445               0.002680038               0.001331592               0.000000000               0.000000000               0.000000000               0.000000000              -0.000979778               0.006221202              -0.000233495              -0.001145064               0.002455401               0.001310337               0.000000000               0.000000000               0.000000000               0.000000000              -0.000652822               0.005800576              -0.000179786              -0.000969878               0.002256799               0.001286921               0.000000000               0.000000000               0.000000000               0.000000000              -0.000377138               0.005466693              -0.000130951              -0.000824761               0.002097133               0.001272372               0.000000000               0.000000000               0.000000000               0.000000000              -0.000171336               0.005229671              -0.000084923              -0.000717958               0.001982526               0.001264568               0.000000000               0.000000000               0.000000000               0.000000000              -0.000042434               0.005077329              -0.000046694              -0.000650577               0.001909285               0.001258708               0.000000000               0.000000000               0.000000000               0.000000000               0.000018785               0.004992304              -0.000021607              -0.000616992               0.001869749               0.001252757               0.000000000               0.000000000               0.000000000               0.000000000               0.000029774               0.004957269              -0.000005980              -0.000608492               0.001855237               0.001246745               0.000000000               0.000000000               0.000000000               0.000000000               0.000024164               0.004952957              -0.000000008              -0.000610057               0.001854321               0.001244265               0.000000000               0.000000000               0.000000000               0.000000000              -0.002318097               0.004431189              -0.001209827              -0.001423182               0.001951442               0.000528260               0.000000000               0.000000000               0.000000000               0.000000000              -0.003440678               0.006330570              -0.001544011              -0.002081571               0.002804025               0.000722455               0.000000000               0.000000000               0.000000000               0.000000000              -0.004462644               0.008190815              -0.001681114              -0.002697337               0.003629356               0.000932020               0.000000000               0.000000000               0.000000000               0.000000000              -0.004228567               0.008531269              -0.001472148              -0.002652115               0.003727766               0.001075651               0.000000000               0.000000000               0.000000000               0.000000000              -0.003673131               0.008354945              -0.001245576              -0.002421787               0.003592216               0.001170429               0.000000000               0.000000000               0.000000000               0.000000000              -0.003048613               0.007998003              -0.001045792              -0.002142975               0.003380299               0.001237324               0.000000000               0.000000000               0.000000000               0.000000000              -0.002447346               0.007578891              -0.000884838              -0.001865112               0.003147976               0.001282864               0.000000000               0.000000000               0.000000000               0.000000000              -0.001902440               0.007143611              -0.000756942              -0.001606362               0.002916634               0.001310271               0.000000000               0.000000000               0.000000000               0.000000000              -0.001423690               0.006710087              -0.000644404              -0.001372641               0.002694220               0.001321579               0.000000000               0.000000000               0.000000000               0.000000000              -0.001014539               0.006288271              -0.000539109              -0.001166483               0.002484897               0.001318414               0.000000000               0.000000000               0.000000000               0.000000000              -0.000666167               0.005906744              -0.000439176              -0.000988153               0.002298279               0.001310126               0.000000000               0.000000000               0.000000000               0.000000000              -0.000374673               0.005584367              -0.000337844              -0.000838546               0.002140952               0.001302406               0.000000000               0.000000000               0.000000000               0.000000000              -0.000152762               0.005330305              -0.000237339              -0.000723572               0.002017941               0.001294369               0.000000000               0.000000000               0.000000000               0.000000000              -0.000004892               0.005156522              -0.000149652              -0.000646398               0.001934290               0.001287891               0.000000000               0.000000000               0.000000000               0.000000000               0.000071782               0.005051075              -0.000075924              -0.000604465               0.001885163               0.001280699               0.000000000               0.000000000               0.000000000               0.000000000               0.000092227               0.005006868              -0.000023353              -0.000591272               0.001866030               0.001274758               0.000000000               0.000000000               0.000000000               0.000000000               0.000087088               0.005001290              -0.000003532              -0.000592502               0.001864581               0.001272079               0.000000000               0.000000000               0.000000000               0.000000000              -0.004160539               0.002571005              -0.000295322              -0.001881574               0.001484183              -0.000397391               0.000000000               0.000000000               0.000000000               0.000000000              -0.004339968               0.004714672              -0.001330067              -0.002216817               0.002310480               0.000093663               0.000000000               0.000000000               0.000000000               0.000000000              -0.004804235               0.006799206              -0.002101859              -0.002651483               0.003150206               0.000498724               0.000000000               0.000000000               0.000000000               0.000000000              -0.004447553               0.007522500              -0.002056613              -0.002608139               0.003376854               0.000768715               0.000000000               0.000000000               0.000000000               0.000000000              -0.003856055               0.007674359              -0.001835481              -0.002405310               0.003359864               0.000954554               0.000000000               0.000000000               0.000000000               0.000000000              -0.003219258               0.007563466              -0.001593703              -0.002152650               0.003238680               0.001086030               0.000000000               0.000000000               0.000000000               0.000000000              -0.002601265               0.007326386              -0.001381519              -0.001891268               0.003072527               0.001181259               0.000000000               0.000000000               0.000000000               0.000000000              -0.002030920               0.007030938              -0.001205658              -0.001640459               0.002890442               0.001249983               0.000000000               0.000000000               0.000000000               0.000000000              -0.001523384               0.006701757              -0.001047808              -0.001408985               0.002703558               0.001294573               0.000000000               0.000000000               0.000000000               0.000000000              -0.001081050               0.006359796              -0.000903521              -0.001200366               0.002520033               0.001319667               0.000000000               0.000000000               0.000000000               0.000000000              -0.000697384               0.006027519              -0.000768899              -0.001014957               0.002347472               0.001332515               0.000000000               0.000000000               0.000000000               0.000000000              -0.000368722               0.005724783              -0.000626797              -0.000853866               0.002192864               0.001338997               0.000000000               0.000000000               0.000000000               0.000000000              -0.000100694               0.005467878              -0.000477078              -0.000721243               0.002063022               0.001341779               0.000000000               0.000000000               0.000000000               0.000000000               0.000092099               0.005266713              -0.000334090              -0.000623801               0.001963487               0.001339686               0.000000000               0.000000000               0.000000000               0.000000000               0.000202740               0.005121352              -0.000199778              -0.000564140               0.001895147               0.001331007               0.000000000               0.000000000               0.000000000               0.000000000               0.000238959               0.005041024              -0.000084334              -0.000540517               0.001860497               0.001319980               0.000000000               0.000000000               0.000000000               0.000000000               0.000225582               0.005009470              -0.000029289              -0.000541589               0.001850336               0.001308747               0.000000000               0.000000000               0.000000000               0.000000000              -0.006268634               0.001047947               0.000505113              -0.002481728               0.001176550              -0.001305178               0.000000000               0.000000000               0.000000000               0.000000000              -0.005380918               0.003182202              -0.001037373              -0.002415615               0.001865926              -0.000549689               0.000000000               0.000000000               0.000000000               0.000000000              -0.005080154               0.005207881              -0.002304202              -0.002556037               0.002587954               0.000031917               0.000000000               0.000000000               0.000000000               0.000000000              -0.004512159               0.006199837              -0.002458461              -0.002467034               0.002888935               0.000421901               0.000000000               0.000000000               0.000000000               0.000000000              -0.003870847               0.006649499              -0.002297593              -0.002282750               0.002977394               0.000694643               0.000000000               0.000000000               0.000000000               0.000000000              -0.003228710               0.006798661              -0.002058789              -0.002060594               0.002953062               0.000892467               0.000000000               0.000000000               0.000000000               0.000000000              -0.002614989               0.006781803              -0.001827363              -0.001828342               0.002870025               0.001041683               0.000000000               0.000000000               0.000000000               0.000000000              -0.002044059               0.006662082              -0.001621805              -0.001599279               0.002753764               0.001154485               0.000000000               0.000000000               0.000000000               0.000000000              -0.001518892               0.006472847              -0.001436335              -0.001378688               0.002617156               0.001238469               0.000000000               0.000000000               0.000000000               0.000000000              -0.001044301               0.006243666              -0.001266858              -0.001172069               0.002471891               0.001299822               0.000000000               0.000000000               0.000000000               0.000000000              -0.000626525               0.005998590              -0.001106442              -0.000984769               0.002327766               0.001342997               0.000000000               0.000000000               0.000000000               0.000000000              -0.000259825               0.005755454              -0.000941013              -0.000816865               0.002190754               0.001373889               0.000000000               0.000000000               0.000000000               0.000000000               0.000058949               0.005535982              -0.000762264              -0.000669890               0.002068606               0.001398715               0.000000000               0.000000000               0.000000000               0.000000000               0.000311612               0.005347077              -0.000574582              -0.000551529               0.001966184               0.001414655               0.000000000               0.000000000               0.000000000               0.000000000               0.000475831               0.005187796              -0.000381859              -0.000470037               0.001885927               0.001415890               0.000000000               0.000000000               0.000000000               0.000000000               0.000541188               0.005075568              -0.000187021              -0.000431500               0.001835672               0.001404173               0.000000000               0.000000000               0.000000000               0.000000000               0.000529208               0.005022782              -0.000084872              -0.000429394               0.001817375               0.001387981               0.000000000               0.000000000               0.000000000               0.000000000              -0.008491405              -0.000049854               0.001071849              -0.003178043               0.001042722              -0.002135320               0.000000000               0.000000000               0.000000000               0.000000000              -0.006506642               0.001823571              -0.000709683              -0.002667934               0.001497158              -0.001170776               0.000000000               0.000000000               0.000000000               0.000000000              -0.005317715               0.003553759              -0.002255052              -0.002438359               0.001997358              -0.000441001               0.000000000               0.000000000               0.000000000               0.000000000              -0.004449906               0.004667240              -0.002584260              -0.002252115               0.002306435               0.000054320               0.000000000               0.000000000               0.000000000               0.000000000              -0.003719564               0.005350795              -0.002511575              -0.002063682               0.002471473               0.000407792               0.000000000               0.000000000               0.000000000               0.000000000              -0.003061882               0.005748913              -0.002311648              -0.001866816               0.002538556               0.000671740               0.000000000               0.000000000               0.000000000               0.000000000              -0.002461153               0.005952695              -0.002093249              -0.001667016               0.002539883               0.000872867               0.000000000               0.000000000               0.000000000               0.000000000              -0.001903193               0.006019413              -0.001890690              -0.001466121               0.002495157               0.001029036               0.000000000               0.000000000               0.000000000               0.000000000              -0.001376022               0.005996157              -0.001704365              -0.001265525               0.002420540               0.001155015               0.000000000               0.000000000               0.000000000               0.000000000              -0.000884215               0.005910658              -0.001528132              -0.001070411               0.002327003               0.001256592               0.000000000               0.000000000               0.000000000               0.000000000              -0.000434678               0.005785343              -0.001361204              -0.000886171               0.002223818               0.001337648               0.000000000               0.000000000               0.000000000               0.000000000              -0.000020033               0.005646250              -0.001193478              -0.000713292               0.002119829               0.001406536               0.000000000               0.000000000               0.000000000               0.000000000               0.000359706               0.005503234              -0.001009940              -0.000553014               0.002018731               0.001465717               0.000000000               0.000000000               0.000000000               0.000000000               0.000693531               0.005362964              -0.000802980              -0.000410296               0.001924402               0.001514106               0.000000000               0.000000000               0.000000000               0.000000000               0.000953867               0.005229842              -0.000566806              -0.000296030               0.001841940               0.001545910               0.000000000               0.000000000               0.000000000               0.000000000               0.001110776               0.005109426              -0.000297804              -0.000222137               0.001777170               0.001555034               0.000000000               0.000000000               0.000000000               0.000000000               0.001157617               0.005051950              -0.000154937              -0.000197387               0.001749762               0.001552375               0.000000000               0.000000000               0.000000000               0.000000000              -0.010617666              -0.000731761               0.001300130              -0.003890152               0.001052789              -0.002837362               0.000000000               0.000000000               0.000000000               0.000000000              -0.007620899               0.000720730              -0.000412229              -0.002947926               0.001222877              -0.001725049               0.000000000               0.000000000               0.000000000               0.000000000              -0.005525683               0.002001925              -0.001955853              -0.002322368               0.001441420              -0.000880948               0.000000000               0.000000000               0.000000000               0.000000000              -0.004305237               0.003105727              -0.002376256              -0.002002676               0.001702788              -0.000299888               0.000000000               0.000000000               0.000000000               0.000000000              -0.003452131               0.003940408              -0.002384177              -0.001787097               0.001909154               0.000122057               0.000000000               0.000000000               0.000000000               0.000000000              -0.002766295               0.004536077              -0.002241009              -0.001604367               0.002046799               0.000442432               0.000000000               0.000000000               0.000000000               0.000000000              -0.002172068               0.004933157              -0.002061225              -0.001431168               0.002121424               0.000690257               0.000000000               0.000000000               0.000000000               0.000000000              -0.001625891               0.005183481              -0.001889202              -0.001257642               0.002147023               0.000889381               0.000000000               0.000000000               0.000000000               0.000000000              -0.001111638               0.005332310              -0.001724974              -0.001083401               0.002138552               0.001055151               0.000000000               0.000000000               0.000000000               0.000000000              -0.000618694               0.005401608              -0.001566324              -0.000907210               0.002102921               0.001195711               0.000000000               0.000000000               0.000000000               0.000000000              -0.000140027               0.005413753              -0.001417726              -0.000729228               0.002047642               0.001318414               0.000000000               0.000000000               0.000000000               0.000000000               0.000328061               0.005396540              -0.001270982              -0.000551544               0.001982676               0.001431132               0.000000000               0.000000000               0.000000000               0.000000000               0.000782774               0.005352818              -0.001108927              -0.000375562               0.001909442               0.001533880               0.000000000               0.000000000               0.000000000               0.000000000               0.001216289               0.005284367              -0.000915350              -0.000204438               0.001829584               0.001625146               0.000000000               0.000000000               0.000000000               0.000000000               0.001611455               0.005198368              -0.000670819              -0.000045501               0.001747939               0.001702438               0.000000000               0.000000000               0.000000000               0.000000000               0.001944438               0.005104176              -0.000365492               0.000091141               0.001670995               0.001762136               0.000000000               0.000000000               0.000000000               0.000000000               0.002133221               0.005072830              -0.000205819               0.000165852               0.001635642               0.001801495               0.000000000               0.000000000               0.000000000               0.000000000              -0.012397594              -0.001090856               0.001151633              -0.004512738               0.001140619              -0.003372118               0.000000000               0.000000000               0.000000000               0.000000000              -0.008577210              -0.000079030              -0.000195095              -0.003206573               0.001042507              -0.002164066               0.000000000               0.000000000               0.000000000               0.000000000              -0.005702105               0.000734034              -0.001439782              -0.002230041               0.000988018              -0.001242024               0.000000000               0.000000000               0.000000000               0.000000000              -0.004141006               0.001745797              -0.001829161              -0.001771100               0.001172290              -0.000598810               0.000000000               0.000000000               0.000000000               0.000000000              -0.003151124               0.002653803              -0.001880249              -0.001513394               0.001389055              -0.000124339               0.000000000               0.000000000               0.000000000               0.000000000              -0.002427979               0.003379031              -0.001795084              -0.001332868               0.001570621               0.000237753               0.000000000               0.000000000               0.000000000               0.000000000              -0.001832857               0.003921255              -0.001671422              -0.001177476               0.001699563               0.000522087               0.000000000               0.000000000               0.000000000               0.000000000              -0.001303117               0.004329366              -0.001544051              -0.001029838               0.001786386               0.000756549               0.000000000               0.000000000               0.000000000               0.000000000              -0.000803766               0.004629033              -0.001419228              -0.000880040               0.001836342               0.000956302               0.000000000               0.000000000               0.000000000               0.000000000              -0.000311722               0.004835041              -0.001302027              -0.000721275               0.001852089               0.001130814               0.000000000               0.000000000               0.000000000               0.000000000               0.000187296               0.004976779              -0.001194643              -0.000551861               0.001842863               0.001291002               0.000000000               0.000000000               0.000000000               0.000000000               0.000697820               0.005074059              -0.001088738              -0.000372575               0.001815527               0.001442953               0.000000000               0.000000000               0.000000000               0.000000000               0.001221069               0.005131707              -0.000968634              -0.000183563               0.001771740               0.001588177               0.000000000               0.000000000               0.000000000               0.000000000               0.001756711               0.005149412              -0.000818260               0.000015089               0.001711424               0.001726513               0.000000000               0.000000000               0.000000000               0.000000000               0.002307773               0.005129284              -0.000617826               0.000224252               0.001634993               0.001859245               0.000000000               0.000000000               0.000000000               0.000000000               0.002870714               0.005078118              -0.000346298               0.000441748               0.001545440               0.001987188               0.000000000               0.000000000               0.000000000               0.000000000               0.003261310               0.005085137              -0.000204214               0.000587343               0.001499247               0.002086591               0.000000000               0.000000000               0.000000000               0.000000000              -0.013592153              -0.001241653               0.000673454              -0.004941848               0.001233390              -0.003708458               0.000000000               0.000000000               0.000000000               0.000000000              -0.009229601              -0.000557745              -0.000068066              -0.003391380               0.000944539              -0.002446841               0.000000000               0.000000000               0.000000000               0.000000000              -0.005830581              -0.000096862              -0.000762469              -0.002174358               0.000692494              -0.001481865               0.000000000               0.000000000               0.000000000               0.000000000              -0.004017216               0.000817990              -0.000997576              -0.001608703               0.000808892              -0.000799811               0.000000000               0.000000000               0.000000000               0.000000000              -0.002917554               0.001742651              -0.001043158              -0.001311912               0.001018180              -0.000293731               0.000000000               0.000000000               0.000000000               0.000000000              -0.002155959               0.002532301              -0.001006100              -0.001125020               0.001219098               0.000094078               0.000000000               0.000000000               0.000000000               0.000000000              -0.001558528               0.003164660              -0.000941600              -0.000980028               0.001381552               0.000401524               0.000000000               0.000000000               0.000000000               0.000000000              -0.001039122               0.003675955              -0.000871181              -0.000849163               0.001508360               0.000659197               0.000000000               0.000000000               0.000000000               0.000000000              -0.000548305               0.004080409              -0.000803868              -0.000715664               0.001598677               0.000883013               0.000000000               0.000000000               0.000000000               0.000000000              -0.000059577               0.004390165              -0.000742687              -0.000571111               0.001653744               0.001082633               0.000000000               0.000000000               0.000000000               0.000000000               0.000443487               0.004627661              -0.000686815              -0.000412149               0.001679921               0.001267772               0.000000000               0.000000000               0.000000000               0.000000000               0.000971405               0.004808470              -0.000631462              -0.000236782               0.001681734               0.001444953               0.000000000               0.000000000               0.000000000               0.000000000               0.001537796               0.004945634              -0.000568239              -0.000041531               0.001662372               0.001620841               0.000000000               0.000000000               0.000000000               0.000000000               0.002155920               0.005040924              -0.000489220               0.000178352               0.001620840               0.001799193               0.000000000               0.000000000               0.000000000               0.000000000               0.002840879               0.005083955              -0.000379527               0.000429831               0.001551358               0.001981189               0.000000000               0.000000000               0.000000000               0.000000000               0.003610448               0.005063807              -0.000217860               0.000720935               0.001447607               0.002168542               0.000000000               0.000000000               0.000000000               0.000000000               0.004196805               0.005099820              -0.000133100               0.000936315               0.001387818               0.002324133               0.000000000               0.000000000               0.000000000               0.000000000               0.000000000               0.000000000               0.000000000               0.000000000               0.000000000               0.000000000               0.000000000               0.000000000               0.000000000               0.000000000               0.000000000               0.000000000               0.000000000               0.000000000               0.000000000               0.000000000               0.000000000               0.000000000               0.000000000               0.000000000               0.000000000               0.000000000               0.000000000               0.000000000               0.000000000               0.000000000               0.000000000               0.000000000               0.000000000               0.000000000               0.000000000               0.000000000               0.000000000               0.000000000               0.000000000               0.000000000               0.000000000               0.000000000               0.000000000               0.000000000               0.000000000               0.000000000               0.000000000               0.000000000               0.000000000               0.000000000               0.000000000               0.000000000               0.000000000               0.000000000               0.000000000               0.000000000               0.000000000               0.000000000               0.000000000               0.000000000               0.000000000               0.000000000               0.000000000               0.000000000               0.000000000               0.000000000               0.000000000               0.000000000               0.000000000               0.000000000               0.000000000               0.000000000               0.000000000               0.000000000               0.000000000               0.000000000               0.000000000               0.000000000               0.000000000               0.000000000               0.000000000               0.000000000               0.000000000               0.000000000               0.000000000               0.000000000               0.000000000               0.000000000               0.000000000               0.000000000               0.000000000               0.000000000               0.000000000               0.000000000               0.000000000               0.000000000               0.000000000               0.000000000               0.000000000               0.000000000               0.000000000               0.000000000               0.000000000               0.000000000               0.000000000               0.000000000               0.000000000               0.000000000               0.000000000               0.000000000               0.000000000               0.000000000               0.000000000               0.000000000               0.000000000               0.000000000               0.000000000               0.000000000               0.000000000               0.000000000               0.000000000               0.000000000               0.000000000               0.000000000               0.000000000               0.000000000               0.000000000               0.000000000               0.000000000               0.000000000               0.000000000               0.000000000               0.000000000               0.000000000               0.000000000               0.000000000               0.000000000               0.000000000               0.000000000               0.000000000               0.000000000               0.000000000               0.000000000               0.000000000               0.000000000               0.000000000               0.000000000               0.000000000               0.000000000               0.000000000               0.000000000               0.000000000               0.000000000               0.000000000               0.000000000               0.000000000               0.000000000               0.000000000               0.000000000               0.000000000               0.000000000               0.000000000               0.000000000               0.000000000               0.000000000               0.000000000               0.000000000               0.000000000               0.000000000               0.000000000               0.000000000               0.000000000               0.000000000               0.000000000               0.000000000               0.000000000               0.000000000               0.000000000               0.000000000               0.000000000               0.000000000               0.000000000               0.000000000               0.000000000               0.000000000               0.000000000               0.000000000               0.000000000               0.000000000               0.000000000               0.000000000               0.000000000               0.000000000               0.000000000               0.000000000               0.000000000               0.000000000               0.000000000               0.000000000               0.000000000               0.000000000               0.000000000               0.000000000               0.000000000               0.000000000               0.000000000               0.000000000               0.000000000               0.000000000               0.000000000               0.000000000               0.000000000               0.000000000               0.000000000               0.000000000               0.000000000               0.000000000               0.000000000               0.000000000               0.000000000               0.000000000               0.000000000               0.000000000               0.000000000               0.000000000               0.000000000               0.000000000               0.000000000               0.000000000               0.000000000               0.000000000               0.000000000               0.000000000               0.000000000               0.000000000               0.000000000               0.000000000               0.000000000               0.000000000               0.000000000               0.000000000               0.000000000               0.000000000               0.000000000               0.000000000               0.000000000               0.000000000               0.000000000               0.000000000               0.000000000               0.000000000               0.000000000               0.000000000               0.000000000               0.000000000               0.000000000               0.000000000               0.000000000               0.000000000               0.000000000               0.000000000               0.000000000               0.000000000               0.000000000               0.000000000               0.000000000               0.000000000               0.000000000               0.000000000               0.000000000               0.000000000               0.000000000               0.000000000               0.000000000               0.000000000               0.000000000               0.000000000               0.000000000               0.000000000               0.000000000               0.000000000               0.000000000               0.000000000               0.000000000               0.000000000               0.000000000               0.000000000               0.000000000               0.000000000               0.000000000               0.000000000               0.000000000               0.000000000               0.000000000               0.000000000               0.000000000               0.000000000               0.000000000               0.000000000               0.000000000               0.000000000               0.000000000               0.000000000               0.000000000               0.000000000               0.000000000               0.000000000               0.000000000               0.000000000               0.000000000               0.000000000               0.000000000               0.000000000               0.000000000               0.000000000               0.000000000               0.000000000               0.000000000               0.000000000               0.000000000               0.000000000               0.000000000               0.000000000               0.000000000               0.000000000               0.000000000               0.000000000               0.000000000               0.000000000               0.000000000               0.000000000               0.000000000               0.000000000               0.000000000               0.000000000               0.000000000               0.000000000               0.000000000               0.000000000               0.000000000               0.000000000               0.000000000               0.000000000               0.000000000               0.002330242               0.023540980               0.001595998              -0.002068777               0.008536507               0.006467730               0.000000000               0.000000000               0.000000000               0.000000000               0.002113091               0.018189679               0.000726413              -0.001481297               0.006556931               0.005075634               0.000000000               0.000000000               0.000000000               0.000000000               0.002586438               0.013897713              -0.000133720              -0.000767298               0.004888291               0.004120992               0.000000000               0.000000000               0.000000000               0.000000000               0.002311419               0.011480970              -0.000488292              -0.000568338               0.004016398               0.003448060               0.000000000               0.000000000               0.000000000               0.000000000               0.001844528               0.009948183              -0.000623777              -0.000551824               0.003499969               0.002948145               0.000000000               0.000000000               0.000000000               0.000000000               0.001374302               0.008863247              -0.000660933              -0.000592542               0.003151900               0.002559358               0.000000000               0.000000000               0.000000000               0.000000000               0.000963057               0.008016215              -0.000655118              -0.000640879               0.002885671               0.002244792               0.000000000               0.000000000               0.000000000               0.000000000               0.000625072               0.007297601              -0.000630767              -0.000677797               0.002658441               0.001980645               0.000000000               0.000000000               0.000000000               0.000000000               0.000361006               0.006649189              -0.000599766              -0.000695770               0.002448297               0.001752528               0.000000000               0.000000000               0.000000000               0.000000000               0.000161144               0.006041494              -0.000568719              -0.000694756               0.002245397               0.001550640               0.000000000               0.000000000               0.000000000               0.000000000               0.000011219               0.005452958              -0.000538042              -0.000677411               0.002043438               0.001366027               0.000000000               0.000000000               0.000000000               0.000000000              -0.000091330               0.004869095              -0.000499891              -0.000642884               0.001837310               0.001194426               0.000000000               0.000000000               0.000000000               0.000000000              -0.000147941               0.004271859              -0.000450258              -0.000589459               0.001620425               0.001030966               0.000000000               0.000000000               0.000000000               0.000000000              -0.000169002               0.003647219              -0.000390853              -0.000519277               0.001388820               0.000869543               0.000000000               0.000000000               0.000000000               0.000000000              -0.000150897               0.002986826              -0.000306941              -0.000429939               0.001138912               0.000708973               0.000000000               0.000000000               0.000000000               0.000000000              -0.000086701               0.002271089              -0.000177341              -0.000316398               0.000862488               0.000546090               0.000000000               0.000000000               0.000000000               0.000000000              -0.000101063               0.001735455              -0.000109535              -0.000254830               0.000663423               0.000408593               0.000000000               0.000000000               0.000000000               0.000000000               0.002482367               0.022068457               0.002959146              -0.001827666               0.007965301               0.006137634               0.000000000               0.000000000               0.000000000               0.000000000               0.001906788               0.017262504               0.001343995              -0.001442764               0.006235032               0.004792268               0.000000000               0.000000000               0.000000000               0.000000000               0.001999685               0.013533457              -0.000239285              -0.000941798               0.004825040               0.003883242               0.000000000               0.000000000               0.000000000               0.000000000               0.001595077               0.011396858              -0.000868329              -0.000826451               0.004074398               0.003247947               0.000000000               0.000000000               0.000000000               0.000000000               0.001122205               0.010005156              -0.001095765              -0.000829816               0.003611624               0.002781808               0.000000000               0.000000000               0.000000000               0.000000000               0.000703895               0.008986098              -0.001148397              -0.000859300               0.003281769               0.002422469               0.000000000               0.000000000               0.000000000               0.000000000               0.000365006               0.008164286              -0.001125536              -0.000883657               0.003015954               0.002132297               0.000000000               0.000000000               0.000000000               0.000000000               0.000108071               0.007451912              -0.001073757              -0.000890961               0.002780933               0.001889972               0.000000000               0.000000000               0.000000000               0.000000000              -0.000074699               0.006807106              -0.001015444              -0.000878899               0.002561979               0.001683080               0.000000000               0.000000000               0.000000000               0.000000000              -0.000203791               0.006209060              -0.000957303              -0.000852552               0.002353850               0.001501297               0.000000000               0.000000000               0.000000000               0.000000000              -0.000287266               0.005642797              -0.000896856              -0.000813073               0.002151938               0.001338865               0.000000000               0.000000000               0.000000000               0.000000000              -0.000330194               0.005094465              -0.000822776              -0.000760629               0.001951681               0.001191052               0.000000000               0.000000000               0.000000000               0.000000000              -0.000335767               0.004550735              -0.000728798              -0.000694753               0.001748481               0.001053728               0.000000000               0.000000000               0.000000000               0.000000000              -0.000301294               0.004009300              -0.000619058              -0.000614146               0.001541135               0.000926989               0.000000000               0.000000000               0.000000000               0.000000000              -0.000227812               0.003470467              -0.000473084              -0.000519237               0.001329889               0.000810653               0.000000000               0.000000000               0.000000000               0.000000000              -0.000122686               0.002936389              -0.000265697              -0.000413055               0.001116471               0.000703416               0.000000000               0.000000000               0.000000000               0.000000000              -0.000101631               0.002570449              -0.000159139              -0.000359417               0.000976613               0.000617196               0.000000000               0.000000000               0.000000000               0.000000000               0.002606015               0.019842782               0.003902610              -0.001503091               0.007115224               0.005612133               0.000000000               0.000000000               0.000000000               0.000000000               0.001534657               0.015885408               0.001772348              -0.001410177               0.005765142               0.004354965               0.000000000               0.000000000               0.000000000               0.000000000               0.001102604               0.012993409              -0.000283310              -0.001210697               0.004734659               0.003523962               0.000000000               0.000000000               0.000000000               0.000000000               0.000555373               0.011253404              -0.001053316              -0.001198408               0.004150566               0.002952158               0.000000000               0.000000000               0.000000000               0.000000000               0.000106663               0.010046785              -0.001311809              -0.001215847               0.003754177               0.002538330               0.000000000               0.000000000               0.000000000               0.000000000              -0.000218490               0.009107550              -0.001355123              -0.001220375               0.003442611               0.002222236               0.000000000               0.000000000               0.000000000               0.000000000              -0.000434434               0.008318188              -0.001310799              -0.001202684               0.003173596               0.001970912               0.000000000               0.000000000               0.000000000               0.000000000              -0.000565160               0.007616186              -0.001236011              -0.001163956               0.002926688               0.001762733               0.000000000               0.000000000               0.000000000               0.000000000              -0.000634239               0.006983318              -0.001156216              -0.001110752               0.002698000               0.001587248               0.000000000               0.000000000               0.000000000               0.000000000              -0.000662035               0.006403818              -0.001078885              -0.001048738               0.002484164               0.001435426               0.000000000               0.000000000               0.000000000               0.000000000              -0.000650783               0.005870030              -0.000997914              -0.000977795               0.002282589               0.001304793               0.000000000               0.000000000               0.000000000               0.000000000              -0.000601082               0.005368556              -0.000898526              -0.000896473               0.002088325               0.001191852               0.000000000               0.000000000               0.000000000               0.000000000              -0.000523533               0.004893665              -0.000777403              -0.000808031               0.001900549               0.001092518               0.000000000               0.000000000               0.000000000               0.000000000              -0.000419334               0.004449099              -0.000640671              -0.000713386               0.001720813               0.001007427               0.000000000               0.000000000               0.000000000               0.000000000              -0.000290579               0.004042288              -0.000470110              -0.000614252               0.001552166               0.000937915               0.000000000               0.000000000               0.000000000               0.000000000              -0.000149104               0.003692964              -0.000252759              -0.000517533               0.001403487               0.000885953               0.000000000               0.000000000               0.000000000               0.000000000              -0.000097716               0.003486769              -0.000144384              -0.000472488               0.001319741               0.000847252               0.000000000               0.000000000               0.000000000               0.000000000               0.002553668               0.017141042               0.004336020              -0.001185005               0.006108624               0.004923619               0.000000000               0.000000000               0.000000000               0.000000000               0.000968414               0.014246843               0.001990887              -0.001417698               0.005221466               0.003803768               0.000000000               0.000000000               0.000000000               0.000000000              -0.000004140               0.012352775              -0.000232435              -0.001545645               0.004632766               0.003087120               0.000000000               0.000000000               0.000000000               0.000000000              -0.000633091               0.011044113              -0.001007905              -0.001617919               0.004220640               0.002602721               0.000000000               0.000000000               0.000000000               0.000000000              -0.000995705               0.010021267              -0.001243379              -0.001626044               0.003882403               0.002256360               0.000000000               0.000000000               0.000000000               0.000000000              -0.001173205               0.009159125              -0.001266449              -0.001584839               0.003581291               0.001996452               0.000000000               0.000000000               0.000000000               0.000000000              -0.001230283               0.008399982              -0.001206397              -0.001511350               0.003303749               0.001792399               0.000000000               0.000000000               0.000000000               0.000000000              -0.001212381               0.007718204              -0.001120802              -0.001419415               0.003045847               0.001626432               0.000000000               0.000000000               0.000000000               0.000000000              -0.001148385               0.007106885              -0.001039133              -0.001319002               0.002808605               0.001489603               0.000000000               0.000000000               0.000000000               0.000000000              -0.001057602               0.006558526              -0.000961975              -0.001216414               0.002591625               0.001375211               0.000000000               0.000000000               0.000000000               0.000000000              -0.000942131               0.006060103              -0.000878856              -0.001110809               0.002390284               0.001279475               0.000000000               0.000000000               0.000000000               0.000000000              -0.000800498               0.005601856              -0.000775939              -0.001000416               0.002200739               0.001200322               0.000000000               0.000000000               0.000000000               0.000000000              -0.000640204               0.005188823              -0.000654521              -0.000888677               0.002025816               0.001137139               0.000000000               0.000000000               0.000000000               0.000000000              -0.000475198               0.004826369              -0.000519983              -0.000781494               0.001869272               0.001087778               0.000000000               0.000000000               0.000000000               0.000000000              -0.000306563               0.004527145              -0.000365049              -0.000680853               0.001735984               0.001055131               0.000000000               0.000000000               0.000000000               0.000000000              -0.000145190               0.004316364              -0.000189338              -0.000593990               0.001636770               0.001042780               0.000000000               0.000000000               0.000000000               0.000000000              -0.000080066               0.004217744              -0.000104230              -0.000557241               0.001591648               0.001034407               0.000000000               0.000000000               0.000000000               0.000000000               0.002187922               0.014238073               0.004276287              -0.000959290               0.005065739               0.004106449               0.000000000               0.000000000               0.000000000               0.000000000               0.000208630               0.012522798               0.002033601              -0.001487111               0.004669928               0.003182817               0.000000000               0.000000000               0.000000000               0.000000000              -0.001189896               0.011659666              -0.000061688              -0.001903664               0.004521071               0.002617407               0.000000000               0.000000000               0.000000000               0.000000000              -0.001793077               0.010749005              -0.000739433              -0.002016025               0.004254974               0.002238949               0.000000000               0.000000000               0.000000000               0.000000000              -0.001994406               0.009888081              -0.000928575              -0.001983907               0.003957296               0.001973389               0.000000000               0.000000000               0.000000000               0.000000000              -0.001983374               0.009094440              -0.000937189              -0.001880566               0.003658305               0.001777739               0.000000000               0.000000000               0.000000000               0.000000000              -0.001861034               0.008366872              -0.000881394              -0.001743743               0.003370177               0.001626434               0.000000000               0.000000000               0.000000000               0.000000000              -0.001684550               0.007713879              -0.000811232              -0.001595937               0.003103246               0.001507309               0.000000000               0.000000000               0.000000000               0.000000000              -0.001487245               0.007134562              -0.000748783              -0.001449534               0.002861341               0.001411808               0.000000000               0.000000000               0.000000000               0.000000000              -0.001284537               0.006614892              -0.000692842              -0.001308560               0.002641129               0.001332569               0.000000000               0.000000000               0.000000000               0.000000000              -0.001073622               0.006144573              -0.000626467              -0.001170677               0.002438396               0.001267719               0.000000000               0.000000000               0.000000000               0.000000000              -0.000855339               0.005719387              -0.000541968              -0.001035673               0.002251667               0.001215994               0.000000000               0.000000000               0.000000000               0.000000000              -0.000634850               0.005351669              -0.000444699              -0.000907025               0.002086213               0.001179188               0.000000000               0.000000000               0.000000000               0.000000000              -0.000432856               0.005052062              -0.000337456              -0.000793827               0.001948613               0.001154786               0.000000000               0.000000000               0.000000000               0.000000000              -0.000256172               0.004831971              -0.000222969              -0.000700059               0.001843994               0.001143935               0.000000000               0.000000000               0.000000000               0.000000000              -0.000110678               0.004703337              -0.000109918              -0.000629420               0.001777570               0.001148150               0.000000000               0.000000000               0.000000000               0.000000000              -0.000053101               0.004658244              -0.000057393              -0.000602192               0.001753463               0.001151271               0.000000000               0.000000000               0.000000000               0.000000000               0.001455963               0.011365672               0.003815505              -0.000874724               0.004080093               0.003205369               0.000000000               0.000000000               0.000000000               0.000000000              -0.000691990               0.010843007               0.001963175              -0.001614869               0.004152589               0.002537720               0.000000000               0.000000000               0.000000000               0.000000000              -0.002319520               0.010925942               0.000239854              -0.002235557               0.004387130               0.002151573               0.000000000               0.000000000               0.000000000               0.000000000              -0.002771741               0.010342813              -0.000291231              -0.002332249               0.004224986               0.001892737               0.000000000               0.000000000               0.000000000               0.000000000              -0.002751730               0.009616038              -0.000446316              -0.002233898               0.003949946               0.001716049               0.000000000               0.000000000               0.000000000               0.000000000              -0.002530158               0.008887575              -0.000466039              -0.002059751               0.003649079               0.001589328               0.000000000               0.000000000               0.000000000               0.000000000              -0.002231544               0.008205014              -0.000440154              -0.001862451               0.003355794               0.001493343               0.000000000               0.000000000               0.000000000               0.000000000              -0.001913577               0.007591074              -0.000409508              -0.001666471               0.003085823               0.001419352               0.000000000               0.000000000               0.000000000               0.000000000              -0.001603600               0.007044042              -0.000385090              -0.001481851               0.002841941               0.001360090               0.000000000               0.000000000               0.000000000               0.000000000              -0.001310853               0.006544312              -0.000364133              -0.001309606               0.002617951               0.001308345               0.000000000               0.000000000               0.000000000               0.000000000              -0.001030017               0.006092065              -0.000329931              -0.001147762               0.002413255               0.001265493               0.000000000               0.000000000               0.000000000               0.000000000              -0.000765309               0.005691985              -0.000275484              -0.000998487               0.002230138               0.001231652               0.000000000               0.000000000               0.000000000               0.000000000              -0.000523010               0.005361038              -0.000215331              -0.000866256               0.002075747               0.001209490               0.000000000               0.000000000               0.000000000               0.000000000              -0.000316879               0.005114247              -0.000153302              -0.000758109               0.001957435               0.001199326               0.000000000               0.000000000               0.000000000               0.000000000              -0.000159597               0.004952438              -0.000090950              -0.000678902               0.001877097               0.001198195               0.000000000               0.000000000               0.000000000               0.000000000              -0.000057687               0.004864429              -0.000038975              -0.000629684               0.001831355               0.001201670               0.000000000               0.000000000               0.000000000               0.000000000              -0.000026409               0.004833581              -0.000019060              -0.000614099               0.001815877               0.001201778               0.000000000               0.000000000               0.000000000               0.000000000               0.000394541               0.008716667               0.003065699              -0.000941631               0.003219403               0.002277772               0.000000000               0.000000000               0.000000000               0.000000000              -0.001676650               0.009307019               0.001834885              -0.001792118               0.003699681               0.001907563               0.000000000               0.000000000               0.000000000               0.000000000              -0.003277205               0.010152505               0.000657658              -0.002498009               0.004216804               0.001718795               0.000000000               0.000000000               0.000000000               0.000000000              -0.003469140               0.009822192               0.000262902              -0.002528695               0.004116930               0.001588234               0.000000000               0.000000000               0.000000000               0.000000000              -0.003202475               0.009211385               0.000104718              -0.002352345               0.003854546               0.001502201               0.000000000               0.000000000               0.000000000               0.000000000              -0.002782329               0.008554467               0.000041507              -0.002112676               0.003555686               0.001443010               0.000000000               0.000000000               0.000000000               0.000000000              -0.002331604               0.007928473               0.000012096              -0.001865406               0.003264600               0.001399194               0.000000000               0.000000000               0.000000000               0.000000000              -0.001901106               0.007361151              -0.000009662              -0.001633055               0.002998044               0.001364989               0.000000000               0.000000000               0.000000000               0.000000000              -0.001512196               0.006836711              -0.000031635              -0.001421659               0.002752767               0.001331108               0.000000000               0.000000000               0.000000000               0.000000000              -0.001165144               0.006352287              -0.000050949              -0.001230962               0.002527728               0.001296767               0.000000000               0.000000000               0.000000000               0.000000000              -0.000851821               0.005914315              -0.000057716              -0.001058720               0.002324325               0.001265606               0.000000000               0.000000000               0.000000000               0.000000000              -0.000575705               0.005547992              -0.000046710              -0.000909386               0.002152441               0.001243055               0.000000000               0.000000000               0.000000000               0.000000000              -0.000346316               0.005271999              -0.000035411              -0.000788866               0.002020271               0.001231405               0.000000000               0.000000000               0.000000000               0.000000000              -0.000171441               0.005086018              -0.000026213              -0.000700041               0.001928669               0.001228629               0.000000000               0.000000000               0.000000000               0.000000000              -0.000061403               0.004974784              -0.000012967              -0.000644873               0.001873202               0.001228330               0.000000000               0.000000000               0.000000000               0.000000000              -0.000010668               0.004917663              -0.000003073              -0.000618707               0.001845440               0.001226733               0.000000000               0.000000000               0.000000000               0.000000000              -0.000003303               0.004897016              -0.000002280              -0.000613364               0.001836777               0.001223413               0.000000000               0.000000000               0.000000000               0.000000000              -0.000864827               0.006491140               0.002156501              -0.001135701               0.002542258               0.001406557               0.000000000               0.000000000               0.000000000               0.000000000              -0.002638308               0.007932499               0.001695287              -0.001980923               0.003304447               0.001323524               0.000000000               0.000000000               0.000000000               0.000000000              -0.004023789               0.009367191               0.001157249              -0.002679813               0.004015637               0.001335824               0.000000000               0.000000000               0.000000000               0.000000000              -0.003936546               0.009303943               0.000852323              -0.002639191               0.003981014               0.001341823               0.000000000               0.000000000               0.000000000               0.000000000              -0.003460955               0.008841876               0.000659391              -0.002403087               0.003748291               0.001345205               0.000000000               0.000000000               0.000000000               0.000000000              -0.002885823               0.008278755               0.000528874              -0.002117023               0.003465232               0.001348209               0.000000000               0.000000000               0.000000000               0.000000000              -0.002324853               0.007720517               0.000434172              -0.001836880               0.003185773               0.001348893               0.000000000               0.000000000               0.000000000               0.000000000              -0.001815164               0.007192057               0.000359287              -0.001579690               0.002923892               0.001344202               0.000000000               0.000000000               0.000000000               0.000000000              -0.001365285               0.006691735               0.000293589              -0.001348445               0.002680038               0.001331592               0.000000000               0.000000000               0.000000000               0.000000000              -0.000979778               0.006221202               0.000233495              -0.001145064               0.002455401               0.001310337               0.000000000               0.000000000               0.000000000               0.000000000              -0.000652822               0.005800576               0.000179786              -0.000969878               0.002256799               0.001286921               0.000000000               0.000000000               0.000000000               0.000000000              -0.000377138               0.005466693               0.000130951              -0.000824761               0.002097133               0.001272372               0.000000000               0.000000000               0.000000000               0.000000000              -0.000171336               0.005229671               0.000084923              -0.000717958               0.001982526               0.001264568               0.000000000               0.000000000               0.000000000               0.000000000              -0.000042434               0.005077329               0.000046694              -0.000650577               0.001909285               0.001258708               0.000000000               0.000000000               0.000000000               0.000000000               0.000018785               0.004992304               0.000021607              -0.000616992               0.001869749               0.001252757               0.000000000               0.000000000               0.000000000               0.000000000               0.000029774               0.004957269               0.000005980              -0.000608492               0.001855237               0.001246745               0.000000000               0.000000000               0.000000000               0.000000000               0.000024164               0.004952957               0.000000008              -0.000610057               0.001854321               0.001244265               0.000000000               0.000000000               0.000000000               0.000000000              -0.002318097               0.004431189               0.001209827              -0.001423182               0.001951442               0.000528260               0.000000000               0.000000000               0.000000000               0.000000000              -0.003440678               0.006330570               0.001544011              -0.002081571               0.002804025               0.000722455               0.000000000               0.000000000               0.000000000               0.000000000              -0.004462644               0.008190815               0.001681114              -0.002697337               0.003629356               0.000932020               0.000000000               0.000000000               0.000000000               0.000000000              -0.004228567               0.008531269               0.001472148              -0.002652115               0.003727766               0.001075651               0.000000000               0.000000000               0.000000000               0.000000000              -0.003673131               0.008354945               0.001245576              -0.002421787               0.003592216               0.001170429               0.000000000               0.000000000               0.000000000               0.000000000              -0.003048613               0.007998003               0.001045792              -0.002142975               0.003380299               0.001237324               0.000000000               0.000000000               0.000000000               0.000000000              -0.002447346               0.007578891               0.000884838              -0.001865112               0.003147976               0.001282864               0.000000000               0.000000000               0.000000000               0.000000000              -0.001902440               0.007143611               0.000756942              -0.001606362               0.002916634               0.001310271               0.000000000               0.000000000               0.000000000               0.000000000              -0.001423690               0.006710087               0.000644404              -0.001372641               0.002694220               0.001321579               0.000000000               0.000000000               0.000000000               0.000000000              -0.001014539               0.006288271               0.000539109              -0.001166483               0.002484897               0.001318414               0.000000000               0.000000000               0.000000000               0.000000000              -0.000666167               0.005906744               0.000439176              -0.000988153               0.002298279               0.001310126               0.000000000               0.000000000               0.000000000               0.000000000              -0.000374673               0.005584367               0.000337844              -0.000838546               0.002140952               0.001302406               0.000000000               0.000000000               0.000000000               0.000000000              -0.000152762               0.005330305               0.000237339              -0.000723572               0.002017941               0.001294369               0.000000000               0.000000000               0.000000000               0.000000000              -0.000004892               0.005156522               0.000149652              -0.000646398               0.001934290               0.001287891               0.000000000               0.000000000               0.000000000               0.000000000               0.000071782               0.005051075               0.000075924              -0.000604465               0.001885163               0.001280699               0.000000000               0.000000000               0.000000000               0.000000000               0.000092227               0.005006868               0.000023353              -0.000591272               0.001866030               0.001274758               0.000000000               0.000000000               0.000000000               0.000000000               0.000087088               0.005001290               0.000003532              -0.000592502               0.001864581               0.001272079               0.000000000               0.000000000               0.000000000               0.000000000              -0.004160539               0.002571005               0.000295322              -0.001881574               0.001484183              -0.000397391               0.000000000               0.000000000               0.000000000               0.000000000              -0.004339968               0.004714672               0.001330067              -0.002216817               0.002310480               0.000093663               0.000000000               0.000000000               0.000000000               0.000000000              -0.004804235               0.006799206               0.002101859              -0.002651483               0.003150206               0.000498724               0.000000000               0.000000000               0.000000000               0.000000000              -0.004447553               0.007522500               0.002056613              -0.002608139               0.003376854               0.000768715               0.000000000               0.000000000               0.000000000               0.000000000              -0.003856055               0.007674359               0.001835481              -0.002405310               0.003359864               0.000954554               0.000000000               0.000000000               0.000000000               0.000000000              -0.003219258               0.007563466               0.001593703              -0.002152650               0.003238680               0.001086030               0.000000000               0.000000000               0.000000000               0.000000000              -0.002601265               0.007326386               0.001381519              -0.001891268               0.003072527               0.001181259               0.000000000               0.000000000               0.000000000               0.000000000              -0.002030920               0.007030938               0.001205658              -0.001640459               0.002890442               0.001249983               0.000000000               0.000000000               0.000000000               0.000000000              -0.001523384               0.006701757               0.001047808              -0.001408985               0.002703558               0.001294573               0.000000000               0.000000000               0.000000000               0.000000000              -0.001081050               0.006359796               0.000903521              -0.001200366               0.002520033               0.001319667               0.000000000               0.000000000               0.000000000               0.000000000              -0.000697384               0.006027519               0.000768899              -0.001014957               0.002347472               0.001332515               0.000000000               0.000000000               0.000000000               0.000000000              -0.000368722               0.005724783               0.000626797              -0.000853866               0.002192864               0.001338997               0.000000000               0.000000000               0.000000000               0.000000000              -0.000100694               0.005467878               0.000477078              -0.000721243               0.002063022               0.001341779               0.000000000               0.000000000               0.000000000               0.000000000               0.000092099               0.005266713               0.000334090              -0.000623801               0.001963487               0.001339686               0.000000000               0.000000000               0.000000000               0.000000000               0.000202740               0.005121352               0.000199778              -0.000564140               0.001895147               0.001331007               0.000000000               0.000000000               0.000000000               0.000000000               0.000238959               0.005041024               0.000084334              -0.000540517               0.001860497               0.001319980               0.000000000               0.000000000               0.000000000               0.000000000               0.000225582               0.005009470               0.000029289              -0.000541589               0.001850336               0.001308747               0.000000000               0.000000000               0.000000000               0.000000000              -0.006268634               0.001047947              -0.000505113              -0.002481728               0.001176550              -0.001305178               0.000000000               0.000000000               0.000000000               0.000000000              -0.005380918               0.003182202               0.001037373              -0.002415615               0.001865926              -0.000549689               0.000000000               0.000000000               0.000000000               0.000000000              -0.005080154               0.005207881               0.002304202              -0.002556037               0.002587954               0.000031917               0.000000000               0.000000000               0.000000000               0.000000000              -0.004512159               0.006199837               0.002458461              -0.002467034               0.002888935               0.000421901               0.000000000               0.000000000               0.000000000               0.000000000              -0.003870847               0.006649499               0.002297593              -0.002282750               0.002977394               0.000694643               0.000000000               0.000000000               0.000000000               0.000000000              -0.003228710               0.006798661               0.002058789              -0.002060594               0.002953062               0.000892467               0.000000000               0.000000000               0.000000000               0.000000000              -0.002614989               0.006781803               0.001827363              -0.001828342               0.002870025               0.001041683               0.000000000               0.000000000               0.000000000               0.000000000              -0.002044059               0.006662082               0.001621805              -0.001599279               0.002753764               0.001154485               0.000000000               0.000000000               0.000000000               0.000000000              -0.001518892               0.006472847               0.001436335              -0.001378688               0.002617156               0.001238469               0.000000000               0.000000000               0.000000000               0.000000000              -0.001044301               0.006243666               0.001266858              -0.001172069               0.002471891               0.001299822               0.000000000               0.000000000               0.000000000               0.000000000              -0.000626525               0.005998590               0.001106442              -0.000984769               0.002327766               0.001342997               0.000000000               0.000000000               0.000000000               0.000000000              -0.000259825               0.005755454               0.000941013              -0.000816865               0.002190754               0.001373889               0.000000000               0.000000000               0.000000000               0.000000000               0.000058949               0.005535982               0.000762264              -0.000669890               0.002068606               0.001398715               0.000000000               0.000000000               0.000000000               0.000000000               0.000311612               0.005347077               0.000574582              -0.000551529               0.001966184               0.001414655               0.000000000               0.000000000               0.000000000               0.000000000               0.000475831               0.005187796               0.000381859              -0.000470037               0.001885927               0.001415890               0.000000000               0.000000000               0.000000000               0.000000000               0.000541188               0.005075568               0.000187021              -0.000431500               0.001835672               0.001404173               0.000000000               0.000000000               0.000000000               0.000000000               0.000529208               0.005022782               0.000084872              -0.000429394               0.001817375               0.001387981               0.000000000               0.000000000               0.000000000               0.000000000              -0.008491405              -0.000049854              -0.001071849              -0.003178043               0.001042722              -0.002135320               0.000000000               0.000000000               0.000000000               0.000000000              -0.006506642               0.001823571               0.000709683              -0.002667934               0.001497158              -0.001170776               0.000000000               0.000000000               0.000000000               0.000000000              -0.005317715               0.003553759               0.002255052              -0.002438359               0.001997358              -0.000441001               0.000000000               0.000000000               0.000000000               0.000000000              -0.004449906               0.004667240               0.002584260              -0.002252115               0.002306435               0.000054320               0.000000000               0.000000000               0.000000000               0.000000000              -0.003719564               0.005350795               0.002511575              -0.002063682               0.002471473               0.000407792               0.000000000               0.000000000               0.000000000               0.000000000              -0.003061882               0.005748913               0.002311648              -0.001866816               0.002538556               0.000671740               0.000000000               0.000000000               0.000000000               0.000000000              -0.002461153               0.005952695               0.002093249              -0.001667016               0.002539883               0.000872867               0.000000000               0.000000000               0.000000000               0.000000000              -0.001903193               0.006019413               0.001890690              -0.001466121               0.002495157               0.001029036               0.000000000               0.000000000               0.000000000               0.000000000              -0.001376022               0.005996157               0.001704365              -0.001265525               0.002420540               0.001155015               0.000000000               0.000000000               0.000000000               0.000000000              -0.000884215               0.005910658               0.001528132              -0.001070411               0.002327003               0.001256592               0.000000000               0.000000000               0.000000000               0.000000000              -0.000434678               0.005785343               0.001361204              -0.000886171               0.002223818               0.001337648               0.000000000               0.000000000               0.000000000               0.000000000              -0.000020033               0.005646250               0.001193478              -0.000713292               0.002119829               0.001406536               0.000000000               0.000000000               0.000000000               0.000000000               0.000359706               0.005503234               0.001009940              -0.000553014               0.002018731               0.001465717               0.000000000               0.000000000               0.000000000               0.000000000               0.000693531               0.005362964               0.000802980              -0.000410296               0.001924402               0.001514106               0.000000000               0.000000000               0.000000000               0.000000000               0.000953867               0.005229842               0.000566806              -0.000296030               0.001841940               0.001545910               0.000000000               0.000000000               0.000000000               0.000000000               0.001110776               0.005109426               0.000297804              -0.000222137               0.001777170               0.001555034               0.000000000               0.000000000               0.000000000               0.000000000               0.001157617               0.005051950               0.000154937              -0.000197387               0.001749762               0.001552375               0.000000000               0.000000000               0.000000000               0.000000000              -0.010617666              -0.000731761              -0.001300130              -0.003890152               0.001052789              -0.002837362               0.000000000               0.000000000               0.000000000               0.000000000              -0.007620899               0.000720730               0.000412229              -0.002947926               0.001222877              -0.001725049               0.000000000               0.000000000               0.000000000               0.000000000              -0.005525683               0.002001925               0.001955853              -0.002322368               0.001441420              -0.000880948               0.000000000               0.000000000               0.000000000               0.000000000              -0.004305237               0.003105727               0.002376256              -0.002002676               0.001702788              -0.000299888               0.000000000               0.000000000               0.000000000               0.000000000              -0.003452131               0.003940408               0.002384177              -0.001787097               0.001909154               0.000122057               0.000000000               0.000000000               0.000000000               0.000000000              -0.002766295               0.004536077               0.002241009              -0.001604367               0.002046799               0.000442432               0.000000000               0.000000000               0.000000000               0.000000000              -0.002172068               0.004933157               0.002061225              -0.001431168               0.002121424               0.000690257               0.000000000               0.000000000               0.000000000               0.000000000              -0.001625891               0.005183481               0.001889202              -0.001257642               0.002147023               0.000889381               0.000000000               0.000000000               0.000000000               0.000000000              -0.001111638               0.005332310               0.001724974              -0.001083401               0.002138552               0.001055151               0.000000000               0.000000000               0.000000000               0.000000000              -0.000618694               0.005401608               0.001566324              -0.000907210               0.002102921               0.001195711               0.000000000               0.000000000               0.000000000               0.000000000              -0.000140027               0.005413753               0.001417726              -0.000729228               0.002047642               0.001318414               0.000000000               0.000000000               0.000000000               0.000000000               0.000328061               0.005396540               0.001270982              -0.000551544               0.001982676               0.001431132               0.000000000               0.000000000               0.000000000               0.000000000               0.000782774               0.005352818               0.001108927              -0.000375562               0.001909442               0.001533880               0.000000000               0.000000000               0.000000000               0.000000000               0.001216289               0.005284367               0.000915350              -0.000204438               0.001829584               0.001625146               0.000000000               0.000000000               0.000000000               0.000000000               0.001611455               0.005198368               0.000670819              -0.000045501               0.001747939               0.001702438               0.000000000               0.000000000               0.000000000               0.000000000               0.001944438               0.005104176               0.000365492               0.000091141               0.001670995               0.001762136               0.000000000               0.000000000               0.000000000               0.000000000               0.002133221               0.005072830               0.000205819               0.000165852               0.001635642               0.001801495               0.000000000               0.000000000               0.000000000               0.000000000              -0.012397594              -0.001090856              -0.001151633              -0.004512738               0.001140619              -0.003372118               0.000000000               0.000000000               0.000000000               0.000000000              -0.008577210              -0.000079030               0.000195095              -0.003206573               0.001042507              -0.002164066               0.000000000               0.000000000               0.000000000               0.000000000              -0.005702105               0.000734034               0.001439782              -0.002230041               0.000988018              -0.001242024               0.000000000               0.000000000               0.000000000               0.000000000              -0.004141006               0.001745797               0.001829161              -0.001771100               0.001172290              -0.000598810               0.000000000               0.000000000               0.000000000               0.000000000              -0.003151124               0.002653803               0.001880249              -0.001513394               0.001389055              -0.000124339               0.000000000               0.000000000               0.000000000               0.000000000              -0.002427979               0.003379031               0.001795084              -0.001332868               0.001570621               0.000237753               0.000000000               0.000000000               0.000000000               0.000000000              -0.001832857               0.003921255               0.001671422              -0.001177476               0.001699563               0.000522087               0.000000000               0.000000000               0.000000000               0.000000000              -0.001303117               0.004329366               0.001544051              -0.001029838               0.001786386               0.000756549               0.000000000               0.000000000               0.000000000               0.000000000              -0.000803766               0.004629033               0.001419228              -0.000880040               0.001836342               0.000956302               0.000000000               0.000000000               0.000000000               0.000000000              -0.000311722               0.004835041               0.001302027              -0.000721275               0.001852089               0.001130814               0.000000000               0.000000000               0.000000000               0.000000000               0.000187296               0.004976779               0.001194643              -0.000551861               0.001842863               0.001291002               0.000000000               0.000000000               0.000000000               0.000000000               0.000697820               0.005074059               0.001088738              -0.000372575               0.001815527               0.001442953               0.000000000               0.000000000               0.000000000               0.000000000               0.001221069               0.005131707               0.000968634              -0.000183563               0.001771740               0.001588177               0.000000000               0.000000000               0.000000000               0.000000000               0.001756711               0.005149412               0.000818260               0.000015089               0.001711424               0.001726513               0.000000000               0.000000000               0.000000000               0.000000000               0.002307773               0.005129284               0.000617826               0.000224252               0.001634993               0.001859245               0.000000000               0.000000000               0.000000000               0.000000000               0.002870714               0.005078118               0.000346298               0.000441748               0.001545440               0.001987188               0.000000000               0.000000000               0.000000000               0.000000000               0.003261310               0.005085137               0.000204214               0.000587343               0.001499247               0.002086591               0.000000000               0.000000000               0.000000000               0.000000000              -0.013592153              -0.001241653              -0.000673454              -0.004941848               0.001233390              -0.003708458               0.000000000               0.000000000               0.000000000               0.000000000              -0.009229601              -0.000557745               0.000068066              -0.003391380               0.000944539              -0.002446841               0.000000000               0.000000000               0.000000000               0.000000000              -0.005830581              -0.000096862               0.000762469              -0.002174358               0.000692494              -0.001481865               0.000000000               0.000000000               0.000000000               0.000000000              -0.004017216               0.000817990               0.000997576              -0.001608703               0.000808892              -0.000799811               0.000000000               0.000000000               0.000000000               0.000000000              -0.002917554               0.001742651               0.001043158              -0.001311912               0.001018180              -0.000293731               0.000000000               0.000000000               0.000000000               0.000000000              -0.002155959               0.002532301               0.001006100              -0.001125020               0.001219098               0.000094078               0.000000000               0.000000000               0.000000000               0.000000000              -0.001558528               0.003164660               0.000941600              -0.000980028               0.001381552               0.000401524               0.000000000               0.000000000               0.000000000               0.000000000              -0.001039122               0.003675955               0.000871181              -0.000849163               0.001508360               0.000659197               0.000000000               0.000000000               0.000000000               0.000000000              -0.000548305               0.004080409               0.000803868              -0.000715664               0.001598677               0.000883013               0.000000000               0.000000000               0.000000000               0.000000000              -0.000059577               0.004390165               0.000742687              -0.000571111               0.001653744               0.001082633               0.000000000               0.000000000               0.000000000               0.000000000               0.000443487               0.004627661               0.000686815              -0.000412149               0.001679921               0.001267772               0.000000000               0.000000000               0.000000000               0.000000000               0.000971405               0.004808470               0.000631462              -0.000236782               0.001681734               0.001444953               0.000000000               0.000000000               0.000000000               0.000000000               0.001537796               0.004945634               0.000568239              -0.000041531               0.001662372               0.001620841               0.000000000               0.000000000               0.000000000               0.000000000               0.002155920               0.005040924               0.000489220               0.000178352               0.001620840               0.001799193               0.000000000               0.000000000               0.000000000               0.000000000               0.002840879               0.005083955               0.000379527               0.000429831               0.001551358               0.001981189               0.000000000               0.000000000               0.000000000               0.000000000               0.003610448               0.005063807               0.000217860               0.000720935               0.001447607               0.002168542               0.000000000               0.000000000               0.000000000               0.000000000               0.004196805               0.005099820               0.000133100               0.000936315               0.001387818               0.002324133               0.000000000               0.000000000               0.000000000               0.000000000               0.000000000               0.000000000               0.000000000               0.000000000               0.000000000               0.000000000               0.000000000               0.000000000               0.000000000               0.000000000               0.000000000               0.000000000               0.000000000               0.000000000               0.000000000               0.000000000               0.000000000               0.000000000               0.000000000               0.000000000               0.000000000               0.000000000               0.000000000               0.000000000               0.000000000               0.000000000               0.000000000               0.000000000               0.000000000               0.000000000               0.000000000               0.000000000               0.000000000               0.000000000               0.000000000               0.000000000               0.000000000               0.000000000               0.000000000               0.000000000               0.000000000               0.000000000               0.000000000               0.000000000               0.000000000               0.000000000               0.000000000               0.000000000               0.000000000               0.000000000               0.000000000               0.000000000               0.000000000               0.000000000               0.000000000               0.000000000               0.000000000               0.000000000               0.000000000               0.000000000               0.000000000               0.000000000               0.000000000               0.000000000               0.000000000               0.000000000               0.000000000               0.000000000               0.000000000               0.000000000               0.000000000               0.000000000               0.000000000               0.000000000               0.000000000               0.000000000               0.000000000               0.000000000               0.000000000               0.000000000               0.000000000               0.000000000               0.000000000               0.000000000               0.000000000               0.000000000               0.000000000               0.000000000               0.000000000               0.000000000               0.000000000               0.000000000               0.000000000               0.000000000               0.000000000               0.000000000               0.000000000               0.000000000               0.000000000               0.000000000               0.000000000               0.000000000               0.000000000               0.000000000               0.000000000               0.000000000               0.000000000               0.000000000               0.000000000               0.000000000               0.000000000               0.000000000               0.000000000               0.000000000               0.000000000               0.000000000               0.000000000               0.000000000               0.000000000               0.000000000               0.000000000               0.000000000               0.000000000               0.000000000               0.000000000               0.000000000               0.000000000               0.000000000               0.000000000               0.000000000               0.000000000               0.000000000               0.000000000               0.000000000               0.000000000               0.000000000               0.000000000               0.000000000               0.000000000               0.000000000               0.000000000               0.000000000               0.000000000               0.000000000               0.000000000               0.000000000               0.000000000               0.000000000               0.000000000               0.000000000               0.000000000               0.000000000               0.000000000               0.000000000               0.000000000               0.000000000               0.000000000               0.000000000               0.000000000               0.000000000               0.000000000               0.000000000               0.000000000               0.000000000               0.000000000               0.000000000               0.000000000               0.000000000               0.000000000               0.000000000 </DataArray>
</PointData>
</Piece>
</UnstructuredGrid> </VTKFile>
